3
step=0 energy_Eh=-76.3976475897678000 units=angstrom
O  -0.000000000000 -0.000000000000  0.297784409382
H  -0.000000000000  0.756388849312 -0.297950294948
H  -0.000000000000 -0.756388849312 -0.297950294948
3
step=1 energy_Eh=-76.3976496088573640 units=angstrom
O  -0.000000000000 -0.000000000000  0.296487114412
H   0.000000000001  0.757543815588 -0.297280402415
H   0.000000000000 -0.757543815588 -0.297280402416
3
step=2 energy_Eh=-76.3976496098327402 units=angstrom
O  -0.000000000015  0.000000000000  0.296471350787
H   0.000000000017  0.757570169116 -0.297252353253
H  -0.000000000002 -0.757570169115 -0.297252353253
3
step=3 energy_Eh=-76.3976496098050433 units=angstrom
O  -0.000000000028 -0.000000000001  0.296484403721
H  -0.000000000003  0.757570655848 -0.297238505810
H   0.000000000031 -0.757570655848 -0.297238505811
