6
Properties=species:S:1:pos:R:3 label=water-dimer-00-2.5000A-AB scan_index=0 role=AB requested_oo_distance_angstrom=2.5 measured_oo_distance_angstrom=2.5 geometry_sha256=4c5484a64ebbfa3db661c9f9fd0e2c5e209868dce4c86ac5ed224ddd0a26fb57 parent_dimer_geometry_sha256=4c5484a64ebbfa3db661c9f9fd0e2c5e209868dce4c86ac5ed224ddd0a26fb57 pbc="F F F"
O -1.4309969817328718 0 0.37028397116928902
H -0.46243196347028781 3.5600932080515424e-17 0.37028397116928907
H -1.6653120182671282 -0.57859638871700103 -0.37028397116928902
O 1.0690030182671282 0 0.37028397116928902
H 1.6653120182671279 0.763239 0.37028397116928902
H 1.6653120182671279 -0.763239 0.37028397116928902
3
Properties=species:S:1:pos:R:3 label=water-dimer-00-2.5000A-A scan_index=0 role=A requested_oo_distance_angstrom=2.5 measured_oo_distance_angstrom=2.5 geometry_sha256=d930276c0f7e3dbed5a9aa1ea5c0a7add03e12c4cfe508c8f355f02fdde2144d parent_dimer_geometry_sha256=4c5484a64ebbfa3db661c9f9fd0e2c5e209868dce4c86ac5ed224ddd0a26fb57 pbc="F F F"
O -1.4309969817328718 0 0.37028397116928902
H -0.46243196347028781 3.5600932080515424e-17 0.37028397116928907
H -1.6653120182671282 -0.57859638871700103 -0.37028397116928902
3
Properties=species:S:1:pos:R:3 label=water-dimer-00-2.5000A-B scan_index=0 role=B requested_oo_distance_angstrom=2.5 measured_oo_distance_angstrom=2.5 geometry_sha256=b0ad4a401b773bbc062742ee70e3ddca105a497a3e82724a7b4c059f567c2f29 parent_dimer_geometry_sha256=4c5484a64ebbfa3db661c9f9fd0e2c5e209868dce4c86ac5ed224ddd0a26fb57 pbc="F F F"
O 1.0690030182671282 0 0.37028397116928902
H 1.6653120182671279 0.763239 0.37028397116928902
H 1.6653120182671279 -0.763239 0.37028397116928902
6
Properties=species:S:1:pos:R:3 label=water-dimer-01-2.7000A-AB scan_index=1 role=AB requested_oo_distance_angstrom=2.7000000000000002 measured_oo_distance_angstrom=2.7000000000000002 geometry_sha256=c2217414beea7dabe01741838c1c90b3fc133fceb830911791129c0ecdfd781e parent_dimer_geometry_sha256=c2217414beea7dabe01741838c1c90b3fc133fceb830911791129c0ecdfd781e pbc="F F F"
O -1.5309969817328719 0 0.37028397116928902
H -0.5624319634702879 3.5600932080515424e-17 0.37028397116928907
H -1.7653120182671282 -0.57859638871700103 -0.37028397116928902
O 1.1690030182671283 0 0.37028397116928902
H 1.765312018267128 0.763239 0.37028397116928902
H 1.765312018267128 -0.763239 0.37028397116928902
3
Properties=species:S:1:pos:R:3 label=water-dimer-01-2.7000A-A scan_index=1 role=A requested_oo_distance_angstrom=2.7000000000000002 measured_oo_distance_angstrom=2.7000000000000002 geometry_sha256=666b265d3c1eb97b75c140c9922b89bf59b88ed5c46d60b0c1908e3c39120abe parent_dimer_geometry_sha256=c2217414beea7dabe01741838c1c90b3fc133fceb830911791129c0ecdfd781e pbc="F F F"
O -1.5309969817328719 0 0.37028397116928902
H -0.5624319634702879 3.5600932080515424e-17 0.37028397116928907
H -1.7653120182671282 -0.57859638871700103 -0.37028397116928902
3
Properties=species:S:1:pos:R:3 label=water-dimer-01-2.7000A-B scan_index=1 role=B requested_oo_distance_angstrom=2.7000000000000002 measured_oo_distance_angstrom=2.7000000000000002 geometry_sha256=19ffbe0fa89bac918efc3a59a3f58986348d5d08bdd758705fde138fd58e40e8 parent_dimer_geometry_sha256=c2217414beea7dabe01741838c1c90b3fc133fceb830911791129c0ecdfd781e pbc="F F F"
O 1.1690030182671283 0 0.37028397116928902
H 1.765312018267128 0.763239 0.37028397116928902
H 1.765312018267128 -0.763239 0.37028397116928902
6
Properties=species:S:1:pos:R:3 label=water-dimer-02-2.9000A-AB scan_index=2 role=AB requested_oo_distance_angstrom=2.8999999999999999 measured_oo_distance_angstrom=2.8999999999999999 geometry_sha256=7ad6f7205154cdeaa3bc23b96ae7fd14d6e00cedc3e328d88ee812ff6dbedef6 parent_dimer_geometry_sha256=7ad6f7205154cdeaa3bc23b96ae7fd14d6e00cedc3e328d88ee812ff6dbedef6 pbc="F F F"
O -1.630996981732872 0 0.37028397116928902
H -0.66243196347028799 3.5600932080515424e-17 0.37028397116928907
H -1.8653120182671283 -0.57859638871700103 -0.37028397116928902
O 1.2690030182671279 0 0.37028397116928902
H 1.8653120182671281 0.763239 0.37028397116928902
H 1.8653120182671281 -0.763239 0.37028397116928902
3
Properties=species:S:1:pos:R:3 label=water-dimer-02-2.9000A-A scan_index=2 role=A requested_oo_distance_angstrom=2.8999999999999999 measured_oo_distance_angstrom=2.8999999999999999 geometry_sha256=7a06ba4c927e1d7292d6db34ba162fffce9a823d18f437d2300b4d8623bdffc7 parent_dimer_geometry_sha256=7ad6f7205154cdeaa3bc23b96ae7fd14d6e00cedc3e328d88ee812ff6dbedef6 pbc="F F F"
O -1.630996981732872 0 0.37028397116928902
H -0.66243196347028799 3.5600932080515424e-17 0.37028397116928907
H -1.8653120182671283 -0.57859638871700103 -0.37028397116928902
3
Properties=species:S:1:pos:R:3 label=water-dimer-02-2.9000A-B scan_index=2 role=B requested_oo_distance_angstrom=2.8999999999999999 measured_oo_distance_angstrom=2.8999999999999999 geometry_sha256=b9304f9b07bfba1a6b89e8474066855dc5e82ea3e45cfbd3720b05cb9723d205 parent_dimer_geometry_sha256=7ad6f7205154cdeaa3bc23b96ae7fd14d6e00cedc3e328d88ee812ff6dbedef6 pbc="F F F"
O 1.2690030182671279 0 0.37028397116928902
H 1.8653120182671281 0.763239 0.37028397116928902
H 1.8653120182671281 -0.763239 0.37028397116928902
6
Properties=species:S:1:pos:R:3 label=water-dimer-03-3.2000A-AB scan_index=3 role=AB requested_oo_distance_angstrom=3.2000000000000002 measured_oo_distance_angstrom=3.2000000000000002 geometry_sha256=ece38eb23512b1edc0bc804131d5bc7fc7cacaff36f2c7dd4ff8cde8fbb3412f parent_dimer_geometry_sha256=ece38eb23512b1edc0bc804131d5bc7fc7cacaff36f2c7dd4ff8cde8fbb3412f pbc="F F F"
O -1.7809969817328719 0 0.37028397116928902
H -0.8124319634702879 3.5600932080515424e-17 0.37028397116928907
H -2.015312018267128 -0.57859638871700103 -0.37028397116928902
O 1.4190030182671283 0 0.37028397116928902
H 2.015312018267128 0.763239 0.37028397116928902
H 2.015312018267128 -0.763239 0.37028397116928902
3
Properties=species:S:1:pos:R:3 label=water-dimer-03-3.2000A-A scan_index=3 role=A requested_oo_distance_angstrom=3.2000000000000002 measured_oo_distance_angstrom=3.2000000000000002 geometry_sha256=71e2414f8de4c3522e26582fbd4340b5c1316a4e745fabb28950c7b3421b4d18 parent_dimer_geometry_sha256=ece38eb23512b1edc0bc804131d5bc7fc7cacaff36f2c7dd4ff8cde8fbb3412f pbc="F F F"
O -1.7809969817328719 0 0.37028397116928902
H -0.8124319634702879 3.5600932080515424e-17 0.37028397116928907
H -2.015312018267128 -0.57859638871700103 -0.37028397116928902
3
Properties=species:S:1:pos:R:3 label=water-dimer-03-3.2000A-B scan_index=3 role=B requested_oo_distance_angstrom=3.2000000000000002 measured_oo_distance_angstrom=3.2000000000000002 geometry_sha256=6ea77f480d588ab13982ee0441d720997d79dca015a58f620199bc93d8fb6201 parent_dimer_geometry_sha256=ece38eb23512b1edc0bc804131d5bc7fc7cacaff36f2c7dd4ff8cde8fbb3412f pbc="F F F"
O 1.4190030182671283 0 0.37028397116928902
H 2.015312018267128 0.763239 0.37028397116928902
H 2.015312018267128 -0.763239 0.37028397116928902
6
Properties=species:S:1:pos:R:3 label=water-dimer-04-3.5000A-AB scan_index=4 role=AB requested_oo_distance_angstrom=3.5 measured_oo_distance_angstrom=3.5 geometry_sha256=1ec813109c66d2cd6da14f9c26b81ee40831cd71fa074c7a3d448da6e873dcfe parent_dimer_geometry_sha256=1ec813109c66d2cd6da14f9c26b81ee40831cd71fa074c7a3d448da6e873dcfe pbc="F F F"
O -1.9309969817328718 0 0.37028397116928902
H -0.96243196347028781 3.5600932080515424e-17 0.37028397116928907
H -2.1653120182671279 -0.57859638871700103 -0.37028397116928902
O 1.5690030182671282 0 0.37028397116928902
H 2.1653120182671279 0.763239 0.37028397116928902
H 2.1653120182671279 -0.763239 0.37028397116928902
3
Properties=species:S:1:pos:R:3 label=water-dimer-04-3.5000A-A scan_index=4 role=A requested_oo_distance_angstrom=3.5 measured_oo_distance_angstrom=3.5 geometry_sha256=ca9f08d86e726f524556c3fa25bc64b4d8b5520ee5156f7b23644850c6fb30c7 parent_dimer_geometry_sha256=1ec813109c66d2cd6da14f9c26b81ee40831cd71fa074c7a3d448da6e873dcfe pbc="F F F"
O -1.9309969817328718 0 0.37028397116928902
H -0.96243196347028781 3.5600932080515424e-17 0.37028397116928907
H -2.1653120182671279 -0.57859638871700103 -0.37028397116928902
3
Properties=species:S:1:pos:R:3 label=water-dimer-04-3.5000A-B scan_index=4 role=B requested_oo_distance_angstrom=3.5 measured_oo_distance_angstrom=3.5 geometry_sha256=42e92e4b4cb0800c8557ded90a3230be1ff4b66972c803630413978e50cf311d parent_dimer_geometry_sha256=1ec813109c66d2cd6da14f9c26b81ee40831cd71fa074c7a3d448da6e873dcfe pbc="F F F"
O 1.5690030182671282 0 0.37028397116928902
H 2.1653120182671279 0.763239 0.37028397116928902
H 2.1653120182671279 -0.763239 0.37028397116928902
6
Properties=species:S:1:pos:R:3 label=water-dimer-05-3.9000A-AB scan_index=5 role=AB requested_oo_distance_angstrom=3.8999999999999999 measured_oo_distance_angstrom=3.8999999999999999 geometry_sha256=5df211a5d307bf4372abd84b47f546fc24f09a99c0274151e7d2bfe1d917d170 parent_dimer_geometry_sha256=5df211a5d307bf4372abd84b47f546fc24f09a99c0274151e7d2bfe1d917d170 pbc="F F F"
O -2.130996981732872 0 0.37028397116928902
H -1.162431963470288 3.5600932080515424e-17 0.37028397116928907
H -2.3653120182671281 -0.57859638871700103 -0.37028397116928902
O 1.7690030182671279 0 0.37028397116928902
H 2.3653120182671281 0.763239 0.37028397116928902
H 2.3653120182671281 -0.763239 0.37028397116928902
3
Properties=species:S:1:pos:R:3 label=water-dimer-05-3.9000A-A scan_index=5 role=A requested_oo_distance_angstrom=3.8999999999999999 measured_oo_distance_angstrom=3.8999999999999999 geometry_sha256=d6b4b82f667506e9bbcee52b4d118b61ec95012cad42b750936682bb708cdbee parent_dimer_geometry_sha256=5df211a5d307bf4372abd84b47f546fc24f09a99c0274151e7d2bfe1d917d170 pbc="F F F"
O -2.130996981732872 0 0.37028397116928902
H -1.162431963470288 3.5600932080515424e-17 0.37028397116928907
H -2.3653120182671281 -0.57859638871700103 -0.37028397116928902
3
Properties=species:S:1:pos:R:3 label=water-dimer-05-3.9000A-B scan_index=5 role=B requested_oo_distance_angstrom=3.8999999999999999 measured_oo_distance_angstrom=3.8999999999999999 geometry_sha256=fd9367c240c00d52a7efb8862fcba49d723b71a394c7075cecbbb3af0e92c656 parent_dimer_geometry_sha256=5df211a5d307bf4372abd84b47f546fc24f09a99c0274151e7d2bfe1d917d170 pbc="F F F"
O 1.7690030182671279 0 0.37028397116928902
H 2.3653120182671281 0.763239 0.37028397116928902
H 2.3653120182671281 -0.763239 0.37028397116928902
6
Properties=species:S:1:pos:R:3 label=water-dimer-06-4.4000A-AB scan_index=6 role=AB requested_oo_distance_angstrom=4.4000000000000004 measured_oo_distance_angstrom=4.4000000000000004 geometry_sha256=704a7e461ce69e0f30d7b20d205ecbaa362a0a08192e4b9f091fb3456ad90cab parent_dimer_geometry_sha256=704a7e461ce69e0f30d7b20d205ecbaa362a0a08192e4b9f091fb3456ad90cab pbc="F F F"
O -2.380996981732872 0 0.37028397116928902
H -1.412431963470288 3.5600932080515424e-17 0.37028397116928907
H -2.6153120182671281 -0.57859638871700103 -0.37028397116928902
O 2.0190030182671284 0 0.37028397116928902
H 2.6153120182671281 0.763239 0.37028397116928902
H 2.6153120182671281 -0.763239 0.37028397116928902
3
Properties=species:S:1:pos:R:3 label=water-dimer-06-4.4000A-A scan_index=6 role=A requested_oo_distance_angstrom=4.4000000000000004 measured_oo_distance_angstrom=4.4000000000000004 geometry_sha256=8a08e93007b9309e0fa8a55a9e1f87eea55900d6a24d0fd6937a23bdd11f0bec parent_dimer_geometry_sha256=704a7e461ce69e0f30d7b20d205ecbaa362a0a08192e4b9f091fb3456ad90cab pbc="F F F"
O -2.380996981732872 0 0.37028397116928902
H -1.412431963470288 3.5600932080515424e-17 0.37028397116928907
H -2.6153120182671281 -0.57859638871700103 -0.37028397116928902
3
Properties=species:S:1:pos:R:3 label=water-dimer-06-4.4000A-B scan_index=6 role=B requested_oo_distance_angstrom=4.4000000000000004 measured_oo_distance_angstrom=4.4000000000000004 geometry_sha256=33be0f2bab02b0972d866532fd9e7ff045aef9e53d95d9d6f9c3209fd5b1c0c2 parent_dimer_geometry_sha256=704a7e461ce69e0f30d7b20d205ecbaa362a0a08192e4b9f091fb3456ad90cab pbc="F F F"
O 2.0190030182671284 0 0.37028397116928902
H 2.6153120182671281 0.763239 0.37028397116928902
H 2.6153120182671281 -0.763239 0.37028397116928902
6
Properties=species:S:1:pos:R:3 label=water-dimer-07-5.0000A-AB scan_index=7 role=AB requested_oo_distance_angstrom=5 measured_oo_distance_angstrom=5 geometry_sha256=0373829a2f98003b81231327f1dd735af9abef300d7192f7f5bf8b15b4403070 parent_dimer_geometry_sha256=0373829a2f98003b81231327f1dd735af9abef300d7192f7f5bf8b15b4403070 pbc="F F F"
O -2.6809969817328718 0 0.37028397116928902
H -1.7124319634702878 3.5600932080515424e-17 0.37028397116928907
H -2.9153120182671279 -0.57859638871700103 -0.37028397116928902
O 2.3190030182671282 0 0.37028397116928902
H 2.9153120182671279 0.763239 0.37028397116928902
H 2.9153120182671279 -0.763239 0.37028397116928902
3
Properties=species:S:1:pos:R:3 label=water-dimer-07-5.0000A-A scan_index=7 role=A requested_oo_distance_angstrom=5 measured_oo_distance_angstrom=5 geometry_sha256=7afaf11a93da3ecbe4dfe97ccdc3ba282ecdd7a9d960e4a03e8a495b201d2493 parent_dimer_geometry_sha256=0373829a2f98003b81231327f1dd735af9abef300d7192f7f5bf8b15b4403070 pbc="F F F"
O -2.6809969817328718 0 0.37028397116928902
H -1.7124319634702878 3.5600932080515424e-17 0.37028397116928907
H -2.9153120182671279 -0.57859638871700103 -0.37028397116928902
3
Properties=species:S:1:pos:R:3 label=water-dimer-07-5.0000A-B scan_index=7 role=B requested_oo_distance_angstrom=5 measured_oo_distance_angstrom=5 geometry_sha256=370b18dfa261c7147bcfc3a2813b6f3699c495e2d60840f99cb25ba7f57e7fe3 parent_dimer_geometry_sha256=0373829a2f98003b81231327f1dd735af9abef300d7192f7f5bf8b15b4403070 pbc="F F F"
O 2.3190030182671282 0 0.37028397116928902
H 2.9153120182671279 0.763239 0.37028397116928902
H 2.9153120182671279 -0.763239 0.37028397116928902
