15
Ethyl methyl carbonate; idealized teaching geometry for bootcamp MLIP relaxation.
C   0.0000   0.0000   0.0000
O   1.2200   0.0000   0.0000
O  -0.6800   1.0500   0.0000
O  -0.6800  -1.0500   0.0000
C  -1.9500   1.1200   0.0000
H  -2.2700   1.6500   0.8900
H  -2.2700   1.6500  -0.8900
H  -2.3200   0.1000   0.0000
C  -1.9500  -1.1200   0.0000
C  -2.6500  -2.4200   0.0000
H  -2.3200  -0.5600   0.8900
H  -2.3200  -0.5600  -0.8900
H  -2.2500  -3.0100   0.8900
H  -2.2500  -3.0100  -0.8900
H  -3.7300  -2.3000   0.0000
