17
Trimethyl phosphate; idealized teaching geometry for bootcamp MLIP relaxation.
P   0.0000   0.0000   0.0000
O   1.5000   0.0000   0.0000
O  -0.5000   1.3500   0.0000
O  -0.5000  -1.3500   0.0000
O   0.0000   0.0000   1.5000
C  -1.7500   1.6500   0.0000
H  -2.1900   1.2800   0.9200
H  -2.1900   1.2800  -0.9200
H  -1.8800   2.7300   0.0000
C  -1.7500  -1.6500   0.0000
H  -2.1900  -1.2800   0.9200
H  -2.1900  -1.2800  -0.9200
H  -1.8800  -2.7300   0.0000
C   0.0000   0.0000   2.8800
H   0.0000   1.0200   3.2600
H   0.8800  -0.5100   3.2600
H  -0.8800  -0.5100   3.2600
