50
Lattice="10.137165069580078 0.0 6.000000233523199e-16 5.068582534790039 9.275026321411133 -2.926347494125366 0.0 0.0 35.11616897583008" Properties=species:S:1:pos:R:3:move_mask:L:1:tags:I:1 label=69_1615_2_rand2_sid23355 sid=23355 config=1 system_id=69_1615_2 config_id=rand2 mpid=mp-1298 miller_idx="(2, 2, 1)" adsorbate=*N2 dft_adsorption_energy_eV=-0.08149432999999817 dft_rank=1 pbc="T T T"
K       10.13716507       4.63751316      11.33959675  F        0
K        0.00000000       0.00000000      17.19229126  F        0
K        5.06858253       0.00000000      14.26594353  F        0
K        5.06858253       4.63751316      14.26594353  F        0
K       10.13716507       4.63751316      17.19229126  F        0
K        0.00000000       0.00000000      23.04498672  T        1
K        5.06858253       0.00000000      20.11863899  T        1
K        5.06858253       4.63751316      20.11863899  T        1
Au       8.44763756       4.63751316      14.26594353  F        0
Au       8.44763756       0.00000000      14.26594353  F        0
Au       3.37905502       0.00000000      17.19229126  F        0
Au       3.37905502       4.63751316      11.33959675  F        0
Au       7.60287380       6.95626974      12.80276966  F        0
Au       7.60287380       2.31875658      12.80276966  F        0
Au       2.53429127       2.31875658      15.72911739  F        0
Au      12.67145634       6.95626974       9.87642288  F        0
Au      10.13716507       6.95626974      14.26594353  F        0
Au      10.13716507       2.31875658      14.26594353  F        0
Au       5.06858253       2.31875658      11.33959675  F        0
Au       5.06858253       6.95626974      11.33959675  F        0
Au      12.67145634       6.95626974      12.80276966  F        0
Au       2.53429127       2.31875658      12.80276966  F        0
Au       7.60287380       2.31875658      15.72911739  F        0
Au       7.60287380       6.95626974       9.87642288  F        0
Au      11.82669258       4.63751316      14.26594353  F        0
Au       1.68952751       0.00000000      14.26594353  F        0
Au       6.75811005       0.00000000      17.19229126  F        0
Au       6.75811005       4.63751316      11.33959675  F        0
Au       8.44763756       4.63751316      20.11863899  T        1
Au       8.44763756       0.00000000      20.11863899  F        0
Au       3.37905502       0.00000000      23.04498672  T        1
Au       3.37905502       4.63751316      17.19229126  F        0
Au       7.60287380       6.95626974      18.65546417  T        1
Au       7.60287380       2.31875658      18.65546417  F        0
Au       2.53429127       2.31875658      21.58181190  T        1
Au      12.67145634       6.95626974      15.72911739  F        0
Au      10.13716507       6.95626974      20.11863899  T        1
Au      10.13716507       2.31875658      20.11863899  T        1
Au       5.06858253       2.31875658      17.19229126  F        0
Au       5.06858253       6.95626974      17.19229126  F        0
Au      12.67145634       6.95626974      18.65546417  T        1
Au       2.53429127       2.31875658      18.65546417  F        0
Au       7.60287380       2.31875658      21.58181190  T        1
Au       7.60287380       6.95626974      15.72911739  F        0
Au      11.82669258       4.63751316      20.11863899  T        1
Au       1.68952751       0.00000000      20.11863899  F        0
Au       6.75811005       0.00000000      23.04498672  T        1
Au       6.75811005       4.63751316      17.19229126  F        0
N        1.46571529       1.56073153      24.30890846  T        2
N       10.83929825       2.34137654      24.30890846  T        2
