18
Naphthalene C10H8
C     0.000000     1.402860     0.000000
C     1.215250     0.711100     0.000000
C     1.215250    -0.711100     0.000000
C     0.000000    -1.402860     0.000000
C    -1.215250    -0.711100     0.000000
C    -1.215250     0.711100     0.000000
C     2.432750     1.399320     0.000000
C     2.432750    -1.399320     0.000000
C     3.639920    -0.710080     0.000000
C     3.639920     0.710080     0.000000
H     0.000000     2.490270     0.000000
H     0.000000    -2.490270     0.000000
H    -2.155960     1.245370     0.000000
H    -2.155960    -1.245370     0.000000
H     2.432750     2.486740     0.000000
H     2.432750    -2.486740     0.000000
H     4.580630     1.245370     0.000000
H     4.580630    -1.245370     0.000000
