14
charge=-1 source=NCIAtlas/IHB100x10/08.007_100 fragment=B source_revision=1816bfc72609d7deb1d4f93ab9e27eb13bb44bec
O -0.445212154 1.745023968 -0.844484065
C -0.245617449 1.076321162 0.198382133
O -0.338591145 1.440725036 1.389843996
C 0.168255596 -0.392260666 -0.025601183
C 0.415697309 -1.232991388 1.057755337
C 0.788417435 -2.557886731 0.862042200
C 0.919709467 -3.063004926 -0.428182603
C 0.675148663 -2.231194937 -1.516820219
C 0.302702025 -0.907247735 -1.313443015
H 0.306270729 -0.813452631 2.047657764
H 0.977582790 -3.199682462 1.713903917
H 1.209990513 -4.094434899 -0.583674552
H 0.775835735 -2.617693975 -2.523705747
H 0.106972591 -0.238936884 -2.139728303
