51
Lattice="10.522896766662598 0.0 6.000000233523199e-16 -5.261448383331299 11.974918365478516 -1.100951075553894 0.0 0.0 36.076263427734375" Properties=species:S:1:pos:R:3:move_mask:L:1:tags:I:1 label=3_2070_48_rand64_sid14966 sid=14966 config=1 system_id=3_2070_48 config_id=rand64 mpid=mp-568526 miller_idx="(0, 1, 1)" adsorbate=*OH2 dft_adsorption_energy_eV=-0.5429077000000007 dft_rank=1 pbc="T T T"
Hg       0.00000000       5.26869631      18.82746315  F        0
Hg       2.63072419       5.26869631      12.81475353  F        0
Hg       2.63072419       4.26210594      19.93084335  F        0
Hg       0.00000000       4.26210594      13.91813278  F        0
Hg       0.00000000       1.72535336      15.59494495  F        0
Hg       2.63072419       1.72535336      21.60765648  T        1
Hg       2.63072419       0.71876281      16.69832420  F        0
Hg       0.00000000       0.71876281      22.71103668  T        1
Hg      -2.63072419      11.25615597      18.27698898  F        0
Hg       0.00000000      11.25615597      12.26427746  F        0
Hg       0.00000000      10.24956512      19.38036728  F        0
Hg      -2.63072419      10.24956512      13.36765766  F        0
Hg      -2.63072419       7.71281242      15.04446983  F        0
Hg       0.00000000       7.71281242      21.05718040  T        1
Hg       0.00000000       6.70622206      16.14785004  F        0
Hg      -2.63072419       6.70622206      22.16056061  T        1
Hg       5.26144838       5.26869631      18.82746315  F        0
Hg       7.89217234       5.26869631      12.81475353  F        0
Hg       7.89217234       4.26210594      19.93084335  F        0
Hg       5.26144838       4.26210594      13.91813278  F        0
Hg       5.26144838       1.72535336      15.59494495  F        0
Hg       7.89217234       1.72535336      21.60765648  T        1
Hg       7.89217234       0.71876281      16.69832420  F        0
Hg       5.26144838       0.71876281      22.71103668  T        1
Hg       2.63072419      11.25615597      18.27698898  F        0
Hg       5.26144838      11.25615597      12.26427746  F        0
Hg       5.26144838      10.24956512      19.38036728  F        0
Hg       2.63072419      10.24956512      13.36765766  F        0
Hg       2.63072419       7.71281242      15.04446983  F        0
Hg       5.26144838       7.71281242      21.05718040  T        1
Hg       5.26144838       6.70622206      16.14785004  F        0
Hg       2.63072419       6.70622206      22.16056061  T        1
Sr       0.00000000       4.25080538      22.39765549  T        1
Sr       2.63072419       4.25080538      16.38494301  F        0
Sr       2.63072419       1.73665369      13.12813473  F        0
Sr      -0.00000000       1.73665369      19.14084435  F        0
Sr      -2.63072419      10.23826504      21.84717941  T        1
Sr       0.00000000      10.23826504      15.83446789  F        0
Sr       0.00000000       7.72411299      12.57765865  F        0
Sr      -2.63072419       7.72411299      18.59037018  F        0
Sr       5.26144838       4.25080538      22.39765549  T        1
Sr       7.89217234       4.25080538      16.38494301  F        0
Sr       7.89217234       1.73665369      13.12813473  F        0
Sr       5.26144838       1.73665369      19.14084435  F        0
Sr       2.63072419      10.23826504      21.84717941  T        1
Sr       5.26144838      10.23826504      15.83446789  F        0
Sr       5.26144838       7.72411299      12.57765865  F        0
Sr       2.63072419       7.72411299      18.59037018  F        0
H        3.40713787       4.45377970      24.13553810  T        2
H        4.58631182       3.46377802      24.14933777  T        2
O        3.61402130       3.50426841      24.23313904  T        2
