88
Lattice="12.25754165649414 5.000000018137469e-16 4.205538272857666 8.000000134899068e-16 13.747684478759766 -8.411076545715332 -0.0 4.600000037862295e-15 37.8498420715332" Properties=species:S:1:pos:R:3:move_mask:L:1:tags:I:1 label=72_7104_115_rand27_sid3469 sid=3469 config=1 system_id=72_7104_115 config_id=rand27 mpid=mp-614572 miller_idx="(1, 1, 2)" adsorbate=*NH3 dft_adsorption_energy_eV=-2.0497137549999707 dft_rank=1 pbc="T T T"
Ca      10.38195896      13.68709183      14.07506561  T        1
Ca       9.41364479       9.77730465      14.07506561  F        0
Ca       4.25318813       6.93443441      14.07506561  F        0
Ca       8.00435352       6.81324959      16.17783546  F        0
Ca       1.87558293       0.06059244      20.38337326  T        1
Ca       5.32474709       1.41201568      20.38337326  T        1
Ca      11.45351791       5.46182632      20.38337326  T        1
Ca       6.93279457      12.33566856      14.07506561  T        1
Ca       2.84389687       3.97037935      16.17783546  T        1
Ca       8.97266769       2.90346289      20.38337326  T        1
Ca       0.80402392       8.28585815      14.07506561  T        1
Ca       3.28487396      10.84422112      14.07506561  T        1
Ca      10.38195896      13.68709183       9.86952782  F        0
Ca       9.41364479       9.77730465       9.86952782  F        0
Ca       4.25318813       6.93443441       9.86952782  F        0
Ca       8.00435352       6.81324959      11.97229671  F        0
Ca       1.87558293       0.06059244      16.17783546  F        0
Ca       5.32474709       1.41201568      16.17783546  F        0
Ca      11.45351791       5.46182632      16.17783546  F        0
Ca       6.93279457      12.33566856       9.86952782  F        0
Ca       2.84389687       3.97037935      11.97229671  F        0
Ca       8.97266769       2.90346289      16.17783546  T        1
Ca       0.80402392       8.28585815       9.86952782  F        0
Ca       3.28487396      10.84422112       9.86952782  T        1
Ca      10.38195896      13.68709183       5.66398954  F        0
Ca       9.41364479       9.77730465       5.66398954  F        0
Ca       4.25318813       6.93443441       5.66398954  F        0
Ca       8.00435352       6.81324959       7.76675844  F        0
Ca       1.87558293       0.06059244      11.97229671  F        0
Ca       5.32474709       1.41201568      11.97229671  F        0
Ca      11.45351791       5.46182632      11.97229671  F        0
Ca       6.93279457      12.33566856       5.66398954  F        0
Ca       2.84389687       3.97037935       7.76675844  F        0
Ca       8.97266769       2.90346289      11.97229671  F        0
Ca       0.80402392       8.28585815       5.66398954  F        0
Ca       3.28487396      10.84422112       5.66398954  F        0
In       5.49247742       9.61933231      16.17783546  T        1
In       0.63629323       2.74549055      18.28060341  T        1
In       6.76506424       4.12835169      18.28060341  T        1
In      11.62124825      11.00219345      16.17783546  T        1
In       5.49247742       9.61933231      11.97229671  F        0
In       0.63629323       2.74549055      14.07506561  F        0
In       6.76506424       4.12835169      14.07506561  F        0
In      11.62124825      11.00219345      11.97229671  F        0
In       5.49247742       9.61933231       7.76675844  F        0
In       0.63629323       2.74549055       9.86952782  F        0
In       6.76506424       4.12835169       9.86952782  F        0
In      11.62124825      11.00219345       7.76675844  F        0
P       11.63104153       1.82364655      20.38337326  F        0
P        6.75527048       8.69748878      14.07506561  F        0
P        3.01579952       8.63478088      16.17783546  T        1
P        3.11297107       1.76093876      18.28060341  T        1
P        4.84518003      12.18777752      11.97229671  F        0
P       10.97395134       8.43374920      16.17783546  F        0
P        9.14457035      11.98674583      16.17783546  T        1
P        7.41236162       1.55990720      18.28060341  F        0
P        9.24174213       5.11290359      18.28060341  T        1
P        5.50227118       5.05019569      16.17783546  T        1
P        1.28359067       5.31393480      14.07506561  F        0
P        0.62649971      11.92403793       9.86952782  F        0
P       11.63104153       1.82364655      16.17783546  F        0
P        6.75527048       8.69748878       9.86952782  F        0
P        3.01579952       8.63478088      11.97229671  F        0
P        3.11297107       1.76093876      14.07506561  F        0
P        4.84518003      12.18777752       7.76675844  F        0
P       10.97395134       8.43374920      11.97229671  F        0
P        9.14457035      11.98674583      11.97229671  F        0
P        7.41236162       1.55990720      14.07506561  F        0
P        9.24174213       5.11290359      14.07506561  F        0
P        5.50227118       5.05019569      11.97229671  F        0
P        1.28359067       5.31393480       9.86952782  F        0
P        0.62649971      11.92403793       5.66398954  F        0
P       11.63104153       1.82364655      11.97229671  F        0
P        6.75527048       8.69748878       5.66398954  F        0
P        3.01579952       8.63478088       7.76675844  F        0
P        3.11297107       1.76093876       9.86952782  F        0
P        4.84518003      12.18777752       3.56122041  F        0
P       10.97395134       8.43374920       7.76675844  F        0
P        9.14457035      11.98674583       7.76675844  F        0
P        7.41236162       1.55990720       9.86952782  F        0
P        9.24174213       5.11290359       9.86952782  F        0
P        5.50227118       5.05019569       7.76675844  F        0
P        1.28359067       5.31393480       5.66398954  F        0
P        0.62649971      11.92403793       1.45845139  F        0
N        1.67783380       6.74592543      17.52602577  T        2
H        1.07324386       7.54254913      17.52602577  T        2
H        1.50455093       6.19488478      18.34202576  T        2
H        1.50455093       6.19488478      16.71002579  T        2
