42
Lattice="7.668573041968109 0.0 0.0 3.8342865209840546 6.641179065120891 0.0 0.0 0.0 30.261363669361494" Properties=species:S:1:pos:R:3:tags:I:1:is_adsorbate:L:1 structure_key=ch3oh_on_cu111 role=adslab adsorbate=CH3OH surface=Cu(111) geometry_status="ASE-generated initial placements; not model-relaxed" relaxed=F adsorption_site=ontop initial_height_angstrom=2.2 initial_orientation=heavy_atom_and_hydroxyl_bonds_away_from_surface pbc="T T F"
Cu       0.00000000       0.00000000      12.00000000        4  F
Cu       2.55619101       0.00000000      12.00000000        4  F
Cu       5.11238203       0.00000000      12.00000000        4  F
Cu       1.27809551       2.21372636      12.00000000        4  F
Cu       3.83428652       2.21372636      12.00000000        4  F
Cu       6.39047753       2.21372636      12.00000000        4  F
Cu       2.55619101       4.42745271      12.00000000        4  F
Cu       5.11238203       4.42745271      12.00000000        4  F
Cu       7.66857304       4.42745271      12.00000000        4  F
Cu       1.27809551       0.73790879      14.08712122        3  F
Cu       3.83428652       0.73790879      14.08712122        3  F
Cu       6.39047753       0.73790879      14.08712122        3  F
Cu       2.55619101       2.95163514      14.08712122        3  F
Cu       5.11238203       2.95163514      14.08712122        3  F
Cu       7.66857304       2.95163514      14.08712122        3  F
Cu       3.83428652       5.16536150      14.08712122        3  F
Cu       6.39047753       5.16536150      14.08712122        3  F
Cu       8.94666855       5.16536150      14.08712122        3  F
Cu      -0.00000000       1.47581757      16.17424245        2  F
Cu       2.55619101       1.47581757      16.17424245        2  F
Cu       5.11238203       1.47581757      16.17424245        2  F
Cu       1.27809551       3.68954393      16.17424245        2  F
Cu       3.83428652       3.68954393      16.17424245        2  F
Cu       6.39047753       3.68954393      16.17424245        2  F
Cu       2.55619101       5.90327028      16.17424245        2  F
Cu       5.11238203       5.90327028      16.17424245        2  F
Cu       7.66857304       5.90327028      16.17424245        2  F
Cu       0.00000000       0.00000000      18.26136367        1  F
Cu       2.55619101       0.00000000      18.26136367        1  F
Cu       5.11238203       0.00000000      18.26136367        1  F
Cu       1.27809551       2.21372636      18.26136367        1  F
Cu       3.83428652       2.21372636      18.26136367        1  F
Cu       6.39047753       2.21372636      18.26136367        1  F
Cu       2.55619101       4.42745271      18.26136367        1  F
Cu       5.11238203       4.42745271      18.26136367        1  F
Cu       7.66857304       4.42745271      18.26136367        1  F
C       -0.67895078       0.92410911      21.30386377        0  T
O        0.00000000       0.00000000      20.46136367        0  T
H       -1.19131119       1.62147472      20.64184697        0  T
H        0.46283250      -0.62995395      21.03568575        0  T
H       -1.42632584       0.43519167      21.94042955        0  T
H        0.01098984       1.49119965      21.94042955        0  T
