12
Lattice="8.000 0.000 0.000 0.000 6.000 0.000 0.000 0.000 20.000" Properties=species:S:1:pos:R:3 pbc="T T T" provenance="idealized stoichiometric sulfite teaching slab with vacuum"
Li  1.0000  1.0000  7.0000
Li  2.6000  1.0000  7.0000
S   1.8000  2.1000  8.2000
O   0.6500  2.1000  8.2500
O   2.3500  3.0500  8.2500
O   2.3500  1.1500  8.2500
Li  5.0000  1.0000  7.0000
Li  6.6000  1.0000  7.0000
S   5.8000  2.1000  8.2000
O   4.6500  2.1000  8.2500
O   6.3500  3.0500  8.2500
O   6.3500  1.1500  8.2500
