16
Lattice="8.000 0.000 0.000 0.000 6.000 0.000 0.000 0.000 20.000" Properties=species:S:1:pos:R:3 pbc="T T T" provenance="idealized stoichiometric phosphate teaching slab with vacuum"
Li  0.8000  1.0000  7.0000
Li  1.8000  0.9000  7.0000
Li  2.8000  1.0000  7.0000
P   1.8000  2.2000  8.2000
O   0.6500  2.2000  8.2500
O   2.9500  2.2000  8.2500
O   1.8000  3.3500  8.2500
O   1.8000  2.2000  9.3500
Li  4.8000  1.0000  7.0000
Li  5.8000  0.9000  7.0000
Li  6.8000  1.0000  7.0000
P   5.8000  2.2000  8.2000
O   4.6500  2.2000  8.2500
O   6.9500  2.2000  8.2500
O   5.8000  3.3500  8.2500
O   5.8000  2.2000  9.3500
