16
Lattice="8.000 0.000 0.000 0.000 8.000 0.000 0.000 0.000 20.000" Properties=species:S:1:pos:R:3 pbc="T T T" provenance="idealized rocksalt-like LiF teaching slab with vacuum"
Li  1.0000  1.0000  7.0000
F   3.0000  1.0000  7.0000
Li  5.0000  1.0000  7.0000
F   7.0000  1.0000  7.0000
F   1.0000  3.0000  7.0000
Li  3.0000  3.0000  7.0000
F   5.0000  3.0000  7.0000
Li  7.0000  3.0000  7.0000
Li  1.0000  1.0000  9.2000
F   3.0000  1.0000  9.2000
Li  5.0000  1.0000  9.2000
F   7.0000  1.0000  9.2000
F   1.0000  3.0000  9.2000
Li  3.0000  3.0000  9.2000
F   5.0000  3.0000  9.2000
Li  7.0000  3.0000  9.2000
