4
Properties=species:S:1:pos:R:3 order=1 extxyz_index=0 label="Ethyne" source_label="ethyne" formula=C2H2 formal_charge=0 dataset=NCIA_HB375x10 system_id=5.001 fragment=A pbc="F F F"
C -2.011548349 0.283130903 -0.000000131
H -1.057741761 0.762468607 -0.000000367
C -3.070459929 -0.274876730 0.000000058
H -4.013236394 -0.761855986 0.000000226
5
Properties=species:S:1:pos:R:3 order=2 extxyz_index=1 label="Methane" source_label="methane" formula=CH4 formal_charge=0 dataset=NCIA_HB375x10 system_id=7.078 fragment=A pbc="F F F"
C -2.603371942 0.065605317 -0.035860983
H -1.826877800 0.705772037 0.374219037
H -2.376881939 -0.159376136 -1.076087797
H -3.563198772 0.573524391 0.019339925
H -2.653046117 -0.860354137 0.532806634
6
Properties=species:S:1:pos:R:3 order=3 extxyz_index=2 label="Acetonitrile" source_label="acetonitrile" formula=C2H3N formal_charge=0 dataset=NCIA_HB375x10 system_id=3.001 fragment=B pbc="F F F"
H 1.737852329 -1.761050403 0.000000000
H 3.220186605 -1.331685156 -0.886775002
H 3.220186605 -1.331685156 0.886775002
C 2.623440995 -1.127036415 0.000000000
C 2.178082994 0.251759906 0.000000000
N 1.778792694 1.328779066 0.000000000
6
Properties=species:S:1:pos:R:3 order=4 extxyz_index=3 label="Ethene" source_label="ethene" formula=C2H4 formal_charge=0 dataset=NCIA_HB375x10 system_id=7.048 fragment=A pbc="F F F"
H 1.294018207 0.960871885 -0.637186517
H 2.916429020 0.424116962 -1.340935199
H 3.302207939 -0.976804619 0.648103092
H 1.685569311 -0.428395564 1.338983622
C 2.194953448 0.371451589 -0.536112520
C 2.405240965 -0.382965144 0.532216837
6
Properties=species:S:1:pos:R:3 order=5 extxyz_index=4 label="Methanol" source_label="methanol" formula=CH4O formal_charge=0 dataset=NCIA_HB375x10 system_id=1.008 fragment=B pbc="F F F"
O 1.846592374 0.056329751 0.496678526
H 1.261812598 -0.716893884 0.421086802
C 2.874600813 -0.021464382 -0.486130393
H 3.460608494 0.891236829 -0.415199693
H 3.530754359 -0.873792439 -0.302082668
H 2.463382464 -0.099629349 -1.495307729
6
Properties=species:S:1:pos:R:3 order=6 extxyz_index=5 label="Methyl isocyanide" source_label="methylisocyanide" formula=C2H3N formal_charge=0 dataset=NCIA_HB375x10 system_id=5.017 fragment=A pbc="F F F"
H -3.104228385 -1.023256450 0.982023732
H -2.952075429 0.710914775 1.318782870
H -1.543737786 -0.361101353 1.533433532
C -1.672033873 0.242078546 -1.494032179
N -2.039485439 0.059868720 -0.406890303
C -2.434153021 -0.167365148 0.939332834
6
Properties=species:S:1:pos:R:3 order=7 extxyz_index=6 label="Nitrosomethane" source_label="nitrosomethane" formula=CH3NO formal_charge=0 dataset=NCIA_HB375x10 system_id=1.012 fragment=B pbc="F F F"
H 2.772236733 -1.620296751 0.874575483
H 1.223257065 -1.279068355 0.000000000
H 2.772236733 -1.620296751 -0.874575483
C 2.305336881 -1.162647377 0.000000000
N 2.734732377 0.241418302 0.000000000
O 1.838279216 1.045370777 0.000000000
7
Properties=species:S:1:pos:R:3 order=8 extxyz_index=7 label="Acetaldehyde" source_label="acetaldehyde" formula=C2H4O formal_charge=0 dataset=NCIA_HB375x10 system_id=1.001 fragment=B pbc="F F F"
H 3.731865666 -1.075069284 0.874204506
H 3.731865666 -1.075069284 -0.874204506
H 4.066808709 0.448271663 0.000000000
H 1.336433721 -1.049163090 0.000000000
C 3.484320010 -0.468630860 0.000000000
C 2.019215053 -0.185475522 0.000000000
O 1.554579605 0.935426218 0.000000000
7
Properties=species:S:1:pos:R:3 order=9 extxyz_index=8 label="Methylamine" source_label="methylamine" formula=CH5N formal_charge=0 dataset=NCIA_HB375x10 system_id=2.048 fragment=A pbc="F F F"
N -1.738257590 -0.036342273 -0.699663151
H -0.969151528 0.623244535 -0.709253901
H -2.412123860 0.266661278 -1.389648823
C -2.343321657 -0.084029552 0.630262989
H -3.147801398 -0.819221818 0.641315593
H -2.750634222 0.869215527 0.986797531
H -1.594673646 -0.411287084 1.351770086
7
Properties=species:S:1:pos:R:3 order=10 extxyz_index=9 label="Methyl cyanate" source_label="methylcyanate" formula=C2H3NO formal_charge=0 dataset=NCIA_HB375x10 system_id=1.010 fragment=B pbc="F F F"
H -1.973579827 -1.966208151 -0.895853265
H -1.973579827 -1.966208151 0.895853265
H -0.416998643 -1.910380642 0.000000000
C -1.462008011 -1.627033881 0.000000000
O -1.441749232 -0.156735294 0.000000000
C -2.591731336 0.420428077 0.000000000
N -3.606203495 0.970139094 0.000000000
7
Properties=species:S:1:pos:R:3 order=11 extxyz_index=10 label="Nitromethane" source_label="nitromethane" formula=CH3NO2 formal_charge=0 dataset=NCIA_HB375x10 system_id=1.011 fragment=B pbc="F F F"
H 2.645622862 -0.990790190 -1.485319919
H 2.891681970 -1.644972483 0.181561483
H 1.282968362 -1.738776472 -0.606509615
C 2.207071011 -1.173478310 -0.511736327
N 1.792863747 0.137025767 0.060102605
O 1.342685808 0.966087780 -0.726752840
O 1.875553415 0.294426530 1.257366727
8
Properties=species:S:1:pos:R:3 order=12 extxyz_index=11 label="Acetic acid" source_label="acetic acid" formula=C2H4O2 formal_charge=0 dataset=NCIA_HB375x10 system_id=1.001 fragment=A pbc="F F F"
C -1.676709350 -0.155545695 0.000000000
O -0.993533620 -1.155786393 0.000000000
O -1.173945330 1.080177302 0.000000000
H -0.185940107 1.035554940 0.000000000
C -3.180974158 -0.156065960 0.000000000
H -3.550265591 -1.175547772 0.000000000
H -3.549007807 0.375205388 -0.876744631
H -3.549007807 0.375205388 0.876744631
9
Properties=species:S:1:pos:R:3 order=13 extxyz_index=12 label="Acetamide" source_label="acetamide" formula=C2H5NO formal_charge=0 dataset=NCIA_HB375x10 system_id=1.002 fragment=B pbc="F F F"
H -2.066717015 2.014776660 0.000000000
H -0.452642301 1.325455087 0.000000000
H -4.000747045 0.794247112 0.000000000
H -3.780948923 -0.733035461 0.877448542
H -3.780948923 -0.733035461 -0.877448542
O -1.269970702 -1.036578186 0.000000000
C -1.980336270 -0.026663092 0.000000000
N -1.468541231 1.210838117 0.000000000
C -3.483034696 -0.162187009 0.000000000
9
Properties=species:S:1:pos:R:3 order=14 extxyz_index=13 label="Dimethyl ether" source_label="dimethylether" formula=C2H6O formal_charge=0 dataset=NCIA_HB375x10 system_id=1.005 fragment=B pbc="F F F"
H 1.848301395 -0.419757484 2.026463094
H 1.495228333 1.130961465 1.225744873
H 3.156166725 0.471121859 1.216696173
H 1.848301395 -0.419757484 -2.026463094
H 1.495228333 1.130961465 -1.225744873
H 3.156166725 0.471121859 -1.216696173
C 2.093460575 0.218852174 1.182021028
O 1.798972613 -0.516512328 0.000000000
C 2.093460575 0.218852174 -1.182021028
9
Properties=species:S:1:pos:R:3 order=15 extxyz_index=14 label="Furan" source_label="furan" formula=C4H4O formal_charge=0 dataset=NCIA_HB375x10 system_id=1.007 fragment=B pbc="F F F"
H -4.338495316 -0.573249848 0.000000000
H -3.303249404 1.958859515 0.000000000
H -2.146389969 -2.208498210 0.000000000
H -0.577384544 1.578510284 0.000000000
C -2.756778737 1.033155952 0.000000000
C -3.300249837 -0.294205360 0.000000000
C -2.245786627 -1.139701868 0.000000000
O -1.079148133 -0.426789268 0.000000000
C -1.411360665 0.901890539 0.000000000
10
Properties=species:S:1:pos:R:3 order=16 extxyz_index=15 label="Pyrrole" source_label="1H-pyrrole" formula=C4H5N formal_charge=0 dataset=NCIA_HB375x10 system_id=2.001 fragment=A pbc="F F F"
H -1.139048716 2.102858053 0.374852826
H -3.434472213 1.355855551 -0.858691131
H -3.434472213 -1.355855551 -0.858691131
H -1.139048716 -2.102858053 0.374852826
N -0.824109246 -0.000000000 0.543151809
C -1.517024352 1.118505274 0.166076477
C -2.674205539 0.710420501 -0.455483170
C -2.674205539 -0.710420501 -0.455483170
C -1.517024352 -1.118505274 0.166076477
H 0.088293055 -0.000000000 0.978416275
10
Properties=species:S:1:pos:R:3 order=17 extxyz_index=16 label="Acetone" source_label="acetone" formula=C3H6O formal_charge=0 dataset=NCIA_HB375x10 system_id=1.003 fragment=B pbc="F F F"
H 0.665218958 1.520844924 -0.144810737
H 2.307020708 2.064553999 0.324596867
H 1.981573990 1.607780013 -1.335490631
H 3.769882124 -1.399589115 0.219657797
H 4.190928890 0.144667253 -0.575210251
C 1.731520031 1.378351477 -0.296165048
C 2.123815769 -0.047156965 -0.026006922
O 1.308486032 -0.949899924 0.004614746
C 3.586105247 -0.329935718 0.198089230
H 3.890511813 0.110262785 1.149932840
10
Properties=species:S:1:pos:R:3 order=18 extxyz_index=17 label="Dimethylamine" source_label="dimethylamine" formula=C2H7N formal_charge=0 dataset=NCIA_HB375x10 system_id=2.037 fragment=A pbc="F F F"
H 2.053541167 -1.948657171 -0.476072808
H 0.663564668 -1.072843662 -1.125597059
H 0.545973796 -1.918884875 0.433224657
H 0.875530947 0.362595039 0.872020255
H 2.784118695 1.591903154 0.305551325
H 3.436151513 0.184494139 -0.530935485
H 2.039106244 1.036806520 -1.205140735
C 1.204768888 -1.322332735 -0.196651371
N 1.671939076 -0.161999487 0.535580562
C 2.514610993 0.706985029 -0.268404866
11
Properties=species:S:1:pos:R:3 order=19 extxyz_index=18 label="Methyl acetate" source_label="methylacetate" formula=C3H6O2 formal_charge=0 dataset=NCIA_HB375x10 system_id=1.009 fragment=B pbc="F F F"
H 3.412450110 1.633146462 0.443354018
H 4.495858298 0.801460442 -0.708530257
H 2.935796147 1.477871044 -1.256801988
H 0.101488108 -1.777728758 0.023097986
C 1.601871454 -0.300430471 0.196267249
O 2.888968451 -0.290843350 -0.158978973
C 3.464843317 0.997998476 -0.437379750
C 1.083225570 -1.674656214 0.481025250
O 0.949910183 0.720954287 0.284170818
H 0.958253768 -1.776387108 1.559694072
H 1.767685722 -2.439510327 0.129617666
11
Properties=species:S:1:pos:R:3 order=20 extxyz_index=19 label="Pyridine" source_label="pyridine" formula=C5H5N formal_charge=0 dataset=NCIA_HB375x10 system_id=3.011 fragment=B pbc="F F F"
H -3.846646149 -1.674992807 0.000000000
H -1.454803454 -2.351395596 0.000000000
C -3.371016786 0.429145954 0.000000000
C -3.068861934 -0.926050004 0.000000000
C -1.735234863 -1.306055118 0.000000000
N -0.734075053 -0.425148982 0.000000000
C -1.024735679 0.877912953 0.000000000
C -2.331084428 1.347354117 0.000000000
H -0.171166800 1.542776752 0.000000000
H -2.522053727 2.410088189 0.000000000
H -4.399277603 0.762124300 0.000000000
12
Properties=species:S:1:pos:R:3 order=21 extxyz_index=20 label="Benzene" source_label="benzene" formula=C6H6 formal_charge=0 dataset=NCIA_HB375x10 system_id=7.018 fragment=A pbc="F F F"
C -1.961295621 0.898571694 -0.614854544
H -2.455537746 1.756633737 -1.048214251
C -2.062288414 0.654401340 0.750182166
H -2.635684232 1.321815986 1.377964123
C -1.426643004 -0.450018736 1.306877484
H -1.506370955 -0.641443880 2.367762297
C -0.689756082 -1.308231602 0.498830196
H -0.191716965 -2.164717841 0.930496679
C -0.585666365 -1.061971960 -0.865342881
H 0.002005838 -1.720144377 -1.488440369
C -1.222608090 0.040364229 -1.422007681
H -1.139119629 0.233406638 -2.482086318
12
Properties=species:S:1:pos:R:3 order=22 extxyz_index=21 label="Dimethyl carbonate" source_label="dimethylcarbonate" formula=C3H6O3 formal_charge=0 dataset=NCIA_HB375x10 system_id=1.004 fragment=B pbc="F F F"
H 2.767015481 -1.897273929 -0.663201474
H 1.110680379 -1.871891158 -1.324071545
H 1.568708294 -3.092554275 -0.106534881
H 0.730902799 2.123794631 -1.061640536
H 2.146375720 2.485543612 -0.044078169
H 2.371351924 2.052634249 -1.763583603
O 1.278184043 -1.248462159 0.649803668
C 1.261887937 0.067518240 0.505427680
O 0.728714247 0.790757358 1.318679742
O 1.904231620 0.487805401 -0.579152173
C 1.775008641 1.889524020 -0.872958615
C 1.716865007 -2.073122812 -0.445260533
12
Properties=species:S:1:pos:R:3 order=23 extxyz_index=22 label="N-methylacetamide" source_label="N-methylacetamide" formula=C3H7NO formal_charge=0 dataset=NCIA_HB375x10 system_id=1.013 fragment=B pbc="F F F"
C 1.014391482 -1.668846408 0.568086436
H 0.751607913 -1.703868977 1.624513793
H 1.702546114 -2.481685334 0.345870902
H 0.095187986 -1.788138097 -0.003776572
C 1.584280486 -0.311540502 0.258511805
O 0.938364822 0.725742378 0.414663751
N 2.849770894 -0.266029654 -0.201107248
H 3.350040663 -1.126372020 -0.323565902
C 3.494638614 0.987098575 -0.552297768
H 3.554525938 1.645756912 0.312460225
H 4.497485935 0.775340761 -0.911640649
H 2.934879142 1.502993875 -1.330579440
13
Properties=species:S:1:pos:R:3 order=24 extxyz_index=23 label="Phenol" source_label="phenol" formula=C6H6O formal_charge=0 dataset=NCIA_HB375x10 system_id=1.028 fragment=B pbc="F F F"
H 0.660480357 -1.033116251 -0.985970369
H -3.395246477 -1.632777290 0.296583448
H -1.293219196 -2.524195764 -0.662246796
H -1.586433918 2.240432155 0.602945536
H 0.580817008 2.368956890 -0.130008704
H -3.531937692 0.758154559 0.926686643
C -2.544098418 -0.983500494 0.154493435
C -1.362644063 -1.482283529 -0.383887036
C -0.263418692 -0.657016251 -0.571365008
C -0.353243445 0.682784306 -0.212390588
C -1.526677262 1.195149514 0.326751955
C -2.620171678 0.357092324 0.507622951
O 0.758215842 1.467348125 -0.410277602
13
Properties=species:S:1:pos:R:3 order=25 extxyz_index=24 label="Trimethylamine" source_label="trimethylamine" formula=C3H9N formal_charge=0 dataset=NCIA_HB375x10 system_id=3.012 fragment=B pbc="F F F"
H 2.633591456 1.249464369 1.267881620
H 1.540249540 0.115426357 2.085550803
H 0.869091938 1.488387932 1.196478117
H 0.869091938 1.488387932 -1.196478117
H 2.633591456 1.249464369 -1.267881620
H 1.540249540 0.115426357 -2.085550803
H 3.562675257 -0.789098028 0.000000000
H 2.387971782 -1.783165465 -0.883278915
C 1.661222995 0.743909253 1.204799030
N 1.555323833 -0.077564524 -0.000000000
C 1.661222995 0.743909253 -1.204799030
C 2.530058568 -1.162979887 0.000000000
H 2.387971782 -1.783165465 0.883278915
14
Properties=species:S:1:pos:R:3 order=26 extxyz_index=25 label="Aniline" source_label="aniline" formula=C6H7N formal_charge=0 dataset=NCIA_HB375x10 system_id=2.026 fragment=A pbc="F F F"
H -0.292583670 -0.139246108 1.877098911
H 2.754520722 2.232070414 0.015039075
H 1.039617097 1.924635204 1.780747916
H 1.781438320 -1.633720046 -1.556326418
H -1.037862865 -2.092457594 0.590060884
H 3.115641217 0.426520574 -1.646084773
H -0.072436816 -2.780997715 -0.583711544
C 2.168333910 1.326051686 0.056449133
C 1.205243531 1.150445245 1.044098338
C 0.451151911 -0.011310767 1.103243498
C 0.642548119 -1.032377940 0.163728233
C 1.617676205 -0.853375533 -0.824374796
C 2.369142926 0.310972383 -0.872497740
N -0.097621838 -2.205425276 0.241343256
14
Properties=species:S:1:pos:R:3 order=27 extxyz_index=26 label="N-methyl-2-propanimine" source_label="N-methyl-2-propanimine" formula=C4H9N formal_charge=0 dataset=NCIA_HB375x10 system_id=3.010 fragment=B pbc="F F F"
H 3.633663347 0.957084859 -0.875612636
H 4.307771717 -0.423284140 0.000000000
H 3.633663347 0.957084859 0.875612636
H 2.628484943 -2.217095154 0.875771322
H 1.583524369 2.178537346 -0.882650400
H 1.583524369 2.178537346 0.882650400
H 0.046423113 2.133311886 -0.000000000
H 2.628484943 -2.217095154 -0.875771322
H 1.083646942 -2.192145333 0.000000000
C 2.151119110 -0.327688978 0.000000000
N 1.062767410 0.327786934 -0.000000000
C 1.074232812 1.783747857 -0.000000000
C 2.105982100 -1.826621953 0.000000000
C 3.513092747 0.317603782 -0.000000000
7
Properties=species:S:1:pos:R:3 order=28 extxyz_index=27 label="Propyne" source_label="propyne" formula=C3H4 formal_charge=0 dataset=NCIA_D442x10 system_id=1.07.74 fragment=B pbc="F F F"
C 0.036352812 0.377399414 2.084533864
C 0.242060347 -0.691323457 1.582494762
C 0.496440377 -1.984299559 0.969649401
H -0.136511174 1.318671442 2.541459114
H 1.530196552 -2.051576368 0.631187712
H -0.151609287 -2.136474236 0.106740585
H 0.317429839 -2.791961173 1.679104452
15
Properties=species:S:1:pos:R:3 order=29 extxyz_index=28 label="Toluene" source_label="toluene" formula=C7H8 formal_charge=0 dataset=NCIA_D1200 system_id=1.02.12 fragment=B pbc="F F F"
C 0.045424262 -0.000000007 -0.955638056
C 0.042437659 -0.000000008 -2.460039768
C 0.056910598 -1.196714128 -0.240179448
C 0.084107408 -1.199655263 1.148573472
C 0.098582776 0.000000002 1.849056409
C 0.084107423 1.199655269 1.148573469
C 0.056910606 1.196714120 -0.240179454
H -0.458826739 -0.882112942 -2.855365800
H 1.061670504 0.000000062 -2.852041482
H -0.458826828 0.882112894 -2.855365695
H 0.038597407 -2.135994050 -0.777075336
H 0.087674885 -2.139050769 1.683464407
H 0.114270656 0.000000001 2.929532477
H 0.087674917 2.139050764 1.683464388
H 0.038597412 2.135994037 -0.777075348
18
Properties=species:S:1:pos:R:3 order=30 extxyz_index=29 label="Cyclohexane" source_label="cyclohexane" formula=C6H12 formal_charge=0 dataset=NCIA_D1200 system_id=1.02.14 fragment=B pbc="F F F"
C -1.163640070 -0.491553476 -0.533685777
C -0.033274594 -1.464237728 -0.190267142
C 1.332300370 -0.776065799 -0.247519130
C 1.371107656 0.463388614 0.649114618
C 0.240989003 1.436569814 0.306192125
C -1.124722644 0.748609262 0.361944746
H -2.130877476 -0.989573813 -0.448294263
H -1.063096583 -0.183171275 -1.578812586
H -0.053782203 -2.321193534 -0.865600781
H -0.193795291 -1.857684529 0.818207643
H 1.539442089 -0.477531384 -1.279767383
H 2.120284122 -1.474736296 0.038526373
H 2.338083199 0.961948244 0.563860895
H 1.271238591 0.152538929 1.693629641
H 0.402925565 1.831332479 -0.701366493
H 0.260645486 2.292940002 0.982288217
H -1.912966367 1.447604149 0.076604754
H -1.333709902 0.451011049 1.394030009
18
Properties=species:S:1:pos:R:3 order=31 extxyz_index=30 label="Naphthalene" source_label="naphthalene" formula=C10H8 formal_charge=0 dataset=NCIA_D1200 system_id=1.02.13 fragment=B pbc="F F F"
C 1.946113885 -1.753330202 0.111424002
C 0.782903681 -2.352485984 -0.416241308
C -0.368486038 -1.623394202 -0.552897623
C -0.414998863 -0.262232860 -0.170137530
C -1.586606016 0.519891921 -0.301964971
C -1.597486194 1.836525627 0.074273607
C -0.434024894 2.435849317 0.601815387
C 0.716155118 1.706077960 0.742269150
C 0.761268218 0.343670947 0.363375228
C 1.933809796 -0.437497081 0.491422099
H 2.849147227 -2.338376076 0.212304350
H 0.805730746 -3.390919118 -0.714671985
H -1.260783954 -2.080037483 -0.959483189
H -2.476968380 0.058529794 -0.707554268
H -2.498811305 2.423346838 -0.032040063
H -0.455306387 3.476002183 0.894514793
H 1.609563135 2.163552034 1.145549611
H 2.825159809 0.024606086 0.893903004
20
Properties=species:S:1:pos:R:3 order=32 extxyz_index=31 label="2,3-dimethylbutane" source_label="23dimethylbutane" formula=C6H14 formal_charge=0 dataset=NCIA_D1200 system_id=1.02.01 fragment=B pbc="F F F"
C -1.177178386 1.234364608 -0.615768158
C -0.667796485 0.064903240 0.231283272
C -1.707852019 -1.058884113 0.222267164
C 0.723780527 -0.423585672 -0.225985462
C 1.762961733 0.701087033 -0.219581975
C 1.234437037 -1.591433046 0.622604212
H -2.180117751 1.525889686 -0.303747582
H -1.228713507 0.952008932 -1.669809014
H -0.540859943 2.112924069 -0.535756978
H -0.561143532 0.417820287 1.263575117
H -1.795166012 -1.494500184 -0.775672605
H -2.689409341 -0.675367398 0.500769807
H -1.460409255 -1.859466403 0.915716798
H 0.616553171 -0.777902756 -1.257776960
H 1.849668228 1.139453635 0.777218635
H 1.515538015 1.499710474 -0.915358491
H 2.744852663 0.317397278 -0.496615804
H 1.287822030 -1.307322619 1.676035974
H 2.236872815 -1.883349493 0.309545078
H 0.598455172 -2.470447106 0.545481711
