18
B97-3c/def2-mTZVP optimized; E = -458.4637336213252752 Eh
O   2.704796300603  0.050591248847 -0.027403161366
H   2.159504575906  0.875321524112  0.012668566906
H   3.214687505658  0.140758484279 -0.837651528441
O   1.308210113421  2.367724449033  0.040510365669
H   0.321757479857  2.307883183562 -0.009101097984
H   1.477244947190  2.854202906964  0.852536936958
O  -1.395984339080  2.316846844636 -0.053703740216
H  -1.837823643447  1.432620765423 -0.008479358540
H  -1.724808564972  2.706528766141 -0.868962699492
O  -2.704796018604 -0.050592786677  0.027400509215
H  -2.159504102668 -0.875322905851 -0.012670774983
H  -3.214689779421 -0.140761460849  0.837647196387
O  -1.308209394182 -2.367725406775 -0.040512303990
H  -0.321756841239 -2.307884171353  0.009102229098
H  -1.477241632915 -2.854202468677 -0.852540149203
O   1.395984975243 -2.316847490967  0.053709257472
H   1.837824026325 -1.432621468458  0.008482198888
H   1.724806837714 -2.706525433680  0.868971155637
