18
step=0 energy_Eh=-458.4637337142191882 units=angstrom
O   2.704795186789  0.050591386910 -0.027400972692
H   2.159504556316  0.875321217929  0.012667686362
H   3.214686176346  0.140758773075 -0.837652017303
O   1.308208851678  2.367724528513  0.040510133434
H   0.321757253573  2.307881682154 -0.009102935819
H   1.477244535175  2.854203784869  0.852538039886
O  -1.395985607445  2.316846941626 -0.053702825930
H  -1.837823544206  1.432618673268 -0.008478413518
H  -1.724810032600  2.706526924500 -0.868962064024
O  -2.704794971055 -0.050592860657  0.027398399688
H  -2.159504049219 -0.875322627416 -0.012669907660
H  -3.214688412463 -0.140761738320  0.837647622476
O  -1.308208044148 -2.367725452749 -0.040511994247
H  -0.321756662580 -2.307882661433  0.009104054305
H  -1.477241245219 -2.854203399252 -0.852541326285
O   1.395986211370 -2.316847675606  0.053708439516
H   1.837823956903 -1.432619337924  0.008481231989
H   1.724808286132 -2.706523579943  0.868970451817
