7200
Lattice="39.763004303 0.0 0.0 0.0 58.9316482544 0.0 -18.8008785248 0.0 28.526468277" Properties=species:S:1:pos:R:3 step=0 time_fs=0.0 pbc="T T T"
C       32.04503250      24.30193520       3.05640960
C       32.89199829      26.70351219       5.60474634
C       36.23448181       1.26631427       4.98103476
C       36.01656723      26.95139122       3.23133922
C       32.75204849      25.17349625       2.27905631
C       32.09288025      27.61614418       6.22858620
C       35.40276337       0.51894790       5.76015043
C       36.51201630      25.99409676       2.38816166
C       33.09354401      24.84818840       0.94546825
C       31.60751534      27.38846588       7.53417921
C       35.05332947       0.95249343       7.07034540
C       37.13484573      26.35564613       1.16916430
C       28.93584824      25.47216034       7.29165888
C       36.75321198      28.70210838       1.74809515
C       38.85170364       0.30968082       0.78198695
C       32.75552368      25.24101448       7.51118422
C       -1.26541984       0.72159952       2.03259277
C       33.24179077      25.50173569       6.25688696
C       29.32988930      25.12371445       6.03305721
C       36.12363815      28.31983185       2.90059972
H       31.78235435      24.56843948       4.06622457
H       33.25805283      26.92304230       4.60792208
H       36.48472977       0.92651892       3.98987603
H       35.53178406      26.67936707       4.15287733
H       33.06372833      26.14404869       2.66018915
H       31.82298851      28.53777695       5.72317743
H       35.00530624      58.49599457       5.42000818
H       36.42563248      24.94484711       2.63119817
H       29.16123390      26.44790649       7.69633102
H       36.82268524      29.75536156       1.49875414
H       38.42560196      58.34587479       0.35129598
H       33.01665878      24.31229591       8.01263142
H       37.78616333       0.13437161       2.61376429
H       33.88823318      24.78054428       5.77374458
H       29.89483643      25.82100487       5.42453003
H       35.71175003      29.07622147       3.55587482
C       27.25376701      23.93712425      10.23240471
C       27.92728806      27.45718956      12.52968788
C       -7.62515354       1.74195302      12.19747734
C       30.60824013      26.85007858      10.08831215
C       27.89710999      24.85886765       9.45484447
C       27.24348068      28.35455704      13.29651642
C       -8.26343155       0.91315234      13.06377888
C       31.38475990      25.91913795       9.46271229
C       28.25470924      24.54786682       8.12146759
C       27.04002190      28.12371826      14.68597889
C       -8.56717491       1.35029233      14.37641525
C       31.92192268      26.16538048       8.18003559
C       24.57638359      25.54486656      14.71746349
C       30.81362915      28.34060669       8.21299553
C       34.19558716       0.20238003       7.91198111
C       28.26256943      26.02259827      14.44044018
C       -5.90003490       0.65474987       9.15720940
C       28.43994331      26.27296257      13.11224461
C       24.96290016      25.19358826      13.45567608
C       30.31508255      28.07859421       9.45994472
H       27.00074196      24.19777679      11.25716114
H       28.07658768      27.64495087      11.47049808
H       32.36271667       1.38847113      11.19119740
H       30.23358536      26.66287422      11.10135841
H       28.13828850      25.83239746       9.84554005
H       26.83819580      29.27089500      12.84982967
H       31.22149277      58.83486938      12.77528763
H       31.63825417      24.99303246       9.95993423
H       24.87324905      26.49419403      15.12856293
H       30.59984589      29.28846359       7.72430325
H       33.83484650      58.17866516       7.57025862
H       28.64321899      25.10540390      14.89635181
H       33.22478867       0.04829324       9.79651833
H       28.96991730      25.53499794      12.49595642
H       25.56968689      25.86495972      12.87468338
H       29.69784546      28.81905556       9.96346855
C       22.63703537      24.12569618      17.55697632
C       23.85485840      27.31353569      19.95579910
C      -12.48029137       1.45285106      19.53646088
C       26.64847374      27.59039307      17.41066360
C       23.41457367      24.98325729      16.83125305
C       23.16823006      28.16530991      20.77169228
C      -13.04082584       0.52553797      20.36891556
C       27.35901260      26.70541382      16.64113808
C       23.79447937      24.65953636      15.50573730
C       22.64588547      27.71342087      22.00667953
C      -13.23877144       0.80543971      21.73923874
C       27.56940269      26.94866562      15.26369667
C       19.78544807      25.63704300      21.62008858
C       26.29112625      29.01444817      15.49491024
C       -9.21045876       0.50405145      15.30602074
C       23.61765480      25.52332687      21.54670715
C       -9.57711983       0.96861482      16.53741074
C       24.06572723      25.96937942      20.33688354
C       20.12419891      25.24486732      20.35278130
C       26.09884644      28.75392914      16.81859207
H       22.34003448      24.40589905      18.56721306
H       24.23644829      27.66956520      18.99921036
H       27.45465279       1.21137357      18.49893951
H       26.49901581      27.38798904      18.45860481
H       23.74597168      25.93301201      17.25304794
H       23.01272202      29.19368172      20.47408676
H       26.44044304      58.47955704      19.98140907
H       27.77082634      25.80146980      17.07711220
H       20.10097122      26.61014938      22.00805092
H       25.86614609      29.89051247      15.05129719
H       -9.41557026      58.42229843      15.00170612
H       23.79756737      24.51867676      21.86373520
H      -10.06241703       0.30690587      17.24923515
H       24.59538460      25.29200935      19.67704964
H       20.71327400      25.89672852      19.72986603
H       25.51680374      29.44494247      17.42064095
C       17.91563416      24.32164764      24.55617332
C       19.50824738      27.13013840      27.27598000
C      -17.42867470       1.33168888      26.56150055
C       21.76862335      26.80824089      24.50615883
C       18.65595627      25.16153717      23.77604103
C       19.08978844      28.08590889      28.15186310
C       21.41045380       0.61817032      27.26883888
C       22.47628021      25.96910095      23.69770241
C       19.03001404      24.77927399      22.46053505
C       37.27091217      27.73598099       0.84883350
C        0.04830420       1.03612363       0.03287358
C       22.91653252      26.38823891      22.42117119
C       33.82851028      25.73503494       0.12368655
C       21.86056709      28.54534340      22.83751678
C      -13.69873524      58.76089096      22.65505219
C       37.62420654      25.38843727       0.25800586
C      -13.85276699       0.12832670      23.97692299
C       19.37865067      25.76225090      27.59344101
C       15.35327816      25.39011192      27.36730003
C       21.43363762      28.10945129      24.05774498
H       17.62504768      24.62873268      25.54570198
H       19.95072365      27.44071388      26.34424019
H       22.63389778       0.99150938      25.58517456
H       21.46630287      26.47384071      25.48398399
H       18.95606422      26.12612724      24.13876152
H       19.23341560      29.13957214      27.92308426
H       20.95935249      58.64940262      26.85860443
H       22.70219994      24.96233940      24.02189636
H       34.14793396      26.69412231       0.52910739
H       21.62075615      29.54598236      22.51032639
H      -13.91994190      57.75736618      22.29445648
H       37.55764389      24.35012627       0.53245264
H      -14.16149998      58.28881454      24.68371391
H       19.74860954      25.00705338      26.91888046
H       15.92420292      26.07315254      26.73826790
H       20.86088943      28.77986145      24.69466400
C       32.05302048       2.04535794       3.36826086
C       32.63305283       5.14983702       5.54405451
C       -2.84970403       7.27202797       5.45006514
C       35.82608795       4.68850231       2.94765878
C       32.81586075       2.87934756       2.59948397
C       31.89885902       5.94791746       6.37081671
C       -3.66911626       6.46002722       6.18243170
C       36.44817734       3.83309627       2.08842754
C       32.83061981       2.73195672       1.18751907
C       31.55659866       5.51374722       7.67755795
C       -4.03131437       6.79738855       7.50719070
C       36.75274277       4.22973013       0.76230818
C       29.21356010       3.38549137       6.36357737
C       35.72911453       6.38290548       1.24652541
C       -0.13118351       5.93456507       1.11849320
C       32.62191391       3.38649082       7.18385983
C       -0.48423848       6.25104427       2.39873815
C       33.02713394       3.86039162       5.97048044
C       29.28486633       2.79595613       5.13638067
C       35.45221329       5.98353624       2.52349544
H       32.07027435       2.12039566       4.44498396
H       32.91503525       5.49815369       4.55631161
H       -2.54622698       6.96961975       4.44764280
H       35.59945297       4.35709286       3.96142864
H       33.44052505       3.61757565       3.04989171
H       31.57965851       6.92851353       6.06121778
H       35.71591568       5.51415586       5.76229000
H       36.68983459       2.82361674       2.39886761
H       29.57983971       4.37197304       6.51407146
H       35.43032455       7.35789633       0.89741021
H       39.27065659       5.02257824       0.65681350
H       32.87445068       2.37192130       7.49074364
H       -1.12131679       5.59455347       2.95022488
H       33.63735199       3.23314190       5.32703114
H       29.72517586       3.31380296       4.30265999
H       34.93241119       6.66222525       3.20713162
C       27.77803993       2.65914297       9.71625042
C       27.96006966       4.76695299      12.51506519
C       -7.75504541       7.62942410      12.52492619
C       30.91772461       4.62323475      10.24816227
C       28.40662575       3.31886721       8.70198154
C       27.18931389       5.57522440      13.30107784
C       -8.57765484       6.78599262      13.21734428
C       31.57053947       3.78835797       9.38907909
C       28.63615799       2.69078207       7.45748568
C       26.93490601       5.22577000      14.65597534
C       -8.90397739       7.05355120      14.57068443
C       31.91065216       4.21285295       8.08553791
C       24.45735931       2.96716094      14.40398407
C       30.86164856       6.35516500       8.58105564
C       -4.86525393       5.97073936       8.30072784
C       28.23647308       3.18901992      14.31682110
C       -5.19351482       6.32642794       9.57296085
C       28.48945427       3.55983162      13.03231716
C       24.68666458       2.64033198      13.09795666
C       30.55854034       5.92514324       9.84378147
H       27.52200699       3.14745569      10.63637638
H       28.15777969       5.04538298      11.49019432
H       -7.51222372       7.40073109      11.49148464
H       30.66246605       4.28501415      11.24268055
H       28.70337296       4.34969568       8.82452393
H       26.76819420       6.50832748      12.92859077
H       30.76375580       5.91469765      12.74195957
H       31.82774734       2.78285718       9.70406628
H       24.42552757       4.00901508      14.72754288
H       30.59684944       7.34840965       8.26341915
H       34.51919174       5.06121445       7.85947132
H       28.64418602       2.27023768      14.72559643
H       -5.84384727       5.69658327      10.17562199
H       29.10579491       2.93120384      12.41172791
H       24.85233498       3.41893578      12.34900093
H       30.00880241       6.58552217      10.51088333
C       23.86546707       1.26773858      17.66080475
C       23.64208031       4.58036566      19.96668243
C      -12.26578522       7.35908985      19.72031975
C       26.47909927       4.51691627      17.31927872
C       23.98804474       2.26390696      16.73425293
C       22.86052704       5.43748569      20.68295860
C      -12.99267769       6.48722315      20.47868729
C       27.21903801       3.68578172      16.52146339
C       24.29601669       1.95835066      15.38503551
C       22.44553185       5.10930824      21.99740410
C      -13.31514359       6.78636026      21.82245445
C       27.45845985       4.02200413      15.16917801
C       19.70948982       3.34110165      21.60820389
C       26.18701172       6.07052231      15.50664711
C       -9.72158432       6.17316198      15.31970787
C       23.62794685       2.98804855      21.77712822
C      -10.03356171       6.44952059      16.61945915
C       24.04578209       3.34615588      20.52811050
C       20.17886543       3.02929711      20.36152267
C       25.95317078       5.71957445      16.80666924
H       23.56274605       1.49997127      18.68858910
H       23.96319580       4.84158754      18.95827293
H      -12.02924156       7.10481358      18.69311714
H       26.29511833       4.23336744      18.35044861
H       23.83904076       3.30312729      17.01335716
H       22.55703545       6.39496565      20.26165771
H       26.42973709       5.54361868      20.05835724
H       27.62447357       2.75839448      16.91508102
H       19.86472130       4.33029270      22.03603172
H       25.80555725       6.98951626      15.11292362
H       29.65806389       5.29126740      14.82079315
H       23.92307472       2.03537703      22.21029282
H      -10.67751503       5.76790190      17.17986679
H       24.70612526       2.69428277      19.97852516
H       20.73005486       3.76623201      19.79120827
H       25.37331963       6.37392378      17.44994736
C       17.83969879       1.78384984      24.40423203
C       18.54024887       5.07899618      26.68515396
C      -16.92763138       7.33596230      26.84532547
C       21.59027863       4.38385057      24.56262207
C       18.50685120       2.71436954      23.66307068
C       17.88862038       5.92056131      27.54131317
C      -17.73088455       6.49737358      27.55086327
C       22.36524963       3.51889110      23.83533287
C       19.01501465       2.38916111      22.38340759
C       36.39046478       5.52368116       0.33915943
C        0.68952525       6.79986858       0.35285622
C       22.81375885       3.86049485      22.54331589
C       33.70986557       3.47606778       0.35923958
C       21.66559792       6.00450230      22.78063965
C      -14.07968140       5.90622044      22.62966728
C       18.57617950       3.35406852      28.36665153
C      -14.41123295       6.24321795      23.91236305
C       18.87863922       3.77515411      27.10132217
C       15.05397797       3.16802430      27.56393051
C       21.24727440       5.64847660      24.02942085
H       17.42872429       2.02470684      25.38602829
H       18.75967979       5.40949297      25.68118286
H      -16.61732101       7.07135391      25.84072495
H       21.25084877       4.09099197      25.54316139
H       18.64300728       3.71446824      24.04474831
H       17.58584404       6.92028666      27.23503494
H       21.67346573       5.57028055      27.12044716
H       22.64740562       2.54411268      24.22712135
H       34.25984955       4.29063416       0.80288368
H       21.39721107       6.96080351      22.36175537
H      -14.41770744       4.96920300      22.20478821
H       37.61714172       2.34505463       0.14559731
H      -15.01730633       5.57774687      24.50754929
H       19.37324333       3.09841108      26.41277504
H       15.75965786       3.71660733      26.94792938
H       20.61691475       6.33654451      24.61718178
C       31.60775375       7.29862309       2.90717292
C       32.80247879      10.31137371       5.40910673
C       -2.94614100      12.76314259       5.45289707
C       35.81112289      10.14808273       3.10743570
C       32.41305923       8.15829372       2.21595168
C       32.03102493      11.16460705       6.14846325
C       -3.67905211      11.92196655       6.24437857
C       36.62514496       9.32981014       2.37764525
C       32.76888275       7.88152885       0.87232751
C       31.72669411      10.87458897       7.49817228
C       -3.99470401      12.27275276       7.58174086
C       36.94353485       9.63256550       1.03152692
C       28.97813225       8.96393299       7.14914322
C       35.60028458      11.65489101       1.23363543
C       -0.03996876      11.44939327       1.25799525
C       33.00327301       8.81602001       7.28534985
C       -0.38692984      11.81405163       2.52779126
C       33.29417038       9.12154675       5.98149252
C       29.28484917       8.59261608       5.86883879
C       35.28515244      11.32553005       2.52691507
H       31.35482597       7.52610445       3.91502500
H       33.03699493      10.53958225       4.37439156
H       -2.70391726      12.46859455       4.43428230
H       35.57859421       9.88846874       4.12541056
H       32.78766251       9.08214760       2.67835283
H       31.64086151      12.07355309       5.73141670
H       35.73830032      10.95424271       5.86559153
H       37.03845596       8.43545341       2.81613302
H       29.33710480       9.89110851       7.55360746
H       35.22341919      12.56616116       0.79888606
H       -0.33787122      10.49272633       0.88136011
H       33.37057114       7.91019249       7.73511839
H       -0.97129828      11.14361477       3.15209818
H       33.90271759       8.44796181       5.39727259
H       29.90512848       9.23026562       5.25219345
H       34.64006424      11.98665047       3.11230087
C       27.12356949       7.65096855      10.09260368
C       28.04596901      10.44993114      12.57891846
C       -7.70427465      12.87472248      12.59590435
C       31.13439369      10.24127769      10.16559887
C       27.88449287       8.47633648       9.31425095
C       27.27332497      11.26811314      13.35673046
C       -8.46556187      12.03109646      13.35077000
C       31.91571236       9.39602375       9.42634010
C       28.18424416       8.12911510       7.97323132
C       26.90804672      10.89170837      14.67399979
C       -8.79436779      12.35295391      14.69232750
C       32.22106934       9.68319416       8.07118702
C       24.12252045       8.77857590      14.40611839
C       30.93742561      11.74507618       8.29481220
C       -4.74673319      11.41894341       8.41406059
C       28.07090759       8.77875996      14.31993485
C       -5.07188129      11.78919601       9.68923569
C       28.44715881       9.18641186      13.07329559
C       24.43944359       8.45472813      13.11973572
C       30.63713264      11.42931938       9.58651257
H       26.90731239       7.94733381      11.12756157
H       28.34458351      10.76361561      11.58454418
H       -7.43317032      12.60228539      11.58246326
H       30.88845634       9.98270607      11.18863201
H       28.26649475       9.41183662       9.69793987
H       26.95984459      12.24301720      12.98357868
H       30.94644737      11.09432888      12.95835209
H       32.31330490       8.47776031       9.83275127
H       24.41667748       9.73524952      14.81143284
H       30.56978989      12.65920353       7.86161709
H       -5.07548189      10.46936131       8.02038860
H       28.36153030       7.81769943      14.68803596
H       -5.67467928      11.14085960      10.29628658
H       29.06195068       8.54513264      12.44299507
H       24.98352432       9.13886070      12.50712872
H       30.01994896      12.11251545      10.18035221
C       22.45561409       7.27423334      17.37040710
C       23.54374695      10.17836380      19.73114967
C      -12.26307392      12.85635757      19.76312065
C       26.24758720      10.11003590      17.28553963
C       23.10849380       8.17879391      16.58202744
C       22.79523468      11.04113293      20.48581696
C      -12.99864578      11.98968983      20.52727699
C       26.97394371       9.26307106      16.48957062
C       23.42824936       7.86923122      15.23456860
C       22.46918488      10.73040676      21.82972717
C      -13.34636307      12.31449985      21.86380196
C       27.31431007       9.62923622      15.16133118
C       19.74457741       8.86951828      21.53503418
C       26.16779709      11.74858952      15.51992512
C       -9.57122707      11.48505497      15.49919319
C       23.67714882       8.63041782      21.57175255
C       -9.88602638      11.82782078      16.78408623
C       23.99280357       8.95645905      20.28458405
C       20.10911942       8.49740314      20.27013779
C       25.83625793      11.36950874      16.79411507
H       22.21809387       7.52045727      18.40338135
H       23.78301811      10.43569183      18.69941902
H      -11.99876118      12.58319950      18.76160240
H       26.00873756       9.81146240      18.29866791
H       23.38759041       9.13668633      16.96639442
H       22.43519592      11.98685169      20.06437492
H       26.44797707      11.03287220      20.12503052
H       27.30293846       8.28315830      16.86104584
H       20.06384850       9.82863235      21.95033455
H       25.87719917      12.71275902      15.13805008
H       -9.92664242      10.54867172      15.06961632
H       24.00104141       7.70286560      21.99850082
H      -10.48996067      11.15037441      17.38474846
H       24.57100487       8.28433514      19.69649315
H       20.73625183       9.15966606      19.68730927
H       25.26694298      12.05423737      17.42526245
C       17.73280144       7.57709503      24.37847137
C       18.77895355      10.30805206      26.91373253
C      -16.97800064      12.82340813      26.87485504
C       21.83506966      10.06142902      24.47039986
C       18.54727554       8.38488579      23.64546394
C       17.95959282      11.12239933      27.63617325
C      -17.72352791      11.97553635      27.63571930
C       22.58871841       9.20257568      23.71913338
C       18.94080734       8.02057552      22.33488846
C       36.42909241      10.81042957       0.45354286
C        0.71563727      12.32467175       0.43891862
C       22.91584969       9.51664257      22.37684059
C       33.58629608       8.76848316       0.12358940
C       21.69802475      11.61014271      22.63179016
C      -14.09403419      11.43096733      22.67485619
C       37.76950073       8.78512096       0.24520850
C      -14.44926929      11.77652454      23.94886208
C       19.28573227       9.11576557      27.48678589
C       15.14480400       8.46809196      27.36441422
C       21.38030052      11.28332138      23.92231941
H       17.42384720       7.87278080      25.36198807
H       19.03499985      10.57230854      25.89521408
H      -16.68986702      12.54907417      25.88524246
H       21.59144402       9.80892658      25.50018501
H       18.89534950       9.33615208      24.03694344
H       17.56358337      12.03181934      27.19798851
H       21.72092819      11.02102375      27.25620461
H       22.93888855       8.26650047      24.12069511
H       33.92967224       9.68663788       0.58972687
H       21.36160088      12.53874016      22.20146561
H      -14.38271332      10.47325325      22.26037407
H       38.13766861       7.87507772       0.69658321
H      -15.02749825      11.09658337      24.55914116
H       19.91744423       8.45762253      26.90681458
H       15.77991867       9.13898373      26.79510117
H       20.77971458      11.97273540      24.52004623
C       31.71826553      13.01400661       3.01816297
C       32.87685776      15.71117496       5.40800762
C       -2.91266036      18.14717293       5.49585962
C       35.63988495      15.45383072       2.97875309
C       32.47477341      13.86905766       2.26573610
C       32.07974625      16.52782631       6.15472317
C       -3.71762848      17.31765938       6.22780228
C       36.46352005      14.64449024       2.24911284
C       32.85150528      13.53009987       0.94395357
C       31.73400116      16.18941116       7.48603821
C       -4.06116629      17.63524055       7.56081438
C       36.85300064      15.00277805       0.92967725
C       28.90173340      14.32978249       7.20253038
C       35.57339478      17.06046104       1.17737103
C       -0.12613294      16.95331573       1.14508033
C       33.00812912      14.12482548       7.21568108
C       -0.48573563      17.31732941       2.41188312
C       33.34477997      14.48869514       5.94240475
C       29.22912025      13.98539925       5.92162132
C       35.18513489      16.68087769       2.43806911
H       31.41671944      13.30113888       4.02049255
H       33.15567017      16.00235939       4.40388203
H       -2.64188266      17.86964417       4.47787380
H       35.33779144      15.14720249       3.96797061
H       32.77704620      14.81837749       2.66051650
H       31.70987511      17.46207619       5.76653528
H       35.68472672      16.39303207       5.79973555
H       36.82238388      13.70721340       2.64033031
H       29.25279617      15.26306152       7.63178110
H       35.22595596      17.99283028       0.75662667
H       -0.44500664      16.01165390       0.72121215
H       33.34164047      13.19910336       7.63726568
H       -1.10445571      16.64728546       3.00863576
H       33.97499084      13.83993626       5.34134960
H       29.84111786      14.64846039       5.32759476
H       34.51163101      17.30845833       3.01152992
C       27.00098991      12.94959927      10.08906364
C       28.16028404      15.74787807      12.59169960
C       -7.66273689      18.31080818      12.64464569
C       31.10639191      15.47710419      10.12221527
C       27.77914810      13.78888226       9.34542370
C       27.43126297      16.61010742      13.36303711
C       -8.44309425      17.48238564      13.40297985
C       31.88089371      14.64050484       9.36257267
C       28.11590576      13.46783924       8.00605774
C       27.10004044      16.28679848      14.69822979
C       -8.76960659      17.82054901      14.74042130
C       32.20540237      14.96823883       8.02061176
C       24.28286171      14.40497208      14.37735558
C       30.95945168      17.04637718       8.29870892
C       -4.87230110      16.78231430       8.35097694
C       28.26378441      14.16763401      14.40311718
C       -5.21020079      17.12073517       9.62958145
C       28.57451057      14.50633621      13.12138939
C       24.60533333      14.06200886      13.09580517
C       30.63752937      16.70067787       9.58100414
H       26.74730873      13.22493267      11.09377766
H       28.41403961      16.02176666      11.56838131
H       -7.40807772      18.02776527      11.62328815
H       30.86801147      15.21623898      11.13998699
H       28.14793015      14.71914959       9.75969315
H       27.09966087      17.57860565      12.96074963
H       30.95276260      16.54608917      13.00192738
H       32.25807190      13.71700859       9.76872253
H       24.64848709      15.33934307      14.80060673
H       30.61946678      17.98553276       7.88440895
H       -5.21305656      15.86260796       7.92424393
H       28.57619667      13.21931648      14.80742359
H       -5.83867407      16.46393967      10.21700764
H       29.15583038      13.82418156      12.50968456
H       25.22159767      14.71664810      12.50637245
H       30.03528404      17.37598801      10.18094826
C       22.45226097      13.00537300      17.30337906
C       23.54410172      15.75558472      19.77341843
C      -12.19554615      18.36530304      19.78545189
C       26.48036003      15.59274864      17.34272957
C       23.19626999      13.86060715      16.53152084
C       22.80686951      16.60373497      20.55251503
C      -12.98388004      17.52634811      20.51131821
C       27.20774651      14.72692776      16.57320213
C       23.50692177      13.54336834      15.18939114
C       22.46513176      16.25702095      21.88265038
C      -13.34744072      17.84606552      21.84228897
C       27.52223015      15.04453754      15.23040485
C       19.67615318      14.43199539      21.52407074
C       26.37140083      17.16923141      15.52764225
C       -9.54500103      16.96201324      15.56100464
C       23.63714218      14.14233875      21.55929756
C       -9.87089062      17.32616997      16.83759689
C       23.96224022      14.50696278      20.28339195
C       20.02775002      14.07862949      20.25153542
C       26.05854034      16.83277130      16.81359863
H       22.21722984      13.26475430      18.32167435
H       23.79553413      16.03685188      18.75885773
H      -11.90501022      18.08574295      18.76272964
H       26.24698830      15.32052994      18.35240936
H       23.55473709      14.78786278      16.93368912
H       22.45793152      17.56002045      20.17956734
H       26.42786598      16.58123970      20.09066200
H       27.54027367      13.77870750      16.96068192
H       19.99752235      15.38048840      21.93636703
H       26.06302452      18.12268066      15.12051392
H       -9.88598919      16.01691055      15.15675259
H       23.94655037      13.18223763      21.96152878
H      -10.48404503      16.66604042      17.44498253
H       24.56388664      13.83414745      19.66423035
H       20.63750267      14.76089191      19.65788651
H       25.50554276      17.51431656      17.43314743
C       17.75401497      13.05526924      24.40099907
C       18.80367470      15.76393032      26.87413216
C      -16.94934654      18.28608704      26.81426620
C       21.76810265      15.48105526      24.48571968
C       18.52703667      13.90736866      23.65213013
C       17.99201965      16.58339500      27.60667610
C      -17.75295067      17.45917130      27.55181122
C       22.52407646      14.64666176      23.71261406
C       18.89973640      13.56115341      22.33208466
C       36.40406418      16.22613525       0.39610615
C        0.67200047      17.80784988       0.34577233
C       22.88292885      15.00469398      22.38922310
C       33.61527252      14.40446377       0.14149910
C       21.71149826      17.12121963      22.71357346
C      -14.14787865      16.98194313      22.63082504
C       37.67592621      14.16136742       0.14621760
C      -14.49027920      17.32318687      23.90608406
C       19.25421143      14.53837872      27.41111374
C       15.18008804      14.05756760      27.39831162
C       21.35497856      16.73893929      23.97397614
H       17.47165680      13.33661747      25.42025757
H       19.10961533      16.05705643      25.87835884
H      -16.66615677      17.98371124      25.81270981
H       21.48093414      15.18156815      25.46969604
H       18.86559105      14.86228085      24.04236984
H       17.62352753      17.52293968      27.20442390
H       21.66773796      16.51770020      27.14732742
H       22.84661484      13.68593025      24.09291077
H       33.91489029      15.35876751       0.56128788
H       21.40361023      18.07058907      22.32770157
H      -14.47946739      16.05843353      22.19169617
H       38.00878143      13.22982311       0.56557149
H      -15.11809826      16.65738297      24.49010849
H       19.90151978      13.89221001      26.82843399
H       15.76660442      14.74183369      26.79037285
H       20.76341629      17.41626167      24.59010696
C       31.73034287      18.50632477       2.99837232
C       32.74081421      21.17331123       5.36113262
C       -3.27131200      23.29135132       5.42514372
C       35.61743164      20.96950531       2.92661190
C       32.48015594      19.35386658       2.23529267
C       32.03585052      22.03012657       6.15665007
C       -3.96415830      22.50114822       6.30230522
C       36.42175674      20.14055824       2.19623876
C       32.84510040      19.01724052       0.90535247
C       31.74709702      21.68501091       7.49831533
C       -4.30140448      22.98405647       7.59474087
C       36.85964966      20.50654602       0.90187961
C       29.03455353      19.80944633       7.23439980
C       35.65676498      22.61184120       1.15499246
C       -0.00501456      22.53679085       0.96899974
C       32.91210175      19.57168579       7.15348721
C       -0.45395055      22.83177567       2.22342587
C       33.18682098      19.92219353       5.86218405
C       29.32078743      19.48056030       5.93773556
C       35.22452164      22.22471237       2.39309788
H       31.45547485      18.78813553       4.00054073
H       32.96425247      21.46273804       4.33295202
H       36.78050613      22.90099907       4.45918608
H       35.28180313      20.66459084       3.91989303
H       32.80034256      20.30430031       2.62552786
H       31.68383789      22.98249054       5.78522396
H       35.51728058      21.48422432       6.04032326
H       36.72089005      19.18693924       2.60422945
H       29.39106750      20.72128296       7.67547894
H       35.35725403      23.56961250       0.74447566
H       -0.22248307      21.59131622       0.51462400
H       33.24697113      18.62217140       7.52835894
H       -1.04046428      22.10478783       2.78224468
H       33.74766159      19.24499321       5.22707796
H       29.91353607      20.15658188       5.33113527
H       34.59203339      22.88149261       2.97240210
C       27.25096703      18.39655304      10.17290497
C       28.31337357      21.37504578      12.71625996
C       -7.72779846      23.66991615      12.50332546
C       31.19503212      20.95048141      10.14542675
C       28.00650024      19.24385452       9.41211796
C       27.63119507      22.24752808      13.51696873
C       -8.44750881      22.88290977      13.36038303
C       31.91354370      20.10289764       9.35118103
C       28.27536964      18.94401360       8.05723858
C       27.25187111      21.88544655      14.83215427
C       -8.79742718      23.35740280      14.64936256
C       32.18504715      20.44103241       7.99736547
C       24.45162964      19.86225510      14.54786301
C       31.01208496      22.54973602       8.34884167
C       -4.95751142      22.17515945       8.55214405
C       28.30607796      19.71789360      14.46455574
C       -5.26834774      22.66068459       9.78661823
C       28.65213776      20.08950806      13.19991779
C       24.81864738      19.51408577      13.28025341
C       30.73164749      22.18391991       9.63981724
H       27.05335236      18.64331627      11.21607494
H       28.60441208      21.66760826      11.71617126
H       -7.44479656      23.28232765      11.52352238
H       30.99857330      20.66836929      11.17028141
H       28.41155052      20.16284180       9.84326458
H       27.38095665      23.24076271      13.17085361
H       31.01323128      21.87560654      13.09102726
H       32.28672028      19.14211082       9.72199154
H       24.79784012      20.80177116      14.97939301
H       30.66774368      23.50704193       7.96669960
H       -5.19807434      21.16607666       8.27047062
H       28.57215881      18.74162292      14.86010075
H       -5.78309393      22.02293587      10.49171352
H       29.20731926      19.39455986      12.57472420
H       25.47853279      20.15422058      12.71399975
H       30.15841293      22.84867287      10.27178192
C       22.50064087      18.47015762      17.39498329
C       23.58382607      21.32101631      19.78382111
C      -12.40421963      23.94020844      19.67385674
C       26.54173088      21.10260391      17.42535019
C       23.28263283      19.32021523      16.65779495
C       22.84841156      22.17730904      20.54514694
C      -13.06989765      23.08733177      20.50309563
C       27.25078392      20.24342728      16.64055824
C       23.63762665      19.00499535      15.32403564
C       22.50660324      21.85971832      21.88521194
C      -13.43291283      23.49105453      21.81421471
C       27.60232925      20.60340309      15.31538773
C       19.75164032      19.93793488      21.57409287
C       26.54113770      22.76367950      15.68421078
C       -9.50275326      22.54753113      15.56877327
C       23.69611168      19.74423790      21.60774422
C       -9.84403515      23.01987267      16.80538940
C       24.01851082      20.08074379      20.31844330
C       20.09544945      19.58681297      20.29399109
C       26.16849327      22.37448120      16.94124985
H       22.23504639      18.73224449      18.40559196
H       23.85892296      21.58357048      18.76280975
H      -12.11815834      23.61390114      18.67984772
H       26.28334236      20.81068039      18.43293953
H       23.64656258      20.25631714      17.09834480
H       22.48867989      23.11959267      20.15038490
H       26.43135643      22.08512115      20.19154930
H       27.54181099      19.27405548      16.99592400
H       20.09118271      20.88228989      21.98966980
H       26.27632713      23.75864983      15.31143761
H       -9.77109718      21.54609489      15.26566505
H       24.01767731      18.79525185      22.03608704
H      -10.39792633      22.39005661      17.48345947
H       24.59448624      19.40583038      19.70298767
H       20.70671654      20.25749969      19.70054817
H       25.59840775      23.04928780      17.55850029
C       17.86172867      18.54942131      24.45720291
C       18.88402557      21.27632141      26.86438751
C      -16.83133125      24.11097527      26.76981926
C       21.83988190      21.14461136      24.50576019
C       18.63068008      19.39529037      23.71254539
C       18.08382034      22.11659622      27.59148407
C      -17.55306435      23.18578148      27.46771622
C       22.60080147      20.29505157      23.75139236
C       18.96572495      19.07459641      22.36942482
C       36.46562958      21.75688744       0.36959133
C        0.76475072      23.47030640       0.23792201
C       22.94081497      20.62379074      22.41669464
C       33.60932541      19.87807274       0.08881784
C       21.73895645      22.72938347      22.69220734
C      -14.10069466      22.61679840      22.71202278
C       37.67538452      19.65851784       0.11646894
C      -14.42051697      23.02562141      23.97517204
C       19.28796387      20.03357124      27.39815521
C       15.16947937      19.50870323      27.35222054
C       21.40393639      22.38094330      23.97189331
H       17.61730385      18.81587219      25.48571968
H       19.21928215      21.56319046      25.87696838
H      -16.46339226      23.85976219      25.77841759
H       21.57355118      20.87047958      25.51620865
H       19.00645447      20.31099510      24.12271500
H       17.76051521      23.07738113      27.17976952
H      -17.75994873      22.20926094      27.04688454
H       22.94802475      19.35445213      24.15095520
H       33.92872620      20.82578850       0.48365185
H       21.39926338      23.67584801      22.26537132
H      -14.35440063      21.60433769      22.36194229
H       37.96405029      18.69797897       0.52948874
H      -14.92381477      22.35421371      24.63755608
H       19.92859840      19.35932541      26.82169533
H       15.76722240      20.17484665      26.73898125
H       20.80733490      23.04783440      24.57600975
C       -0.14916641      24.08133888       2.81094074
C       -0.06701132      26.86850929       5.11073256
C        4.37011862       1.14131665       5.18781853
C        3.82733893      27.21148682       2.86649632
C        0.59318113      25.00457764       2.11960220
C       -0.90755963      27.57828522       5.91290903
C        3.44928074       0.53690475       5.99753857
C        4.55393982      26.33167839       2.11213922
C        1.05747449      24.73008537       0.81489891
C       -1.01996040      27.26874542       7.28897572
C        3.13098955       1.08050585       7.26783228
C        4.96601963      26.67693520       0.79641086
C       -3.29750562      25.11808968       6.98818970
C        3.86246085      28.83643913       1.08641720
C        7.15424252       0.95955831       0.60533160
C        0.54923904      25.44134140       6.95293331
C        6.86151218       1.35554242       1.88131738
C        0.67953748      25.79294395       5.63696527
C       -2.93408585      24.61573601       5.77215958
C        3.49394965      28.49084473       2.34939361
H       -0.51667178      24.32398224       3.80928445
H        0.02186752      27.13074684       4.06036568
H        4.63200378       0.69946051       4.23185968
H        3.50679231      26.93558502       3.86834693
H        0.82354093      25.96739960       2.56270838
H       -1.47716987      28.41513824       5.51929760
H        2.97886086      58.53189468       5.69080830
H        4.80993891      25.35744095       2.49596453
H       -3.08057213      26.13877869       7.25267220
H        3.60980606      29.80135727       0.68514454
H        6.61696386       0.13425833       0.16228701
H        1.08476031      24.59130287       7.34138346
H        6.10614491       0.82631648       2.43890095
H        1.36607850      25.22659302       4.99703884
H       -2.38292623      25.24368286       5.09109259
H        2.93650413      29.18310547       2.96464753
C       -4.91517210      23.98254776      10.14447880
C       -3.76797056      26.82981300      12.61667633
C       -0.30187494       1.55374086      12.38510036
C       -1.29701281      26.56381416       9.98281384
C       -4.26417589      24.78492546       9.24279690
C       -4.42832661      27.76294899      13.36635685
C       -1.19019604       0.81863028      13.12754059
C       -0.44965065      25.84589195       9.18848610
C       -3.95194101      24.30881119       7.94934559
C       -4.91295385      27.44227600      14.65661144
C       -1.48217678       1.17729938      14.46741104
C       -0.29225156      26.18136978       7.81496572
C       -7.69015932      25.46618652      14.11604023
C       -1.88794601      27.99015045       8.13719654
C        2.24291468       0.43536931       8.16137505
C       -3.84705138      25.25701332      14.43164158
C        1.98028314       0.96617454       9.38569164
C       -3.47896552      25.56000710      13.14671135
C       -7.34419155      24.97257423      12.89358044
C       -2.02699542      27.64941597       9.45288372
H       -5.15660906      24.37483025      11.12365818
H       -3.45276999      27.08248520      11.61668968
H       -0.10212183       1.26854873      11.36272526
H       -1.40832400      26.29714966      11.03341389
H       -3.98773170      25.81486321       9.48877335
H       -4.61308813      28.73934937      12.96205044
H       -1.67456377      58.87879562      12.70007992
H        0.10271019      25.00355339       9.57881069
H       -7.40451336      26.46312523      14.40761948
H       -2.43599176      28.83635712       7.71622610
H        1.75637364      58.42422485       7.85866261
H       -3.60950708      24.29233551      14.86038971
H        1.31907630       0.45678559      10.08274269
H       -2.94903302      24.82080841      12.54755974
H       -6.76287794      25.57761765      12.20428848
H       -2.67949867      28.24237442      10.07728004
C       -9.46962547      24.32822418      17.18834114
C       -8.82470036      26.83626747      19.64452744
C       -4.77724171       2.49029112      19.74347115
C       -5.85263300      26.70754814      17.19117928
C       -8.77458572      25.13038063      16.32433128
C       -9.65795994      27.64085007      20.36910629
C       -5.67021275       1.65397501      20.34140968
C       -5.02984858      25.86538506      16.52261543
C       -8.41580582      24.66755295      15.03484344
C       -9.81331158      27.43964958      21.76204491
C       -5.85202169       1.66188312      21.74353981
C       -4.57727242      26.18571281      15.21212578
C      -12.46330261      25.67251205      21.34665680
C       -5.78195953      28.30236053      15.38218784
C       -2.41744614       0.46251744      15.23851871
C       -8.30672932      25.52527046      21.60035324
C       -2.66886258       0.81418735      16.53407097
C       -8.15347767      25.75166130      20.25993156
C      -12.10075378      25.25012207      20.09848022
C       -6.27450180      27.92302513      16.59695244
H       -9.74885559      24.70107460      18.16890144
H       -8.68625545      27.02174377      18.58580399
H       -4.61945248       2.46290374      18.68176651
H       -6.20750475      26.45992279      18.18726158
H       -8.48433781      26.14211845      16.60669899
H      -10.16951847      28.47678566      19.89706421
H       -6.26169348       0.96259880      19.75783920
H       -4.71734905      24.91994858      16.94109726
H      -12.26253796      26.67584991      21.68558693
H       -6.08838606      29.23456383      14.94402313
H       -2.95290017      58.57811737      14.77278614
H       -7.82692194      24.68559456      22.08148193
H       -3.38996649       0.22329418      17.10519600
H       -7.52104759      25.09784126      19.66849518
H      -11.57439613      25.91528130      19.43051147
H       -6.97697401      28.56772232      17.11728859
C      -14.07197571      24.32763290      24.41161919
C      -13.09904766      27.38146591      26.71710968
C       -9.32386398       1.86484969      26.38034439
C       -9.99458790      27.07088852      24.53723907
C      -13.43636227      25.18923569      23.56788254
C      -13.81886959      28.26428604      27.46718979
C      -10.31847095       1.22768533      27.06461906
C       -9.22638226      26.21807480      23.79360008
C      -13.11140442      24.79518890      22.24256706
C        4.60109615      27.94176865       0.27386037
C      -10.63589001       1.61124384      28.38778877
C       -9.11412048      26.38324356      22.38432884
C        1.79177797      25.67992401       0.06062911
C      -10.62393188      28.29242706      22.55520630
C       -6.75013304       0.78172660      22.39670944
C      -13.07750511      25.78823090      28.52520943
C       -6.99741030       0.92538416      23.73619080
C      -12.71501160      26.13257217      27.25260735
C      -16.55343056      25.37644958      27.33698273
C      -10.70213222      28.12121582      23.90746498
H      -14.29321194      24.65302658      25.41945267
H      -12.81841946      27.64175224      25.70376205
H       -9.08350372       1.57286847      25.38091278
H      -10.05376530      26.93736267      25.61746025
H      -13.18043327      26.20077896      23.88456345
H      -14.10355473      29.23163986      27.07444572
H      -10.86102295       0.41057387      26.61770630
H       -8.68396091      25.40868378      24.25852776
H        1.99582267      26.65145683       0.50388795
H      -11.15204144      29.10938454      22.09026527
H       -7.25825214       0.02399678      21.80877876
H        6.01435471      24.81009865       0.40155104
H       -7.71943521       0.28502908      24.21713066
H      -12.12505913      25.45435143      26.64648056
H      -15.97983646      26.10591125      26.77358246
H      -11.28946304      28.78742981      24.49550247
C       -0.67344320       1.87326324       2.59793162
C        0.65996552       4.47772264       5.15472555
C        4.86061096       7.14840221       5.23257589
C        3.50517917       4.09014416       2.79093838
C        0.23666668       2.59648943       1.89313960
C        0.09896074       5.38096190       6.01436234
C        4.04726267       6.30703831       5.92959213
C        4.13554335       3.32393193       1.84566081
C        0.61694801       2.20489573       0.58771938
C       -0.35330331       4.97925043       7.30047655
C        3.68984437       6.59338617       7.27382755
C        4.57518959       3.89857244       0.62863052
C       -3.30736113       2.92010307       6.72455025
C        3.70573854       6.04393387       1.38836205
C        7.64821053       5.90377140       1.13245046
C        0.30470556       2.70013094       6.74397421
C        7.34027338       6.24782991       2.41895151
C        0.75830483       3.11555982       5.52339745
C       -2.99813843       2.48408270       5.46305799
C        3.26960874       5.46591711       2.54519486
H       -0.93868059       2.17299557       3.60828400
H        1.00539899       4.80606842       4.18348742
H        5.12371969       6.91474867       4.20357418
H        3.17492461       3.63005543       3.73274970
H        0.68967175       3.48934484       2.32801533
H        0.01009692       6.42715645       5.74739027
H        3.66084313       5.39374638       5.46458483
H        4.29007578       2.26772547       2.01932335
H       -2.90018654       3.85498810       7.09718657
H        3.52970362       7.09528208       1.20589197
H        7.21373320       5.02401161       0.67804587
H        0.36016759       1.65591455       7.02499676
H        6.68438578       5.61441422       2.99348426
H        1.19839752       2.40605044       4.82046127
H       -2.34481692       3.07544208       4.84379148
H        2.74237323       6.07236862       3.28509092
C       -5.36266899       1.88111281       9.62460232
C       -3.75401354       5.15950871      12.61019135
C        0.24870859       7.20947504      12.64376068
C       -1.18581486       4.13450336       9.83638477
C       -4.51017761       2.60482168       8.85369301
C       -4.54880810       5.96116209      13.39292431
C       -0.49593848       6.37599516      13.42574120
C       -0.67388713       3.22203803       8.95806503
C       -4.17026997       2.16831207       7.55010748
C       -4.97129583       5.53567696      14.67420578
C       -0.80769294       6.72809410      14.76501274
C       -0.23563167       3.61997795       7.67270660
C       -7.57118654       3.50924468      13.82952690
C       -0.90799814       5.89730597       8.21530247
C        2.82932186       5.74578381       8.01190758
C       -3.83843350       3.41953754      14.27039909
C        2.47693133       6.05868816       9.29399776
C       -3.38746643       3.87989402      13.07189465
C       -7.24524879       3.04608440      12.59228802
C       -1.31151021       5.49306917       9.45769882
H       -5.58951187       2.20940447      10.61881733
H       -3.41466570       5.51617765      11.63798237
H        0.48738492       6.91139507      11.62119770
H       -1.49060893       3.82281089      10.82290840
H       -4.07656288       3.52659178       9.22501373
H       -4.85003853       6.93524837      13.05184364
H       -0.84479940       5.43082666      13.04866982
H       -0.57775825       2.17783952       9.23233604
H       -7.32463551       4.51664114      14.12927532
H       -1.00472867       6.94004107       7.92741728
H        2.44451904       4.85437965       7.54332352
H       -3.58378553       2.43103337      14.61604881
H        1.80391240       5.41404009       9.85306835
H       -2.74521446       3.25470543      12.46962357
H       -6.70952129       3.68634939      11.90366459
H       -1.73042691       6.21349239      10.16222763
C       -9.31950092       2.31263709      16.88560104
C       -8.71597862       4.74319363      19.50691223
C       -4.57066441       7.28307438      19.65544891
C       -5.79906178       4.62184191      17.19396973
C       -8.64775658       3.13242555      16.03372574
C       -9.30712605       5.61015844      20.37693977
C       -5.37135124       6.41612244      20.34967041
C       -5.05294085       3.80448818      16.38636780
C       -8.24923611       2.67485666      14.75378037
C       -9.65207005       5.20019817      21.69281006
C       -5.62842560       6.61608410      21.72576904
C       -4.62167692       4.24356794      15.11610985
C      -12.37563801       3.04782462      21.33870125
C       -5.74144793       6.36431980      15.52109623
C       -1.58899879       5.88661432      15.60558128
C       -8.83280468       2.96996641      21.13603592
C       -1.89440596       6.26380730      16.88348007
C       -8.46156311       3.40012622      19.90006256
C      -12.11772156       2.72830319      20.03674507
C       -6.15257835       5.91923714      16.75033569
H       -9.65748215       2.68885350      17.84762383
H       -8.45001888       5.06249619      18.50561142
H       -4.36526728       7.10686731      18.60732269
H       -6.12009716       4.26239872      18.14983559
H       -8.43126583       4.16858387      16.30876923
H       -9.51115417       6.63219500      20.08721161
H       -5.82258177       5.55503750      19.86216545
H       -4.79374456       2.80698490      16.70346069
H      -12.11584759       4.03313017      21.72839165
H       -6.00579786       7.35302067      15.17514229
H       -1.95288956       4.94952154      15.20979691
H       -8.69872665       1.93389773      21.43343925
H       -2.50528002       5.62232208      17.51279449
H       -7.98933744       2.72688675      19.20920181
H      -11.62485981       3.45477152      19.38941956
H       -6.74496937       6.55082178      17.39229774
C      -13.61063099       1.43738627      24.44985390
C      -13.23204613       5.13164711      26.83652115
C       -9.05051136       7.13636923      26.83849525
C      -10.30836773       4.32377958      24.26860237
C      -13.15894890       2.40035677      23.59293175
C      -13.94913578       5.86537266      27.73642349
C       -9.92327499       6.36097240      27.55029106
C       -9.75966167       3.44728684      23.37401009
C      -12.92754173       2.09521961      22.22682190
C        4.37581635       5.27988768       0.40218696
C        8.53377438       6.69771576       0.35721380
C       -9.41024113       3.85944057      22.06978798
C      -17.25166130       2.94768405      28.34520721
C      -10.23265171       6.08336210      22.62019539
C       -6.45469666       5.73061705      22.46053696
C      -13.58860302       3.14022613      28.14139938
C       -6.71584749       5.96372461      23.78579712
C      -13.05240822       3.74542689      27.04431915
C      -16.87319565       2.51851845      27.10703468
C      -10.54929161       5.66375542      23.88371468
H      -13.77983761       1.64815331      25.48620987
H      -12.82242966       5.59576750      25.95064354
H       -8.77910042       6.85528898      25.83928680
H      -10.55178833       3.99313450      25.26270866
H      -12.95139599       3.41182780      23.94830132
H      -14.13356304       6.91170168      27.54779243
H      -10.34511662       5.45486355      27.12290382
H       -9.59968948       2.40543413      23.64123535
H        1.95792735       3.84499502       0.24581908
H      -10.42434311       7.09855795      22.31406403
H       -6.86562300       4.86477756      21.95806885
H      -13.51335716       2.08880281      28.28331947
H       -7.36277819       5.28048754      24.33927345
H      -12.49456215       3.16535997      26.31957245
H      -16.14916801       3.08606792      26.52758408
H      -10.98731613       6.37146997      24.58791733
C       -0.01153473       7.45078850       2.98825145
C        1.02919900      10.24893856       5.40278244
C        5.03341293      12.69840813       5.44722557
C        3.95929098      10.10830688       3.06315684
C        0.78585345       8.30086517       2.27499747
C        0.27853462      11.09766960       6.17118740
C        4.25724220      11.85513496       6.18978834
C        4.75167465       9.28900719       2.31553745
C        1.14345276       8.00466251       0.93754029
C       -0.07655401      10.74876881       7.49734783
C        3.90212393      12.17690277       7.52602434
C        5.10673332       9.64021301       0.99062407
C       -2.74543333       8.85826588       7.26170778
C        3.84831214      11.70479488       1.25970483
C        7.94317865      11.39358616       1.29958355
C        1.05808628       8.62101078       7.17743015
C        7.58586788      11.77909088       2.56550455
C        1.41595137       8.99215412       5.91226673
C       -2.39101362       8.49582767       5.98814774
C        3.50209141      11.33952713       2.52965355
H       -0.29005784       7.69781446       4.00509357
H        1.31046438      10.54920769       4.39143562
H        5.29390574      12.42203903       4.43408775
H        3.67646885       9.82086849       4.07178020
H        1.13406241       9.21345615       2.71497989
H       -0.05241898      12.05086994       5.78925037
H        3.89866948      10.91863918       5.78180742
H        5.10857010       8.35992813       2.71487379
H       -2.41032887       9.79494572       7.68346119
H        3.51566267      12.64680099       0.84005588
H        7.63547707      10.42258453       0.90506417
H        1.35548329       7.65459967       7.57301760
H        6.98676014      11.11149502       3.18593240
H        2.01112843       8.31143951       5.29505062
H       -1.74730968       9.15325451       5.40845299
H        2.88475633      11.98918152       3.12406778
C       -4.69856548       7.53181934      10.13042068
C       -3.60609007      10.36124992      12.61540127
C        0.28604290      12.78510284      12.62642479
C       -0.73948020      10.02260780      10.12152672
C       -3.89151311       8.34836292       9.38721180
C       -4.41099358      11.18302631      13.35605431
C       -0.43937984      11.93527126      13.41134644
C       -0.02260073       9.15295219       9.34442616
C       -3.55442977       8.01041889       8.05691624
C       -4.74434137      10.85230827      14.69016647
C       -0.77135581      12.28422451      14.74320412
C        0.32295734       9.49343491       8.00784874
C       -7.57206583       9.08345413      14.43173313
C       -0.82953423      11.61721516       8.31808758
C        3.10768056      11.31295204       8.31246853
C       -3.46387815       8.79563808      14.44080257
C        2.75164294      11.66485977       9.58398819
C       -3.12471080       9.15254211      13.16923141
C       -7.24275827       8.79367828      13.14431763
C       -1.15662336      11.27055645       9.60149002
H       -4.94856262       7.81722355      11.13853455
H       -3.33934808      10.63975239      11.59098244
H        0.55895329      12.49086761      11.62038231
H       -0.99173707       9.77408504      11.14015865
H       -3.51937985       9.28189278       9.80114174
H       -4.77878284      12.11142540      12.95130539
H       -0.76218861      10.97650242      13.04586601
H        0.28337765       8.20253468       9.72603035
H       -7.20236731       9.97431946      14.91075993
H       -1.14596784      12.56977654       7.89591837
H        2.78179336      10.36579800       7.87398863
H       -3.10500908       7.86969757      14.86323071
H        2.11723375      11.00665855      10.18045902
H       -2.48687863       8.50291347      12.57662582
H       -6.59697771       9.47014236      12.59362793
H       -1.72534931      11.96251392      10.20188427
C       -9.51779747       7.61352253      17.24382401
C       -8.38607788      10.33163357      19.78378105
C       -4.41661501      12.76391792      19.81241608
C       -5.41041327      10.12517738      17.31354523
C       -8.71589470       8.46834564      16.54571152
C       -9.10857010      11.17444801      20.57161903
C       -5.12216234      11.88455582      20.58060074
C       -4.61291409       9.30631161      16.57009506
C       -8.39803123       8.21040726      15.18431282
C       -9.43645287      10.82038212      21.90414429
C       -5.47232056      12.21307182      21.91835785
C       -4.27243948       9.64289570      15.23968506
C      -12.13068485       8.90336132      21.56181908
C       -5.56213951      11.69649410      15.48951149
C       -1.49865222      11.41301060      15.58753204
C       -8.27972126       8.69963932      21.56015205
C       -1.83098733      11.77721214      16.86671257
C       -7.96746445       9.07282925      20.28496170
C      -11.82552814       8.58634090      20.27162743
C       -5.89390850      11.33781910      16.76128387
H       -9.74790287       7.81781197      18.27029610
H       -8.13181686      10.62375069      18.76934433
H       -4.16031647      12.50000381      18.78647614
H       -5.68015528       9.82805061      18.33156204
H       -8.29774189       9.35228062      16.99349022
H       -9.44092560      12.13669586      20.20996284
H       -5.42507553      10.93084145      20.19004631
H       -4.23020363       8.38577747      16.97134399
H      -11.79998398       9.83878422      21.99186707
H       -5.92249250      12.61892700      15.06417847
H       -1.80415452      10.43750286      15.20304680
H       -7.96373749       7.72616720      21.93860245
H       -2.39645052      11.10585499      17.50232315
H       -7.39280176       8.39447594      19.65030479
H      -11.24458981       9.27946091      19.65046692
H       -6.52639341      12.00247765      17.35715294
C      -13.96087933       7.47010136      24.46471405
C      -13.03822231      10.36662292      26.89081573
C       -9.02840328      12.75860214      26.88958549
C      -10.07921028      10.06472588      24.52342987
C      -13.19795799       8.32029533      23.71851921
C      -13.82739830      11.19137192      27.64166069
C       -9.75499916      11.90329552      27.67148399
C       -9.35001373       9.21305752      23.73626137
C      -12.87916660       8.01238537      22.37290192
C        4.63824081      10.85866356       0.45185277
C        8.69422245      12.26071453       0.46818048
C       -9.01509857       9.56931877      22.40441704
C        1.95956874       8.87528419       0.17241709
C      -10.18048668      11.68784904      22.74415016
C       -6.19432402      11.32042599      22.74057961
C        5.91265488       8.80065918       0.18576647
C       -6.55747938      11.67895508      24.00907898
C      -12.55998230       9.14623070      27.43474960
C      -16.47569847       8.54871082      27.42374039
C      -10.50265694      11.31220913      24.02012444
H      -14.22033119       7.72295141      25.49007607
H      -12.79470921      10.63563633      25.87714767
H       -8.76002312      12.45696545      25.89323807
H      -10.32741356       9.77575397      25.54202271
H      -12.82327938       9.26172161      24.12906647
H      -14.19813728      12.12468815      27.23104858
H      -10.07977390      10.93467426      27.29392433
H       -9.01026726       8.23906136      24.11513138
H        2.28791022       9.81627083       0.62023461
H      -10.49303532      12.65109539      22.35040665
H       -6.47101927      10.36302948      22.33422279
H        6.26790428       7.86325645       0.61699450
H       -7.12023735      10.99313354      24.63074493
H      -11.93311596       8.48882866      26.83485794
H      -15.82115746       9.21730900      26.86468315
H      -11.08179092      11.99381828      24.64480209
C        0.01529821      13.07196331       3.04151154
C        1.08032846      15.65762997       5.48797655
C        5.02686834      18.05182076       5.49675941
C        3.95085549      15.53872871       3.03577876
C        0.75463510      13.92146015       2.27583718
C        0.33111250      16.51820946       6.24326181
C        4.23853302      17.21778679       6.23894930
C        4.73944616      14.70372105       2.30091619
C        1.11556721      13.57383728       0.95138466
C       -0.03330492      16.18048286       7.57183266
C        3.87858772      17.54065323       7.57178068
C        5.10967159      15.04300785       0.97598231
C       -2.80192685      14.37082577       7.24536085
C        3.88505673      17.13389587       1.23761630
C        7.86803532      16.98508644       1.18489289
C        1.13409901      14.05566978       7.29008436
C        7.51158953      17.35886765       2.45622611
C        1.49602640      14.40938568       6.01848364
C       -2.49811745      14.00578499       5.96102667
C        3.51826143      16.77300072       2.50073147
H       -0.26236072      13.35868931       4.05884218
H        1.36751843      15.94320965       4.47766781
H        5.29023743      17.79172325       4.48398972
H        3.67014909      15.25195122       4.03945589
H        1.07719982      14.88153744       2.64876747
H        0.02139744      17.47242546       5.85306597
H        3.88598418      16.27541542       5.81346416
H        5.08053160      13.76475239       2.69676757
H       -2.47589755      15.31452179       7.63901234
H        3.55426669      18.08019447       0.80385131
H        7.57210827      16.01556015       0.78855973
H        1.43425715      13.12098408       7.69856930
H        6.92741251      16.67722893       3.07029271
H        2.09680271      13.73158836       5.42041540
H       -1.92368865      14.66801929       5.34452438
H        2.88709426      17.44547272       3.10224676
C       -4.63047600      13.03738689      10.19688606
C       -3.68019462      15.73934078      12.64745235
C        0.16186310      18.19225311      12.58917046
C       -0.77865404      15.43573380      10.17057991
C       -3.87301326      13.86444378       9.41544247
C       -4.45357656      16.58243179      13.39567375
C       -0.58109444      17.33913994      13.35868835
C       -0.01484728      14.58961201       9.41636944
C       -3.55337191      13.51517391       8.08679104
C       -4.80694103      16.25712967      14.72485447
C       -0.90457094      17.67290115      14.69496155
C        0.35918409      14.92703247       8.09597492
C       -7.58960581      14.44896793      14.41444969
C       -0.79252058      17.05739784       8.38465881
C        3.06542945      16.69749260       8.36145687
C       -3.58661580      14.15735149      14.47420692
C        2.69745874      17.04963875       9.62565517
C       -3.23386621      14.51369572      13.19967365
C       -7.25920820      14.10857201      13.13568592
C       -1.17037010      16.69286728       9.64856815
H       -4.88016748      13.34626675      11.20931053
H       -3.40508199      16.02531052      11.63998032
H        0.41960660      17.91827965      11.58090496
H       -1.09056985      15.14178181      11.17233467
H       -3.52442431      14.81620502       9.79856682
H       -4.79271030      17.51450729      12.99594498
H       -0.92247063      16.38403320      12.97087002
H        0.29257959      13.61087704       9.81757545
H       -7.27903271      15.40177250      14.82514286
H       -1.08739007      18.01301575       7.97701883
H        2.72583055      15.75916767       7.93478155
H       -3.26706767      13.21762371      14.88761330
H        2.04168081      16.40770340      10.20040894
H       -2.61764503      13.82603550      12.60848045
H       -6.65836143      14.78603840      12.53206158
H       -1.76359534      17.36283875      10.25210381
C       -9.43389606      13.05290508      17.32525444
C       -8.29955196      15.77140903      19.76106644
C       -4.36879063      18.36109543      19.75071526
C       -5.48675776      15.55763054      17.35031891
C       -8.68630123      13.90196037      16.56378174
C       -9.03160381      16.63831329      20.52572060
C       -5.13687754      17.52121544      20.50615120
C       -4.72782230      14.70242119      16.60322762
C       -8.35002613      13.58166409      15.22744083
C       -9.38255215      16.30722427      21.86061287
C       -5.50177574      17.88378716      21.83253479
C       -4.37379503      15.02365494      15.26656342
C      -12.19355679      14.44552135      21.57940292
C       -5.57713175      17.13233376      15.52932072
C       -1.65027046      16.79755783      15.52617836
C       -8.20966911      14.18493271      21.57348061
C       -1.96632123      17.14748955      16.80405235
C       -7.87721491      14.53250122      20.29183960
C      -11.85282898      14.09769058      20.30108070
C       -5.91858673      16.79320526      16.80234718
H       -9.69516659      13.33108425      18.34190178
H       -8.04290199      16.04220200      18.74962425
H       -4.07577419      18.05890083      18.74811172
H       -5.76086664      15.28516865      18.36209488
H       -8.33932209      14.86178398      16.97628403
H       -9.36480331      17.59366989      20.14285660
H       -5.48115253      16.57722092      20.13028526
H       -4.37833595      13.75554085      17.00536156
H      -11.88348866      15.39461231      21.99431419
H       -5.89999819      18.07717133      15.10195255
H       -1.96713436      15.85591984      15.11857510
H       -7.88961554      13.24304867      21.99900627
H       -2.53770518      16.46120071      17.42755508
H       -7.29663420      13.85422802      19.68502426
H      -11.25041008      14.79958153      19.70423889
H       -6.52507019      17.48276138      17.40710831
C      -14.05595207      13.03146648      24.47651672
C      -12.99076080      15.76349163      26.88839531
C       -9.07365131      18.35606766      26.79855537
C      -10.07929611      15.58526039      24.47225571
C      -13.31293583      13.89233208      23.71599960
C      -13.75713921      16.61206818      27.63681793
C       -9.81454372      17.50082970      27.56692886
C       -9.31683254      14.73089695      23.71976471
C      -12.94845867      13.55986309      22.39029503
C        4.67696047      16.27504921       0.43824789
C        8.61674976      17.85762405       0.35799915
C       -8.96737671      15.06633663      22.38819885
C        1.88331473      14.44063950       0.13329290
C      -10.13489532      17.18396187      22.67555428
C       -6.27146435      17.01334763      22.64219093
C        5.90047932      14.17642117       0.17669463
C       -6.61852169      17.37725258      23.91497231
C      -12.55723381      14.52972317      27.42533875
C      -16.56398392      14.07679367      27.39196587
C      -10.49012375      16.83075523      23.94784737
H      -14.34889412      13.31288815      25.48848534
H      -12.70130634      16.04531860      25.87709427
H       -8.79066753      18.06538200      25.78405952
H      -10.35161972      15.30692005      25.48262215
H      -13.00993443      14.85445499      24.11071968
H      -14.09701729      17.55623436      27.24762726
H      -10.12085819      16.52828598      27.19107628
H       -8.98904991      13.79078865      24.11371231
H        2.19580960      15.39948273       0.52441633
H      -10.43774509      18.14071083      22.27142334
H       -6.57870674      16.06576920      22.22833061
H        6.23089266      13.22998428       0.59983289
H       -7.24133778      16.69922829      24.52034569
H      -11.95040703      13.86638355      26.83929062
H      -15.96236324      14.74613571      26.78365135
H      -11.08947468      17.51212502      24.54878426
C       -0.05147960      18.55069160       2.94935441
C        0.89594293      21.26240158       5.32127476
C        4.51830435      23.41589737       5.31993103
C        3.89810181      21.11692238       2.85287547
C        0.73483574      19.38489723       2.20046330
C        0.10839812      22.07986450       6.07551765
C        3.98629904      22.55529213       6.23746967
C        4.69587612      20.28323555       2.11586928
C        1.11129415      19.04017067       0.88193363
C       -0.19672944      21.75994873       7.41884804
C        3.52498984      23.03811264       7.49056768
C        5.09859371      20.64679146       0.80504501
C       -2.79459596      19.69999695       7.33513641
C        3.90354919      22.75848389       1.08899570
C        7.80022812      22.59938622       1.04526269
C        1.10676801      19.71427536       7.15927076
C        7.39669561      22.87626457       2.31872296
C        1.40380526      20.05698395       5.87137890
C       -2.44707942      19.36045456       6.06054163
C        3.49129915      22.36340713       2.32931733
H       -0.33008856      18.83716011       3.96569514
H        1.13001502      21.53321648       4.30352736
H        4.91598701      23.04442215       4.37076282
H        3.59246039      20.82626724       3.85421252
H        1.07379973      20.33585548       2.59867406
H       -0.29313332      22.99613571       5.66359091
H        3.93231344      21.49634361       6.03932714
H        5.03113651      19.33123016       2.50528407
H       -2.45227933      20.63073158       7.76322889
H        3.60871100      23.72013855       0.68577874
H        7.53330994      21.65869713       0.58297437
H        1.50207937      18.79918861       7.58082104
H        6.80617809      22.15664101       2.87976098
H        2.03287578      19.40268135       5.26336575
H       -1.83414376      20.02522087       5.47113514
H        2.85672331      23.00807190       2.92598009
C       -4.72940445      18.32958984      10.19628620
C       -3.73819399      21.15892601      12.56182957
C       -0.09885336      23.55527496      12.42297554
C       -0.80414361      21.04972839      10.05726528
C       -3.93411374      19.15744209       9.46625710
C       -4.49919939      22.03361511      13.29182625
C       -0.75504094      22.74738121      13.30936146
C       -0.00271406      20.23171997       9.31165218
C       -3.59308553      18.84074211       8.12749100
C       -4.84498739      21.74098206      14.63552189
C       -1.10582745      23.22435761      14.59956741
C        0.30827650      20.55843163       7.96559715
C       -7.53290558      19.89519882      14.45431995
C       -1.01439655      22.59376526       8.21749210
C        3.01675177      22.16132736       8.47580624
C       -3.62379384      19.64107132      14.42882347
C        2.60296774      22.62901497       9.69247532
C       -3.28993964      19.94673538      13.14167118
C       -7.19547510      19.53284836      13.17945480
C       -1.32682419      22.24040031       9.50203323
H       -5.01290321      18.60697365      11.20946598
H       -3.47274256      21.40272713      11.55154705
H        0.17932798      23.17579460      11.43696213
H       -1.04497325      20.77754021      11.08181381
H       -3.55349326      20.08400345       9.89069080
H       -4.84106016      22.95619392      12.85825157
H       -1.01378846      21.72437286      13.06059551
H        0.40474343      19.32964897       9.71945667
H       -7.20201254      20.84951782      14.86857319
H       -1.40938401      23.50659180       7.78303719
H        2.96147013      21.10715866       8.23590851
H       -3.27385187      18.72404671      14.88048553
H        2.18146849      21.93619347      10.41390133
H       -2.69219661      19.26163483      12.55533886
H       -6.57725573      20.18528557      12.58093834
H       -1.96992195      22.88869858      10.09140778
C       -9.42137241      18.56128502      17.36125755
C       -8.46201897      21.42206001      19.63304710
C       -4.63981056      23.80572510      19.62647438
C       -5.51266718      21.09743690      17.28366852
C       -8.65289974      19.39357758      16.60077858
C       -9.20133972      22.28754234      20.39298248
C       -5.34499502      23.02398109      20.50427437
C       -4.74047852      20.23903847      16.55427361
C       -8.32017040      19.04407120      15.26821041
C       -9.47909260      21.99134636      21.75155830
C       -5.56935787      23.45863914      21.83311462
C       -4.40550852      20.52822495      15.20696545
C      -12.11599255      19.93509293      21.60691261
C       -5.63730717      22.62502670      15.41410065
C       -1.76172805      22.39606094      15.54544640
C       -8.26313210      19.89423752      21.48670006
C       -2.10834575      22.88304901      16.77125549
C       -7.98491335      20.21188354      20.18338013
C      -11.75369644      19.58895302      20.34043121
C       -5.97468281      22.30465889      16.69844627
H       -9.67854404      18.84844208      18.36548424
H       -8.24659157      21.66361618      18.61636353
H       -4.46710110      23.45091820      18.62726593
H       -5.77845860      20.85562897      18.31100655
H       -8.29501438      20.34719467      16.98610306
H       -9.57527351      23.21403694      19.97774124
H       -5.73287725      22.07182503      20.19779205
H       -4.38831854      19.31426430      16.97266960
H      -11.80470562      20.87779045      22.03182983
H       -5.97725391      23.54374313      14.96415138
H       -1.98134136      21.38313675      15.26224613
H       -7.90938663      18.96781921      21.92831039
H       -2.63422155      22.25040627      17.48573494
H       -7.41526556      19.51228905      19.58348846
H      -11.12828159      20.25983620      19.75488663
H       -6.60452986      22.97893524      17.27270699
C      -14.03760433      18.53283119      24.46697426
C      -12.89642334      21.43834305      26.76808357
C       -9.07817650      24.17003441      26.80539703
C      -10.04399204      21.34274292      24.41288757
C      -13.25889111      19.38457870      23.73294640
C      -13.66771984      22.27951813      27.52188492
C       -9.82723331      23.26537323      27.50578308
C       -9.30462551      20.47908592      23.65706062
C      -12.90698051      19.06956863      22.39758492
C        4.70776176      21.91190529       0.28667784
C        8.55673885      23.53467941       0.30149403
C       -9.01493931      20.78006363      22.30147934
C        1.92255270      19.89047813       0.08454754
C      -10.23279476      22.87923622      22.56642723
C       -6.28883934      22.66997337      22.75985718
C        5.88162708      19.79199219       0.00042513
C       -6.52051306      23.12336731      24.02707863
C      -12.51567745      20.16969490      27.27850342
C      -16.50876999      19.51788330      27.35180092
C      -10.51417351      22.55902100      23.86147690
H      -14.30458546      18.79247856      25.49026871
H      -12.57010746      21.74762535      25.79464912
H       -8.75187111      23.93705368      25.79328537
H      -10.27246475      21.09345245      25.44194222
H      -12.90373993      20.32111549      24.15390396
H      -13.96106243      23.25168610      27.13656616
H      -10.09998989      22.31814194      27.06214905
H       -8.94415855      19.55426788      24.06583977
H        2.26589036      20.82695770       0.50694603
H      -10.58866310      23.80623245      22.14418602
H       -6.65980625      21.70416641      22.44563675
H        6.17647028      18.83286858       0.39917806
H       -7.09742451      22.51610565      24.73053551
H      -11.90726566      19.50790405      26.67476463
H      -15.86684704      20.16978645      26.76742935
H      -11.10751534      23.25003433      24.47581291
C        7.75762796      24.10390282       2.91536808
C        7.47325325      26.75286674       5.15007067
C       12.78342056       1.60371101       5.19015074
C       11.74929905      27.18719292       2.85379982
C        8.50658703      25.02413177       2.23364925
C        6.57766247      27.34993553       5.99047041
C       12.19209766       0.67092341       5.99614811
C       12.59056664      26.39783859       2.12129474
C        8.90975380      24.76692581       0.89873523
C        6.55240583      27.02589035       7.36525154
C       11.96272469       0.94937330       7.36949062
C       12.88510227      26.70734024       0.76729822
C        4.04272366      25.29463005       6.75511169
C       11.41070271      28.64586258       0.96148098
C       15.79328156       0.26250201       1.46591377
C        8.31883430      25.40176773       6.95988464
C       15.26766491       0.80316585       2.60438943
C        8.37430000      25.79139709       5.64992094
C        4.52649879      24.80422592       5.57856369
C       11.15217018      28.33009720       2.26761389
H        7.42320490      24.31789589       3.93454957
H        7.48028946      27.04342079       4.10463905
H       12.94320107       1.38737130       4.15526772
H       11.51439953      26.93640709       3.87647223
H        8.80882454      25.95780754       2.69408488
H        5.89524841      28.09677124       5.62974977
H       11.86786556      58.64857864       5.60243368
H       13.05660152      25.51920891       2.55619025
H        4.01539183      26.34614182       6.94480610
H       10.94137192      29.51162529       0.50121975
H       15.54317570      58.17941666       1.17966938
H        8.95377731      24.60844040       7.32047892
H       14.61010265       0.21497820       3.21586800
H        9.10003757      25.32497406       4.98394203
H        4.92419147      25.49110413       4.81205320
H       10.47606945      28.93842697       2.85488772
C        2.70287514      24.00606537       9.98372078
C        3.58382416      26.33943558      12.64354134
C        8.28120708       2.73340368      12.23625755
C        6.43411589      26.24064064      10.05845928
C        3.16885042      24.88053322       9.03892708
C        2.76759195      27.11526871      13.40617657
C        7.31357908       1.93884361      12.76912022
C        7.31423235      25.62557030       9.21619511
C        3.58966160      24.41364479       7.76758051
C        2.56199527      26.82294655      14.78289318
C        6.94538593       2.06719613      14.13704968
C        7.40598726      26.01020622       7.85051680
C       -0.15723340      25.38002014      13.99195099
C        5.66787100      27.65989876       8.26376057
C       11.39968681      58.91959000       8.23822975
C        4.06731176      24.91760635      14.52479076
C       11.12547874       0.31112528       9.53245068
C        4.24912453      25.22812080      13.20798874
C        0.19962786      24.88732719      12.76669312
C        5.61326456      27.28057098       9.56967926
H        2.39000726      24.38813400      10.96249294
H        3.71884012      26.55759621      11.59931469
H        8.61216164       2.59481239      11.21085358
H        6.36354065      25.94245148      11.09695625
H        3.22103095      25.93864822       9.25075054
H        2.25189900      27.97579575      12.96998978
H        6.83659172       1.14564645      12.17424297
H        7.94325256      24.82600975       9.56723022
H        0.05871490      26.38809586      14.26250076
H        5.02815056      28.44043159       7.87165833
H       11.17375183      57.92356873       7.84252501
H        4.55157804      24.06272888      14.95519543
H       10.65340137      58.51449966      10.18476772
H        4.90224457      24.61789703      12.58412838
H        0.72913605      25.52481842      12.05926418
H        4.93052053      27.76257706      10.25684834
C       -1.80424345      24.21903419      17.12021255
C       -0.79512024      26.55497742      19.78654671
C        2.66351867       1.36610794      19.97773170
C        2.06200576      26.06327248      17.42600632
C       -1.17337894      25.03697014      16.22990417
C       -1.50923634      27.44940376      20.53123283
C        2.30558372       0.39576626      20.87383461
C        2.93976307      25.34159851      16.67464447
C       -0.80037087      24.54944801      14.94468594
C       -1.56972122      27.33074951      21.94067001
C        2.29790378       0.67077398      22.26354218
C        3.20982099      25.69613075      15.33376980
C       -4.35126066      25.50304031      21.31000710
C        1.69557214      27.58662415      15.59860516
C        6.06285334       1.16763580      14.77534580
C       -0.20991044      25.31676865      21.76029968
C        5.71969175       1.34517884      16.08129120
C       -0.13337821      25.47261429      20.40952110
C       -4.14337587      25.06287766      20.03707886
C        1.44048047      27.20845222      16.88198471
H       -2.09660530      24.59333801      18.09144211
H       -0.74245214      26.67605019      18.71773148
H        2.68526173       1.14715993      18.90708351
H        1.83442533      25.76363945      18.44310761
H       -0.94483835      26.07137489      16.46416092
H       -2.02301598      28.27026558      20.05507278
H        2.04175520      58.32683563      20.54067993
H        3.42959976      24.46440315      17.07687950
H       -3.95997453      26.44619942      21.64174461
H        1.21134460      28.45795441      15.18106651
H        5.66099739       0.33963200      14.21148968
H        0.24108113      24.44949341      22.25152588
H        5.01804876       0.67704916      16.55923080
H        0.41287202      24.76514626      19.81258965
H       -3.59000492      25.67251396      19.33292961
H        0.76904005      27.79601288      17.49572372
C       -6.01555729      24.37435532      24.44399071
C       -5.40140438      27.35883522      26.62301254
C       -0.66350466       1.23445797      27.27019691
C       -1.67542589      26.99611664      24.72729492
C       -5.29415274      25.14650345      23.57207108
C       -6.25686693      28.13464546      27.35141182
C       -1.48724914       0.47398832      28.04499054
C       -0.98507845      26.09948540      23.96475983
C       -5.07086992      24.71463776      22.24027061
C       12.27620220      27.84029007       0.18322870
C       16.71490479       1.00021839       0.68595105
C       -0.91273224      26.25012779      22.56101990
C        9.67173576      25.69748116       0.14586519
C       -2.29293561      28.24001503      22.75453377
C        2.05318832      58.59864044      23.22973061
C       -5.04803133      25.90105438      28.50831032
C        2.06592035      58.90383911      24.56006050
C       -4.78175974      26.23372650      27.21157265
C       -8.72432804      25.40638733      27.40365028
C       -2.33456421      28.08154678      24.11180687
H       -6.18389034      24.72302437      25.44637680
H       -5.19243193      27.62521935      25.58658600
H       -0.23895058       0.80788589      26.35783386
H       -1.73993611      26.88055038      25.80671120
H       -4.88055754      26.09287453      23.88314819
H       -6.73487329      28.99356270      26.90014648
H       -1.70314610      58.38375854      27.78531837
H       -0.48238358      25.25804138      24.41679573
H        9.91448212      26.64660645       0.61037564
H       -2.82153630      29.04435158      22.27094269
H        1.86363614      57.59164429      22.90195465
H       14.20899773      25.01968384       0.43612045
H        1.87997794      58.14078522      25.29720497
H       -4.09860373      25.61792755      26.63188171
H       -8.12144279      26.11757851      26.85842133
H       -2.86836767      28.76728058      24.73400879
C        7.57786703       2.40916395       2.48337340
C        9.04061031       4.34237909       5.26133299
C       12.91176510       7.14289856       5.30063772
C       11.86134243       4.06200695       2.78238845
C        8.56938553       3.04322910       1.79361665
C        8.22850227       5.17134237       5.97678328
C       12.09948921       6.28264666       5.98515606
C       12.61447430       3.28818798       1.95241606
C        8.87776661       2.66814685       0.46186781
C        7.70590830       4.76776838       7.22792864
C       11.70563030       6.56248808       7.31385183
C       13.08842659       3.78973961       0.71885312
C        4.69944906       2.89613199       6.80625200
C       11.97125816       5.90350294       1.23927403
C       15.86573124       5.83436203       1.24268341
C        8.85099220       2.62785602       6.95146942
C       15.47096252       6.16406107       2.50422382
C        9.37046528       3.05873871       5.76347017
C        5.00190735       2.33344102       5.59659147
C       11.53813362       5.39408731       2.42834973
H        7.36242580       2.70354247       3.50770426
H        9.44591236       4.66878939       4.32072020
H       13.19505978       6.90545225       4.28731966
H       11.50135231       3.66177654       3.72044754
H        9.12940598       3.85236239       2.23720074
H        7.98612833       6.17135668       5.62955809
H       11.75340748       5.37048292       5.51387215
H       12.88105679       2.27290893       2.23181605
H        5.19167852       3.81976008       7.12993145
H       11.72771645       6.91126680       0.94923854
H       15.56019306       4.87854195       0.79910976
H        9.10568047       1.65127468       7.35520697
H       14.86106110       5.47458220       3.08988976
H       10.04501629       2.42283058       5.21719408
H        5.72277927       2.80168867       4.95316505
H       10.91714191       6.00422859       3.07780433
C        2.59560251       2.17547321       9.79123783
C        3.87732220       4.67835522      12.34456539
C        7.95454741       7.25683880      12.37605572
C        6.65026474       3.89639330       9.67085266
C        3.48143148       2.79682446       8.96102905
C        3.27037549       5.50264931      13.25175285
C        7.12480497       6.45951128      13.11589718
C        7.42192221       3.04341960       8.93825340
C        3.76554966       2.27046919       7.67624426
C        2.88154078       5.02046871      14.52609348
C        6.83647871       6.78204823      14.46742630
C        7.99257135       3.46534395       7.70951605
C        0.05807212       3.05076385      14.24496841
C        6.90401173       5.63049030       8.01918697
C       10.87257290       5.68354464       8.04803562
C        3.67438364       2.82018042      13.86335945
C       10.45782757       6.00683498       9.31022644
C        4.08247614       3.30809760      12.65824985
C        0.32051921       2.69092631      12.95108223
C        6.39864826       5.21120930       9.21302891
H        2.39547491       2.59319425      10.76096916
H        4.18143177       5.06005001      11.38623714
H        8.18331623       6.97518969      11.36227226
H        6.23182631       3.57032776      10.61063957
H        3.97165632       3.70038438       9.26689148
H        3.08483815       6.55271244      13.01086140
H        6.69693851       5.56249619      12.68772507
H        7.61158657       2.03648829       9.28416157
H        0.52444816       3.92697430      14.68051720
H        6.70280600       6.63110113       7.66064882
H       10.54848862       4.75862169       7.58208466
H        3.77379990       1.76691902      14.09888458
H        9.81234837       5.33655834       9.84820366
H        4.55535078       2.65439129      11.94170380
H        0.99607229       3.28980422      12.36762428
H        5.77151203       5.88347721       9.82176304
C       -1.98449278       1.89553881      17.13459778
C       -0.61654985       4.34700727      19.69253731
C        3.41152620       7.16006899      19.71558952
C        2.12281561       4.01101542      17.02673531
C       -1.08386099       2.61563563      16.40169525
C       -1.09950185       5.26168823      20.58456039
C        2.70195413       6.36793900      20.57196808
C        2.72491598       3.17859602      16.12331963
C       -0.82645047       2.28449130      15.04470539
C       -1.32452965       4.90406752      21.93518066
C        2.47838593       6.78637409      21.91373444
C        3.11021662       3.66474700      14.84824276
C       -4.25082588       3.49674940      21.86497688
C        2.25750899       5.85851622      15.48016167
C        6.00311375       5.95555449      15.26473236
C       -0.53973931       2.65881920      21.40744972
C        5.71297503       6.29721498      16.55631447
C       -0.34996066       3.02426124      20.10452461
C       -4.04793501       3.41862988      20.51420212
C        1.87024772       5.36316967      16.69459534
H       -2.16877961       2.15517449      18.17536545
H       -0.46473974       4.62513542      18.65049362
H        3.58309484       6.82496452      18.69549942
H        1.81347239       3.63232160      17.98510742
H       -0.55437320       3.46006513      16.83797264
H       -1.33151901       6.28372288      20.27496338
H        2.28409290       5.41241074      20.26102829
H        2.89296675       2.13497281      16.36566734
H       -3.76528621       4.22994518      22.46213913
H        2.05999899       6.89885807      15.21548271
H        5.60297346       5.05454206      14.82159042
H       -0.31306508       1.63214052      21.73167992
H        5.07875681       5.65957117      17.15338326
H        0.02169058       2.29419661      19.38606834
H       -3.36097407       4.09767818      20.02604675
H        1.35552597       6.01680231      17.40533447
C       -6.32375669       1.90920436      24.48968697
C       -4.85896969       4.84323502      26.79012108
C       -0.98637980       7.28552675      26.96052933
C       -1.73961675       4.14765882      24.60161018
C       -5.40806150       2.72127366      23.89090157
C       -5.62696648       5.60668755      27.62343979
C       -1.74054241       6.39982939      27.67666626
C       -1.21220827       3.24253702      23.72192192
C       -5.15342140       2.62012124      22.50934792
C       12.74374676       5.11010504       0.35083157
C       16.64910507       6.71540785       0.47530136
C       -1.01425827       3.59051847      22.35847282
C       -8.92697525       3.33785009      28.24376488
C       -1.89229500       5.81408978      22.86274528
C        1.73239708       6.00434399      22.83457756
C       -4.90769243       3.01546025      28.36751175
C        1.49361968       6.45298815      24.09667778
C       -4.48382807       3.52895451      27.17711449
C       -8.62726593       2.94649220      26.96515656
C       -2.10781384       5.44228840      24.15760422
H       -6.52460814       1.99398923      25.52962303
H       -4.53823376       5.23171520      25.84123611
H       -0.67689312       7.03206348      25.95922089
H       -1.88406849       3.85952663      25.63310814
H       -4.88876390       3.47638226      24.45537949
H       -5.90814066       6.61503935      27.34439087
H       -2.03696680       5.45310545      27.26457024
H       -0.93254858       2.24850750      24.04950905
H       10.37749958       4.19136810       0.16741480
H       -2.18540978       6.78149176      22.51004791
H        1.32573318       5.04377270      22.51255226
H       14.18445683       1.99884439       0.14252551
H        0.89204162       5.83979893      24.77427101
H       -3.86210990       2.92657113      26.52516747
H       -7.87876892       3.48512316      26.39988136
H       -2.56789708       6.13977337      24.84957123
C        7.90556288       7.40619659       2.99559736
C        8.90175247      10.16138935       5.30275822
C       12.99446774      12.69917297       5.46225929
C       12.03521824      10.01048660       3.07984900
C        8.75270653       8.19577789       2.27439737
C        8.13653851      10.98922539       6.07305527
C       12.21990585      11.84959507       6.19690800
C       12.81052208       9.18751621       2.32238650
C        9.08914185       7.86176968       0.93476117
C        7.78370857      10.62220287       7.40374136
C       11.87375259      12.15607929       7.53365898
C       13.13797665       9.52427483       0.98606664
C        5.01457167       8.63482761       7.12437868
C       11.87781239      11.59275436       1.26616597
C       15.84885693      11.43683720       1.35942543
C        8.96342754       8.52325916       7.06546164
C       15.49107170      11.82608318       2.62010574
C        9.32728195       8.90882683       5.81055975
C        5.35174036       8.33860111       5.83178759
C       11.55805779      11.23190498       2.54701924
H        7.65625334       7.67653275       4.00737333
H        9.17864323      10.46302986       4.30459690
H       13.24611187      12.43319702       4.43519259
H       11.78778648       9.73355198       4.10159302
H        9.19928551       9.08841610       2.71071053
H        7.77908850      11.94620132       5.70163822
H       11.85555649      10.92196274       5.78807497
H       13.18583202       8.24407482       2.72691989
H        5.37937260       9.53298759       7.60074377
H       11.51194000      12.52467442       0.85254318
H       15.54525375      10.47873783       0.96990699
H        9.26740456       7.55372667       7.45845938
H       14.88292789      11.15810108       3.23343182
H        9.93225193       8.24888039       5.18270445
H        5.99436617       9.01140022       5.27116442
H       10.94745827      11.89164448       3.15761590
C        2.98312068       7.23045492       9.90359974
C        4.13590717      10.33693409      12.56580925
C        8.25671768      12.72912788      12.56626129
C        7.12075901       9.85689545      10.01322365
C        3.81860328       8.06506157       9.21447277
C        3.41258001      11.19167137      13.35277462
C        7.46013546      11.90832138      13.31041336
C        7.85322666       9.00915909       9.22097969
C        4.18489170       7.77131557       7.87344170
C        3.07371140      10.84417725      14.68317509
C        7.11300707      12.25199795      14.64428043
C        8.20365238       9.37591934       7.89932394
C        0.41051403       8.81231117      14.43827057
C        7.03691053      11.48330116       8.23622894
C       11.07334042      11.28923225       8.31929684
C        4.18034267       8.70880795      14.34433079
C       10.74478054      11.61719322       9.60639095
C        4.51750851       9.07145214      13.06953526
C        0.71188962       8.44880867      13.15752125
C        6.71104193      11.11558819       9.50946999
H        2.70067811       7.47452974      10.92882442
H        4.39987850      10.61522579      11.55368137
H        8.52822495      12.44635773      11.56433487
H        6.86800814       9.56766796      11.01265430
H        4.20392036       8.96498013       9.65916443
H        3.10379434      12.16750717      12.97231865
H        7.10188293      10.97922993      12.89788246
H        8.16732407       8.04626942       9.58342743
H        0.75346726       9.76140213      14.84207439
H        6.73042250      12.43911076       7.83370829
H       10.71447945      10.36414719       7.87820768
H        4.46529531       7.73516035      14.74272156
H       10.11399174      10.94432926      10.19627476
H        5.08646107       8.38864136      12.45260334
H        1.31494403       9.11347008      12.52779865
H        6.12494993      11.79527760      10.13767242
C       -1.40744865       7.48965502      17.40248680
C       -0.43848309      10.20623779      19.75387955
C        3.42481780      12.87271023      19.70182419
C        2.40799499      10.10936832      17.30426216
C       -0.64475960       8.31219864      16.61800194
C       -1.19930100      11.03148746      20.52589417
C        2.70075083      12.02422142      20.48272133
C        3.12631178       9.24185467      16.51935768
C       -0.34301421       7.95534182      15.27595615
C       -1.51393557      10.69245148      21.86495209
C        2.37319183      12.37480068      21.82015991
C        3.46494722       9.59218788      15.18676281
C       -4.26071978       8.63391113      21.62505913
C        2.34175229      11.72253037      15.51521873
C        6.31114912      11.40692329      15.44690323
C       -0.27588415       8.61880779      21.56072998
C        5.96432161      11.77437210      16.71751022
C        0.03372938       8.97785950      20.27712440
C       -4.00935316       8.40977192      20.30272865
C        2.00722575      11.36430454      16.78842545
H       -1.64006305       7.78267002      18.42004967
H       -0.19971542      10.48630810      18.73867607
H        3.66893768      12.59200001      18.68014717
H        2.15626860       9.82931423      18.32107353
H       -0.27179560       9.24775314      16.98534775
H       -1.56419158      11.97274780      20.12793732
H        2.36973739      11.05792046      20.10923576
H        3.42604613       8.28089809      16.89331436
H       -3.86092710       9.50382137      22.12533760
H        2.04528785      12.68817520      15.11737823
H        5.96268368      10.47116470      15.02896881
H        0.07697262       7.68426752      21.96559525
H        5.33828926      11.13316441      17.32065582
H        0.62727737       8.31950760      19.65316772
H       -3.39707470       9.10398293      19.74229431
H        1.44016004      12.05460644      17.40861511
C       -6.15558720       7.09526730      24.42804337
C       -5.03184652      10.25033855      26.88333511
C       -1.07493329      12.75600719      26.95783806
C       -2.08297300       9.97901344      24.51093102
C       -5.34301615       7.95269251      23.74543953
C       -5.81024694      11.07665920      27.64034462
C       -1.82664621      11.91883850      27.73340416
C       -1.33500695       9.13838863      23.73614120
C       -5.06006145       7.74118042      22.37000465
C       12.66746330      10.74217033       0.45340982
C       16.61603355      12.28827095       0.52623677
C       -1.03745508       9.47150230      22.38799667
C        9.95634365       8.67264938       0.16124710
C       -2.27537036      11.55102825      22.69302559
C        1.66687429      11.49055958      22.66561508
C       13.93159008       8.67806721       0.17935403
C        1.36494970      11.84143639      23.95389938
C       -4.55011177       9.03184414      27.42758560
C       -8.50809765       8.31700611      27.41352272
C       -2.56577110      11.20085430      23.98299599
H       -6.37373257       7.26837873      25.47528839
H       -4.78870583      10.50883770      25.85042763
H       -0.80360627      12.45355511      25.94856071
H       -2.31469941       9.69968319      25.53550339
H       -4.90057564       8.80421638      24.23892021
H       -6.18647671      12.00285816      27.23387146
H       -2.17126465      10.96212769      27.35550690
H       -0.95486897       8.21801567      24.13004684
H       10.34986591       9.58814716       0.59065348
H       -2.62629986      12.47809601      22.28056717
H        1.36260366      10.52516460      22.26741028
H       14.28355503       7.74882460       0.59686011
H        0.83051425      11.15733624      24.59818459
H       -3.92684793       8.37229156      26.82547379
H       -7.82067013       8.93125057      26.84430313
H       -3.16175747      11.86312199      24.61225319
C        8.00014210      13.02879333       3.06916952
C        8.98954391      15.64752960       5.48086739
C       12.96006584      18.04050064       5.47950602
C       11.90767574      15.55984974       3.03724766
C        8.75362301      13.87133312       2.29466581
C        8.26099014      16.48727417       6.27878141
C       12.17471600      17.21035576       6.23961639
C       12.70052147      14.72953224       2.30568528
C        9.09942055      13.51440144       0.97115850
C        7.92498493      16.10685730       7.60667086
C       11.84781837      17.54854012       7.57516527
C       13.04089451      15.05598164       0.96849871
C        5.14874172      14.26042938       7.27765083
C       11.76431847      17.12046051       1.20629859
C       15.77295685      16.99646568       1.12923145
C        9.07566547      13.98698616       7.22347021
C       15.43072033      17.34585381       2.40263772
C        9.40834332      14.39052773       5.96054792
C        5.48922110      13.91864586       6.00340033
C       11.43119240      16.77624321       2.48945713
H        7.73946571      13.33473587       4.07185268
H        9.24333191      15.95145607       4.48380280
H       13.20479488      17.77409363       4.45663118
H       11.64752293      15.28966045       4.05885744
H        9.06795120      14.82682800       2.68446565
H        7.93778610      17.45613861       5.92684221
H       11.80178928      16.27774048       5.84479856
H       13.07598209      13.79930782       2.72845650
H        5.49762583      15.18714428       7.71464729
H       11.40063858      18.05385590       0.77635318
H       15.47066021      16.05207443       0.72660232
H        9.38391304      13.02714825       7.59182453
H       14.82358742      16.65867996       3.02192736
H        9.99257469      13.71380329       5.32664537
H        6.09995890      14.58623505       5.41702509
H       10.78913784      17.43193245       3.07386804
C        3.21129727      12.89274597      10.13913536
C        4.17339945      15.70480442      12.60662746
C        8.24822903      18.09384537      12.59572887
C        7.27388668      15.29079342      10.20396137
C        4.00030041      13.72060585       9.41026402
C        3.41218352      16.54043388      13.37279510
C        7.44847441      17.27354813      13.34039402
C        7.99856520      14.45917606       9.40268230
C        4.35023165      13.39867020       8.07325363
C        3.11029720      16.21957970      14.71851063
C        7.11307240      17.60796356      14.67733765
C        8.33488274      14.84224033       8.08086109
C        0.37183803      14.40726852      14.40973091
C        7.19740582      16.95697212       8.46605873
C       11.04881954      16.70215797       8.38039303
C        4.33818388      14.12765694      14.42226219
C       10.71061039      17.06583786       9.65198803
C        4.64286423      14.48000526      13.13953686
C        0.69648826      14.04135513      13.13095570
C        6.86423016      16.55912590       9.73309517
H        2.91972685      13.16236496      11.14121056
H        4.40697527      15.97129154      11.57534218
H        8.49814510      17.81728745      11.58731747
H        7.01381969      14.96999359      11.20016384
H        4.36101055      14.65121937       9.83070946
H        3.03656840      17.47763824      12.96867561
H        7.06818199      16.35286331      12.92565632
H        8.32511711      13.49001503       9.74372864
H        0.67270207      15.36873150      14.79024029
H        6.88917208      17.93230820       8.09682846
H       10.70504951      15.76253223       7.95050001
H        4.68605804      13.18753719      14.83120441
H       10.07007790      16.41798592      10.24454689
H        5.23353291      13.80673122      12.53253746
H        1.26378357      14.72309017      12.50997639
H        6.29046774      17.22497940      10.38542938
C       -1.41114199      13.03487206      17.36706162
C       -0.47185850      15.81814575      19.75384712
C        3.50319409      18.34941483      19.76633263
C        2.50405312      15.49998856      17.35296059
C       -0.68354279      13.88277721      16.58671761
C       -1.21492302      16.67569923      20.51750946
C        2.70133781      17.53647232      20.51321602
C        3.25719929      14.66308880      16.59192848
C       -0.35805342      13.53527641      15.24975777
C       -1.57136381      16.33608055      21.84579468
C        2.38005614      17.86713982      21.85455513
C        3.57106972      14.99450397      15.24944496
C       -4.35263062      14.36433315      21.60950279
C        2.35658026      17.07889938      15.54198647
C        6.31029177      16.75837708      15.47799492
C       -0.41405517      14.21289825      21.54640198
C        5.98948383      17.10369110      16.75756264
C       -0.06209422      14.56703091      20.27786446
C       -4.01978588      14.02039623      20.32995224
C        2.04976916      16.73088837      16.83287239
H       -1.66807663      13.31369305      18.38296890
H       -0.18960163      16.10738945      18.74024963
H        3.75744057      18.06724548      18.75143051
H        2.24404669      15.22349739      18.37040520
H       -0.36029881      14.83461761      16.95035553
H       -1.53045428      17.63385773      20.13070488
H        2.29443431      16.61300468      20.10943985
H        3.62848377      13.72381592      16.98471260
H       -4.06457806      15.31740856      22.00198936
H        2.00020123      18.01673317      15.13789082
H        5.97027254      15.82476139      15.04926395
H       -0.11349124      13.25574112      21.94522667
H        5.36736012      16.43021393      17.36675644
H        0.53089798      13.90605640      19.65651131
H       -3.45460844      14.70724583      19.71477318
H        1.45404804      17.39332199      17.43215370
C       -6.17788601      12.94029236      24.52708817
C       -5.12297773      15.74245834      26.86034393
C       -1.15729690      18.38218689      26.76001930
C       -2.25806260      15.61529636      24.45771217
C       -5.45110464      13.80842400      23.76075554
C       -5.90392780      16.58192825      27.60286713
C       -1.90652406      17.52940178      27.51855278
C       -1.51704109      14.75432301      23.69659424
C       -5.08372164      13.47156334      22.43190002
C       12.56708241      16.26599693       0.41540220
C       16.53371429      17.87329674       0.31925380
C       -1.16778147      15.08676243      22.36518288
C        9.84622097      14.38014603       0.13833249
C       -2.32267165      17.21385384      22.65920639
C        1.57571745      17.02243805      22.65822220
C       13.83724785      14.19477367       0.17176257
C        1.27312469      17.36368561      23.94698715
C       -4.64834785      14.52866268      27.41104507
C       -8.61443424      14.01331329      27.39129448
C       -2.67113829      16.86328697      23.93287086
H       -6.46906471      13.23473740      25.52829552
H       -4.87162447      16.00741577      25.84049416
H       -0.87730974      18.09985352      25.76650620
H       -2.52837443      15.33980370      25.46556473
H       -5.15724993      14.78018093      24.12815094
H       -6.27345467      17.51672935      27.17686653
H       -2.23454452      16.58559418      27.12454987
H       -1.18559873      13.80541992      24.09842682
H       10.14094448      15.35268784       0.53203654
H       -2.61719584      18.17582130      22.23578644
H        1.21061778      16.10615158      22.23739433
H       14.18399811      13.27851868       0.60003501
H        0.63934296      16.71549988      24.54945946
H       -4.02910662      13.85917759      26.82314110
H       -8.03590679      14.68226433      26.76923943
H       -3.24147367      17.52421188      24.53995132
C        7.89339638      18.62716675       2.95725250
C        8.80213356      21.27327919       5.27199173
C       12.48509026      23.36139297       5.31459522
C       11.69328976      21.21696663       2.84514713
C        8.62392330      19.47903061       2.17942548
C        7.95578909      22.05432510       6.00665045
C       11.97965908      22.52206039       6.26038313
C       12.47239399      20.36959457       2.12266946
C        9.00449371      19.12563896       0.86558568
C        7.66512823      21.73735237       7.35905313
C       11.48272610      23.03430176       7.48323011
C       12.93542671      20.72805786       0.82950896
C        5.14752579      19.60228157       7.33524609
C       11.81037617      22.88051414       1.09909987
C       15.80276489      22.64949799       0.87147665
C        9.08294964      19.75837517       7.12417841
C       15.32414913      22.95861816       2.11463428
C        9.36543751      20.10695267       5.83704567
C        5.48245382      19.26377106       6.05702305
C       11.35193920      22.49239349       2.32581425
H        7.60222816      18.91808891       3.95361304
H        9.02465820      21.54676628       4.24467659
H       12.91493702      22.97776985       4.39384270
H       11.33870220      20.92551041       3.82329321
H        8.91265488      20.45208359       2.53826785
H        7.49862862      22.94460106       5.57199287
H       11.97513103      21.45919991       6.09609365
H       12.73588753      19.38944817       2.51884723
H        5.49016953      20.54075241       7.76685524
H       11.54730129      23.85596466       0.70262110
H       15.59433365      21.69792748       0.41568989
H        9.49720287      18.85761452       7.56759357
H       14.71066666      22.23260117       2.64501405
H       10.01616287      19.47287178       5.24831867
H        6.09814692      19.94221497       5.46571827
H       10.73536587      23.16655540       2.91808534
C        3.16159129      18.26814842      10.17988682
C        4.08240461      20.98357391      12.49213028
C        7.83072758      23.36828041      12.47935200
C        7.08677816      21.02465820       9.99663162
C        3.98514056      19.08317375       9.45394611
C        3.29581141      21.84564400      13.19415569
C        7.19170952      22.54993439      13.36483383
C        7.93373775      20.24362183       9.26761532
C        4.34016228      18.74825096       8.13013077
C        2.97624636      21.59490585      14.54875374
C        6.91968060      22.99496651      14.68713665
C        8.23676014      20.57435417       7.92187595
C        0.26830208      19.77998924      14.39067745
C        6.79875326      22.53527260       8.13856030
C       11.00577354      22.17758369       8.51335430
C        4.29379559      19.54416275      14.41314411
C       10.60296726      22.67753601       9.71249104
C        4.58685112      19.81379890      13.10557175
C        0.59290403      19.43097305      13.10752773
C        6.50115490      22.18428230       9.42539787
H        2.87316465      18.53963852      11.17944431
H        4.30809355      21.19753647      11.46112061
H        8.03743362      23.01164246      11.47205734
H        6.84178209      20.74673080      11.02997684
H        4.35957098      20.00537109       9.86439705
H        2.88046837      22.74036980      12.72480869
H        6.87160969      21.56318092      13.09587574
H        8.38132954      19.35373306       9.69958687
H        0.57887048      20.72574997      14.79531574
H        6.33914375      23.41076660       7.69207907
H       10.97045994      21.13041687       8.31178570
H        4.66368008      18.64136887      14.89282990
H       10.23929214      22.03353691      10.47983360
H        5.20787144      19.13483047      12.54684639
H        1.17257977      20.11132431      12.50046444
H        5.82827997      22.79802132      10.00411701
C       -1.52939498      18.39031029      17.33215523
C       -0.49422786      21.39743233      19.63158035
C        3.36593437      23.66488457      19.69532394
C        2.36020517      21.02415657      17.22388268
C       -0.79949862      19.23940849      16.55827332
C       -1.22488201      22.26625442      20.39023781
C        2.69606543      22.88070679      20.59388733
C        3.16859150      20.17820358      16.52462769
C       -0.47445714      18.90476418      15.22053242
C       -1.51279891      21.97637177      21.74527740
C        2.44704485      23.34660912      21.90642738
C        3.48300123      20.43146324      15.16604424
C       -4.29014254      19.97898674      21.54314804
C        2.14144206      22.45973206      15.30367565
C        6.26498270      22.16257668      15.63189888
C       -0.32187408      19.86647034      21.48767853
C        5.97826767      22.62160110      16.89148521
C       -0.02215561      20.17621994      20.19063568
C       -3.93537760      19.60109329      20.27352333
C        1.83347344      22.17966652      16.60192108
H       -1.78769779      18.65771103      18.36277580
H       -0.27457452      21.63885880      18.60086250
H        3.56205630      23.29028702      18.70287895
H        2.12446141      20.80509377      18.26270866
H       -0.45524138      20.19990540      16.95109749
H       -1.59182703      23.19770241      19.97238159
H        2.35749626      21.89126396      20.32947350
H        3.59625936      19.28180313      16.99609375
H       -3.95542908      20.92646027      21.94880867
H        1.74075472      23.34356689      14.81044006
H        5.98683119      21.14919281      15.33291435
H        0.01461738      18.94808960      21.91411972
H        5.46898508      21.98313332      17.59140396
H        0.56526977      19.48093224      19.57912254
H       -3.32816672      20.25601768      19.66232300
H        1.17615771      22.83801842      17.16832924
C       -6.18363142      18.60997772      24.44752312
C       -4.98808861      21.49585915      26.81126785
C       -0.82649070      24.15126228      26.78127670
C       -2.11505747      21.31709099      24.39681053
C       -5.41814041      19.45845032      23.68611526
C       -5.73374462      22.36300850      27.55024338
C       -1.65178561      23.27148056      27.41460800
C       -1.37922585      20.44449997      23.64446831
C       -5.07061672      19.11701202      22.35652351
C       12.59869003      21.99969482       0.31453970
C       16.60636902      23.57463646       0.15814121
C       -1.07115412      20.75374031      22.29751968
C        9.76384068      19.99478340       0.03919496
C       -2.24976921      22.87452888      22.56584549
C        1.76889718      22.55198288      22.86058617
C       13.71169376      19.84416962       0.03842315
C        1.53617287      23.02361488      24.11976242
C       -4.66473675      20.21880341      27.32159996
C       -8.67528057      19.60994148      27.30263138
C       -2.54869986      22.55023766      23.85726357
H       -6.44375277      18.90503120      25.45147896
H       -4.62753296      21.79452705      25.82881737
H       -0.41127470      23.88361359      25.82285881
H       -2.37082624      21.04761696      25.42672157
H       -5.08482790      20.41890717      24.09553337
H       -5.98103142      23.35503197      27.18058395
H       -1.88760686      22.31038475      26.95439148
H       -1.03741765      19.50036812      24.05566025
H       10.06628704      20.95839310       0.43839401
H       -2.57670736      23.81208229      22.14554977
H        1.43323267      21.57890892      22.57658577
H       13.96854687      18.86343002       0.43005919
H        1.00646377      22.39923859      24.83238983
H       -4.06019640      19.54127312      26.73326683
H       -8.08153343      20.28713799      26.68625832
H       -3.12138462      23.23041153      24.45489120
C       15.61503887      24.20805931       2.69948363
C       15.81552696      26.63820457       4.85203218
C       21.05672264       1.43117809       5.55445385
C       19.98196411      26.99986267       2.68792057
C       16.37673378      25.12284470       2.01736951
C       14.95667839      26.74287796       5.90754747
C       20.06302261       0.78793687       6.24132633
C       20.75842667      26.18409157       1.91840744
C       16.90400887      24.82502174       0.74190211
C       15.29677105      26.19414902       7.16382599
C       19.66854668       1.22999823       7.52143335
C       21.11032295      26.55694199       0.59509790
C       11.90136814      25.27139664       6.65231943
C       19.83016968      28.61754990       0.90172571
C       23.29958534      58.86380386       1.31911182
C       17.42121315      25.46100426       6.21711206
C       23.14803886       0.18673658       2.65149117
C       17.04461288      25.95658684       5.00747156
C       12.42228413      24.75719070       5.50288200
C       19.50554276      28.22759056       2.16985559
H       15.23775005      24.44470024       3.68045282
H       15.55057430      27.08757401       3.90139270
H       21.36832809       1.02996194       4.59082508
H       19.73982620      26.72673988       3.70092154
H       16.59851456      26.09148216       2.43095231
H       14.01161194      27.26800537       5.78658915
H       19.61334991      58.83959961       5.83109426
H       21.11149788      25.24697304       2.30570078
H       11.81647873      26.34140778       6.78985834
H       19.47781372      29.57625771       0.50513017
H       22.85517120      57.98413467       0.87222457
H       18.38776207      24.98295021       6.32878160
H       22.60280609      58.43612289       3.28115344
H       17.71977234      25.85273933       4.17318916
H       12.79981327      25.41400528       4.73898458
H       18.88864136      28.87590790       2.78261018
C       10.66862488      24.06829643       9.95683670
C       11.57646179      26.45639038      12.78174019
C       15.32293129       1.73269892      12.39320469
C       16.12030983      25.33631325       9.69436169
C       11.08625126      24.92368507       8.97681141
C       10.78876305      27.29363441      13.52602673
C       14.48291302       1.17629004      13.31640625
C       16.96665192      25.20956612       8.63369083
C       11.48878956      24.42974281       7.70987988
C       10.53815365      27.02780342      14.89714718
C       14.53473091       1.57707345      14.67634296
C       16.56746864      25.60766029       7.34042025
C        7.95818806      25.11809921      14.12489414
C       14.42526817      26.25860977       8.27492237
C       18.66354942       0.56906068       8.27478886
C       11.95811653      25.04725266      14.69580841
C       18.26909447       1.05949521       9.48469830
C       12.18571663      25.32658386      13.37796688
C        8.22501850      24.66633797      12.86759281
C       14.81022453      25.83337402       9.51094818
H       10.37607193      24.44927788      10.93462086
H       11.75094318      26.67273521      11.73367310
H       15.27296829       1.40547383      11.35764408
H       16.44933891      25.06231117      10.67529297
H       11.10168838      25.99232483       9.14126396
H       10.35849953      28.17956734      13.08398724
H       13.75244331       0.43046224      13.02520466
H       17.97031975      24.83558083       8.76619911
H        8.26973343      26.10506248      14.43134212
H       13.44406986      26.68701172       8.10908794
H       18.19780540      58.63276672       7.85720730
H       12.42318916      24.18337631      15.16441917
H       17.48313522       0.58711910      10.04218197
H       12.83349228      24.69491196      12.78386116
H        8.71559143      25.32442665      12.14619637
H       14.14367771      25.91569519      10.34358978
C        6.35679674      23.93012810      17.26886368
C        7.09317923      26.47430801      19.72878647
C       11.06165314       2.48824024      19.41824341
C       10.06689358      26.42178726      17.59704399
C        7.00771379      24.73913956      16.38791275
C        6.26654482      27.33829498      20.38100624
C        9.90313148       2.05413270      19.98720169
C       10.84592152      25.58655930      16.84273338
C        7.30403519      24.29508209      15.07406425
C        6.13601828      27.29213142      21.79136467
C        9.65970135       2.24307990      21.37236786
C       11.11319447      25.87454796      15.48265934
C        3.48754525      25.46638679      21.29173088
C        9.73577213      27.87952614      15.69985199
C       13.68363094       1.00302958      15.64542770
C        7.62587643      25.36852455      21.79730415
C       13.72207165       1.42277277      16.94121742
C        7.78466702      25.47166634      20.44596100
C        3.75345039      24.97428513      20.04386330
C        9.50951672      27.58457565      17.01353264
H        6.11271620      24.29851723      18.25815392
H        7.20155668      26.54522324      18.65570259
H       11.23349762       2.34228659      18.35915947
H        9.89991665      26.21252060      18.64058495
H        7.31221867      25.74831581      16.69535446
H        5.71897364      28.10185432      19.84311104
H        9.13763809       1.57075357      19.37591171
H       11.29970455      24.70155907      17.27266121
H        3.76541638      26.47737694      21.55561447
H        9.32783413      28.77477646      15.26503658
H       13.00902843       0.22041219      15.34472466
H        8.11123657      24.57299042      22.34723473
H       13.07237530       0.98076433      17.67346001
H        8.42382812      24.77285194      19.90922165
H        4.22542000      25.60558510      19.30463791
H        8.91061878      28.27713394      17.61345100
C        1.98536646      24.30877686      24.49092102
C        2.98714232      27.34197998      26.52641487
C        5.96492290       1.55204701      26.83142281
C        5.93404007      27.16124535      24.58080292
C        2.62954879      25.10717773      23.58824158
C        2.19552398      28.15437317      27.28177834
C        5.30068398       0.65321726      27.61322021
C        6.67972708      26.23064041      23.91476250
C        2.86388588      24.64244461      22.26978493
C       20.64108276      27.79174995       0.08133191
C       24.03042984       0.82281393       0.48919231
C        6.81843185      26.28245926      22.50886154
C       17.75108719      25.73071671       0.05652592
C        5.34186602      28.22221375      22.50388336
C        8.49784183       1.77634501      22.00597954
C        3.11332417      25.72532463      28.30484581
C        8.28952599       1.99585640      23.33191490
C        3.45877838      26.11146736      27.04308891
C       -0.50267100      25.39528084      27.37932968
C        5.26833963      28.17861366      23.86271286
H        1.80508411      24.67988968      25.49256325
H        3.24298000      27.63168907      25.50957680
H        6.00365782       1.40997124      25.75961304
H        5.86378717      27.11468506      25.66776848
H        2.96371794      26.09708786      23.84999084
H        1.82684660      29.09052658      26.87260056
H        4.80626535      58.72714615      27.17464447
H        7.17017651      25.43028069      24.45448303
H       17.99520493      26.68013573       0.52892178
H        4.83602095      28.99039459      21.96119690
H        7.79504681       1.18829381      21.42972374
H       22.25951004      24.77978897       0.18575814
H        7.42658234       1.59070384      23.81586266
H        4.09792519      25.47392082      26.43368340
H        0.17435153      26.06692123      26.89543152
H        4.69020033      28.92527199      24.39713097
C       15.66021347       2.08901906       3.03875303
C       16.90172386       4.76885462       5.26356125
C       20.94909859       6.99600315       5.45377731
C       20.00695038       4.29825687       3.18377042
C       16.54900742       2.81421089       2.30568171
C       16.16797829       5.58882570       6.06807041
C       20.15800095       6.16075993       6.19404125
C       20.73664665       3.51912260       2.32643867
C       17.06325340       2.31148219       1.08520401
C       15.72459602       5.15079737       7.34257364
C       19.76548958       6.51321363       7.50963402
C       20.97583199       3.94138741       0.99837685
C       12.90658093       3.16998529       7.01324797
C       19.74197578       5.98717594       1.48235774
C       23.78108406       5.73501921       1.21278858
C       16.74633980       2.98915362       6.87815619
C       23.44466019       6.06767845       2.49601102
C       17.20828629       3.45217419       5.68155146
C       13.16351414       2.86168671       5.71224689
C       19.49432373       5.54352570       2.74989223
H       15.30200672       2.47166562       3.98644233
H       17.23548508       5.13294601       4.29917479
H       21.23556519       6.70695353       4.44515991
H       19.82904243       3.94017291       4.19263554
H       16.87051392       3.79452300       2.63690257
H       15.92806911       6.61147785       5.76886845
H       19.81946564       5.22159767       5.80081797
H       21.16093636       2.58507276       2.65034914
H       13.16445160       4.14422131       7.41387701
H       19.35278320       6.93450975       1.15463471
H       23.49444962       4.78302097       0.79380161
H       16.94583893       1.96743095       7.19657993
H       22.87125015       5.37267923       3.09274435
H       17.77978897       2.80825114       5.03674698
H       13.63699818       3.60536838       5.07130718
H       18.92744827       6.16276407       3.42530489
C       11.41378307       1.59594691      10.03636837
C       12.19573212       5.09640121      12.26729202
C       16.25221252       7.23797989      12.53934956
C       14.92119884       4.27108812       9.86783218
C       11.99257851       2.53161454       9.22709656
C       11.59967422       5.99411678      13.11260319
C       15.46893883       6.41100979      13.28062630
C       15.59102154       3.41145921       9.03947163
C       12.29387379       2.22547460       7.87479210
C       11.23704815       5.61097813      14.42244244
C       15.17608452       6.72131634      14.63947392
C       16.01748085       3.83061934       7.75415516
C        8.48862076       3.93398499      14.30288887
C       15.02421284       6.01483917       8.21352768
C       18.91385651       5.68384504       8.28286171
C       12.04297066       3.36966610      13.93291283
C       18.54901123       6.05312729       9.54511833
C       12.40773869       3.76370120      12.68413830
C        8.87558079       3.74454260      13.01285648
C       14.63396168       5.59161997       9.44941807
H       11.17708492       1.82979000      11.06148529
H       12.46831799       5.40060902      11.26500607
H       16.48236275       6.99060583      11.50736904
H       14.60530758       3.94640684      10.84251690
H       12.21923256       3.53074431       9.59582233
H       11.40631580       7.00709915      12.78834057
H       15.06692600       5.49661732      12.85279274
H       15.79040813       2.40400934       9.35270786
H        8.90357685       4.74221230      14.89492989
H       14.80401611       7.01973772       7.87978840
H       18.55415916       4.75439167       7.85293770
H       12.14063454       2.32194257      14.24325562
H       17.88057899       5.41656780      10.11847305
H       12.86439419       3.06634235      12.00124455
H        9.63077641       4.39217567      12.56277180
H       14.10311699       6.27754593      10.11197853
C        6.25002241       2.41242528      16.83081627
C        7.00274181       5.49814796      19.80391312
C       11.53938961       7.09315729      19.70537186
C       10.53731537       4.80430079      17.01558113
C        7.16446018       3.25079036      16.26464653
C        6.49997282       6.23078346      20.83277893
C       10.67860031       6.30802679      20.43369102
C       11.13352013       3.90910053      16.16982841
C        7.53458166       3.09020543      14.90817165
C        5.99097157       5.59663820      21.99024582
C       10.32478428       6.66267347      21.75204277
C       11.48440742       4.28937435      14.85147476
C        2.92216468       2.97181869      21.74159431
C       10.58441734       6.50347090      15.31108379
C       14.37149811       5.87197351      15.43836212
C        6.34647131       3.45569897      20.89706230
C       14.09945107       6.18902349      16.73592949
C        6.92029905       4.08999443      19.83110428
C        3.00535250       2.65674257      20.41576004
C       10.24224472       6.11179876      16.57669449
H        5.91890335       2.55266500      17.85032463
H        7.47371435       5.98694134      18.94850540
H       11.81926060       6.80352449      18.70873451
H       10.25329113       4.49338675      18.01029015
H        7.59166002       4.06536579      16.83155251
H        6.49486876       7.31625986      20.78028870
H       10.26341152       5.39864969      20.01544571
H       11.34150219       2.89337373      16.45601273
H        3.18817496       3.96536660      22.07157516
H       10.33787155       7.48814583      14.93044567
H       13.97610378       4.96130943      14.98977470
H        6.21541929       2.39232278      20.88742447
H       13.48792362       5.52343988      17.33961487
H        7.31226444       3.51019263      19.00613403
H        3.32406831       3.39830232      19.70178795
H        9.71748352       6.79625607      17.22499084
C        2.25324988       1.30061543      24.99420929
C        2.68935370       4.85274696      26.93132210
C        6.75080395       7.21663570      26.81954193
C        5.16637945       4.29447889      24.32436371
C        2.47804475       2.29014707      24.08047104
C        1.94659579       5.62547731      27.77564621
C        6.04714537       6.32370138      27.57986450
C        5.53146696       3.55341887      23.23295212
C        2.55681682       1.99109244      22.69915009
C       20.48318100       5.19545507       0.57441187
C       24.50534630       6.63653898       0.39400554
C        5.94379520       4.19227362      22.03845978
C       17.92604065       3.07860041       0.26609844
C        5.55514622       6.34131336      23.11861420
C        9.40963745       5.89361525      22.51552963
C       21.70326996       3.14152265       0.09036960
C        9.07437134       6.26875591      23.78728485
C        3.17413020       3.59788227      27.35775375
C       -0.36292988       2.56103277      27.63581085
C        5.14798784       5.70286512      24.25785828
H        2.21440601       1.53017235      26.05083466
H        2.89693832       5.20792246      25.92829514
H        6.99751711       6.95495367      25.78757095
H        4.87465525       3.79850268      25.23893166
H        2.61891174       3.31940818      24.38455963
H        1.55306840       6.59016895      27.46811676
H        5.73114157       5.37242317      27.17252922
H        5.49192619       2.47581720      23.26960182
H       18.17567253       4.09898376       0.57674420
H        5.55183411       7.42562771      23.05576324
H        8.98107719       4.99444056      22.06700706
H       22.06147575       2.17242336       0.42073134
H        8.37952614       5.65899134      24.34970856
H        3.75111818       2.98511124      26.68797493
H        0.28130746       3.13995194      27.01017761
H        4.80968666       6.27889013      25.09623909
C       15.87218380       7.39231825       3.07481766
C       16.97231102      10.17199612       5.49066210
C       20.94416809      12.71841431       5.48139524
C       19.86643791       9.98638344       3.15835500
C       16.65090370       8.26501751       2.35858440
C       16.19805717      11.01984310       6.23422909
C       20.22986603      11.86549091       6.27251863
C       20.62604713       9.13516235       2.40398192
C       17.04385757       7.95089722       1.03392303
C       15.85329151      10.69385338       7.57078171
C       19.87849998      12.23017120       7.59360743
C       21.00606537       9.47902107       1.08265221
C       12.97605038       8.65060806       7.18164873
C       19.82341957      11.59423351       1.35800803
C       23.74162102      11.49123669       1.27416456
C       17.06909370       8.60433578       7.31941986
C       23.37125206      11.88214207       2.53209019
C       17.41672134       8.94558525       6.03575850
C       13.35992050       8.34132004       5.90197897
C       19.45753479      11.23453617       2.62400603
H       15.56442928       7.66073370       4.06366777
H       17.25095749      10.44863033       4.48514509
H       21.22216988      12.42982960       4.46272230
H       19.57278061       9.69450665       4.16190529
H       16.97079277       9.20390320       2.77338958
H       15.87155533      11.96496582       5.82295322
H       19.92522240      10.89229584       5.90495920
H       20.94947243       8.18503475       2.80035353
H       13.31075764       9.56357574       7.64583254
H       19.50673485      12.55568504       0.94427907
H       23.41732788      10.54082394       0.88018680
H       17.38234138       7.66483831       7.73628902
H       22.73446846      11.23529911       3.12868476
H       18.02327538       8.27093506       5.44624329
H       14.00075436       9.02331352       5.36747456
H       18.84878159      11.90296364       3.22631240
C       10.89063549       7.21418715       9.90791512
C       12.27581215      10.30355263      12.62676525
C       16.38375473      12.75781250      12.64810181
C       15.21696091      10.02720928      10.21342564
C       11.72438431       8.06544018       9.23910809
C       11.45156193      11.11781216      13.35009003
C       15.67072773      11.91014385      13.44701099
C       15.95571232       9.15900898       9.45670986
C       12.14298439       7.76825619       7.91828775
C       11.15923786      10.83549595      14.70638752
C       15.32305145      12.29040909      14.76891994
C       16.28814697       9.47293472       8.11954689
C        8.23066521       8.77292919      14.24002457
C       15.09305763      11.57788372       8.37657261
C       19.13819313      11.35445499       8.44016838
C       12.56734943       8.86372852      14.53855324
C       18.79823303      11.74162960       9.70227242
C       12.84017658       9.15723038      13.23535633
C        8.51444149       8.42989826      12.94298649
C       14.77505112      11.25596237       9.66367245
H       10.54775429       7.47027254      10.90017700
H       12.48629856      10.52696323      11.58714008
H       16.65189743      12.44214153      11.63640690
H       14.97876644       9.77893448      11.24576092
H       12.05852413       8.98783588       9.69655895
H       10.99958992      11.99015617      12.91299152
H       15.37474346      10.92184067      13.10831547
H       16.29535675       8.22619629       9.88030052
H        8.65408802       9.66398811      14.66908073
H       14.77954865      12.52567673       7.93541145
H       18.83746338      10.39590073       8.05155849
H       12.97490597       7.96683216      15.00240803
H       18.22034264      11.07700539      10.32642269
H       13.48614788       8.49358177      12.65672970
H        9.15273762       9.04931736      12.35788250
H       14.19972515      11.95304203      10.26613522
C        6.25743914       7.47593832      17.11770630
C        7.46518517      10.52849293      19.70041847
C       11.75065517      12.77277184      19.82962990
C       10.58968258      10.23702049      17.38299370
C        7.08969069       8.26969051      16.37964630
C        6.63369036      11.31634140      20.45163155
C       11.01004982      11.94691849      20.62533760
C       11.42781734       9.42204475      16.67330742
C        7.39405680       7.94502974      15.03588009
C        6.38063717      11.01509953      21.81322479
C       10.60816860      12.36003971      21.92274857
C       11.72440052       9.69524002      15.31140041
C        3.70620131       8.83613491      21.41768456
C       10.31404591      11.67728901      15.47321033
C       14.60892200      11.42174339      15.63628864
C        7.83965445       9.07605457      21.58632088
C       14.26630592      11.82159042      16.89765549
C        8.07503319       9.39254475      20.28438377
C        3.91782117       8.40527916      20.14024353
C       10.02967739      11.38021946      16.77822113
H        6.03040695       7.74521780      18.14058113
H        7.65311813      10.78425694      18.67517662
H       12.06017113      12.43993282      18.84828949
H       10.37656498      10.00099278      18.40833473
H        7.52697372       9.17178059      16.81195831
H        6.15737772      12.20173550      20.03441620
H       10.73247528      10.95515537      20.30466461
H       11.87047482       8.52810001      17.12748146
H        4.09379673       9.78838921      21.73970413
H        9.91807556      12.56589413      14.99473476
H       14.32789707      10.43708706      15.25131512
H        8.29616070       8.20121860      22.04106331
H       13.72591782      11.16027069      17.53797913
H        8.72544670       8.75501156      19.68923378
H        4.48866034       9.03045368      19.44537163
H        9.38272476      12.04047298      17.35457039
C        2.00835633       7.69743776      24.52168655
C        2.93385267      10.20992279      27.00936890
C        6.87964678      12.80911064      26.90816879
C        5.84938240      10.33313274      24.47649384
C        2.74061942       8.46690750      23.66580963
C        2.16598248      11.06311607      27.75322151
C        6.10334826      11.98367882      27.66944313
C        6.70911694       9.56349850      23.74438477
C        2.98131108       8.03621006      22.33525658
C       20.59590530      10.72274685       0.54888970
C       24.53742218      12.34104824       0.46511370
C        6.98332119       9.87334728      22.39042854
C       17.82315445       8.84930515       0.26324752
C        5.53618097      11.81984615      22.60879135
C        9.86166477      11.51443672      22.77698708
C       21.77982140       8.60868740       0.28103048
C        9.45632362      11.94450474      24.00838852
C        3.34476137       8.96510601      27.54619789
C       -0.59868103       8.52671814      27.52016640
C        5.25934267      11.48917484      23.90446854
H        1.80379963       8.04023743      25.53121948
H        3.22327876      10.49536037      25.99358177
H        7.16224241      12.51714993      25.91446114
H        5.63270044      10.07277966      25.50243568
H        3.15212584       9.42729092      23.96860313
H        1.82390487      12.00358677      27.34819412
H        5.76420832      11.03303623      27.28902626
H        7.19239092       8.69346905      24.18497276
H       18.12396240       9.79027176       0.71494770
H        5.11977196      12.72142887      22.16900063
H        9.61131096      10.52964020      22.43277550
H       22.08188438       7.65922785       0.69538593
H        8.86131668      11.29337597      24.63957024
H        3.96416497       8.29732800      26.95575523
H        0.00443340       9.21889973      26.95145798
H        4.61277485      12.11021233      24.50753593
C       15.90698719      13.08328629       3.12093568
C       16.98347664      15.74946880       5.48695755
C       20.99235153      18.46227074       5.45610332
C       19.88084984      15.63738155       3.05675435
C       16.67037582      13.91274548       2.34662342
C       16.24548912      16.57636833       6.28772068
C       20.22227287      17.61143303       6.19628525
C       20.64561462      14.79525757       2.30322862
C       17.03179359      13.54045486       1.02596688
C       15.94016075      16.20835495       7.62320662
C       19.92002487      17.90385437       7.55026484
C       20.98398590      15.13114929       0.96611011
C       13.13045311      14.23419857       7.31455660
C       19.75115776      17.21890450       1.24496055
C       23.72227097      17.04739380       1.20242178
C       17.13710594      14.11480904       7.24998236
C       23.35044670      17.40487289       2.46416068
C       17.44318771      14.50312328       5.98131561
C       13.45351315      13.90849686       6.02601194
C       19.42613792      16.87003136       2.52689338
H       15.62749767      13.37301636       4.12298632
H       17.21123695      16.05646133       4.49142599
H       21.21154594      18.21582031       4.42492962
H       19.63109589      15.35897160       4.08166456
H       16.98941612      14.88511848       2.72155595
H       15.88721657      17.51730728       5.91841412
H       19.84377861      16.70119667       5.78040648
H       21.00284195      13.83944416       2.70998073
H       13.49309921      15.15652943       7.76221704
H       19.41185188      18.17259216       0.81731200
H       23.39789772      16.10935783       0.77878064
H       17.47476578      13.16070747       7.64476061
H       22.71716118      16.74110031       3.05002308
H       18.02979660      13.84891891       5.34285498
H       14.06272030      14.58260250       5.44354630
H       18.81684303      17.54637909       3.13572121
C       11.22528744      12.82603264      10.17222500
C       12.34421635      15.68609428      12.68529320
C       16.41232681      18.29272079      12.61285305
C       15.33159924      15.40464211      10.23807526
C       12.00631332      13.67295742       9.44090652
C       11.57288456      16.52442360      13.44742966
C       15.61024761      17.45508194      13.33632851
C       16.07778931      14.58704281       9.44289684
C       12.33905220      13.36813259       8.09835529
C       11.21438217      16.17496490      14.77161980
C       15.24515057      17.77434731      14.66422176
C       16.39003372      14.95841599       8.10866547
C        8.38025284      14.32263565      14.37018013
C       15.19812107      17.05387306       8.48505402
C       19.13669586      17.02776146       8.34066486
C       12.43937111      14.08485031      14.49346828
C       18.85595322      17.33206177       9.64505386
C       12.78255653      14.44986820      13.22162056
C        8.72612190      13.95239925      13.10422325
C       14.88986492      16.66244888       9.75884724
H       10.96281052      13.08442593      11.18628979
H       12.60940742      15.96228695      11.69239998
H       16.71940804      18.01873016      11.58931541
H       15.08584976      15.08870888      11.24986267
H       12.38470936      14.58474827       9.86509705
H       11.23491859      17.46716881      13.06267262
H       15.24212265      16.52525902      12.91597557
H       16.41851997      13.63360119       9.79359722
H        8.73030567      15.25965309      14.79572010
H       14.86283588      18.01157188       8.10683155
H       18.76074982      16.11153412       7.88943672
H       12.76943684      13.15061951      14.90814972
H       18.24486923      16.66765976      10.24720860
H       13.38550282      13.77855587      12.60972786
H        9.35129547      14.60450554      12.49716949
H       14.30732918      17.30847549      10.39966965
C        6.43704271      12.99900341      17.25335121
C        7.56189299      15.76710224      19.75161552
C       11.51631451      18.17308044      19.74963188
C       10.47378445      15.41269875      17.36353111
C        7.23095942      13.81715012      16.50991821
C        6.78844500      16.61268806      20.49666214
C       10.69704437      17.38811684      20.50469208
C       11.27085972      14.58562183      16.62249374
C        7.57556820      13.47426987      15.17821026
C        6.42473602      16.28234100      21.82443047
C       10.36210251      17.75087929      21.83008194
C       11.64753532      14.93742943      15.29763317
C        3.53489017      14.49192047      21.48847961
C       10.42516327      17.03075409      15.57705879
C       14.44007683      16.91488075      15.44841671
C        7.66330433      14.19439793      21.57648849
C       14.09391594      17.25430870      16.72497940
C        8.00618744      14.54317474      20.29853439
C        3.85444975      14.12457752      20.21258545
C       10.04578781      16.65611839      16.83979797
H        6.16669178      13.28458309      18.26512718
H        7.85722399      16.04752541      18.73895645
H       11.76977539      17.86423683      18.75830650
H       10.17591667      15.10673332      18.34752083
H        7.62000704      14.74474239      16.91400528
H        6.44245577      17.55528641      20.09816551
H       10.28927135      16.46926308      20.10884857
H       11.60091209      13.64401722      17.01141357
H        3.85481238      15.44639969      21.88010025
H       10.11168575      17.98421288      15.16530800
H       14.09251595      15.97794819      15.01723194
H        8.01953030      13.26451206      22.00508881
H       13.45851803      16.57891273      17.31829453
H        8.63582230      13.88468361      19.71890640
H        4.44021940      14.80135155      19.58633423
H        9.43011475      17.31885719      17.42313004
C        1.78727305      13.09526062      24.46065521
C        2.84056902      15.85992241      26.86972618
C        6.89334249      18.39862823      26.87873840
C        5.77003002      15.59687614      24.45534706
C        2.48519826      13.96008682      23.66735840
C        2.06978989      16.69615173      27.62858772
C        6.10186291      17.55886078      27.61833191
C        6.52965260      14.74367428      23.70945740
C        2.79605484      13.62387085      22.32636261
C       20.53165627      16.35902977       0.43400970
C       24.52383232      17.90056801       0.41268620
C        6.87014675      15.05734253      22.37217903
C       17.79875374      14.39424610       0.20025255
C        5.65410471      17.15789604      22.62781143
C        9.53976917      16.93316460      22.64017296
C       21.75734138      14.27118397       0.15077822
C        9.21343708      17.30375862      23.91785431
C        3.29025674      14.62705231      27.40336990
C       -0.65082175      14.00968075      27.45716286
C        5.32359886      16.82158661      23.90986252
H        1.56102085      13.37027740      25.48669434
H        3.10922575      16.14691925      25.85846329
H        7.18707561      18.09947586      25.87679100
H        5.51175261      15.33668900      25.47043800
H        2.82344580      14.90763378      24.05624580
H        1.71918142      17.64475060      27.22666931
H        5.76271820      16.61768341      27.20701408
H        6.88415861      13.80289936      24.12090302
H       18.11890793      15.35284042       0.59529656
H        5.32770586      18.09480095      22.19801903
H        9.18768978      16.00072670      22.22730827
H       22.08223724      13.32587910       0.57688457
H        8.57862854      16.66528511      24.52578926
H        3.90817213      13.95875263      26.79181671
H       -0.05349458      14.67110920      26.85522079
H        4.72422838      17.50529861      24.50380898
C       15.84196949      18.59498024       2.93455315
C       16.71341324      21.37141991       5.34765577
C       20.75872803      23.60721970       5.29063988
C       19.72259521      21.21798706       2.92172098
C       16.58051682      19.45071030       2.17238021
C       15.95255375      22.17795563       6.14420986
C       20.05614471      22.84253311       6.17451286
C       20.53923225      20.39029121       2.20970750
C       16.94701004      19.11625862       0.84569871
C       15.70763302      21.83147621       7.50045156
C       19.97399712      23.21084023       7.54936361
C       20.95676041      20.74140358       0.90202105
C       13.14169025      19.59458542       7.31714201
C       19.72618675      22.83509254       1.12927318
C       23.82027626      22.70925331       1.23675394
C       17.05590057      19.82830238       7.17484903
C       23.53976440      23.07550049       2.51940203
C       17.26956749      20.17400360       5.86628437
C       13.44882965      19.25168228       6.03086042
C       19.30177498      22.45482445       2.37232137
H       15.56801414      18.85488892       3.95197320
H       16.89071846      21.64539528       4.31914711
H       20.81033707      23.32657623       4.25471449
H       19.39815140      20.94456482       3.91910958
H       16.90516472      20.40953255       2.56691480
H       15.52273941      23.10081100       5.74367380
H       19.56635094      21.94314003       5.85478544
H       20.87461853      19.44742393       2.61581373
H       13.50707436      20.51790237       7.74565744
H       19.42773438      23.78039742       0.69798350
H       23.45926857      21.76703072       0.83531159
H       17.47078705      18.90720367       7.57112741
H       22.95061493      22.40675735       3.16278076
H       17.86569214      19.53262901       5.22773552
H       14.06878757      19.91779709       5.42221785
H       18.64471626      23.11558723       2.93379641
C       11.19125938      18.27644157      10.19675064
C       12.27540588      21.10021973      12.58986187
C       16.36218834      23.60951233      12.76514816
C       15.25633717      21.10572624      10.16566944
C       12.00345039      19.08876419       9.45719528
C       11.44059563      21.91666031      13.31253338
C       15.52130508      22.86660576      13.54466724
C       16.04188156      20.31637955       9.37698269
C       12.33456707      18.75513268       8.12380123
C       11.11642551      21.60750389      14.65704250
C       15.12993145      23.32503891      14.82791519
C       16.27666092      20.65400124       8.02387047
C        8.40209961      19.65768051      14.42810440
C       14.89491558      22.63805580       8.33247471
C       19.26136971      22.42367363       8.48503208
C       12.49243450      19.60631752      14.46014881
C       19.20349312      22.79098511       9.79862881
C       12.80631733      19.92794609      13.17347431
C        8.72587681      19.31121063      13.14543533
C       14.67022324      22.28579521       9.63418674
H       10.92381001      18.56394196      11.22151375
H       12.52988720      21.35056877      11.55792618
H       16.67444038      23.21764565      11.80268383
H       15.08682919      20.85350800      11.20499229
H       12.38872528      20.01202583       9.88162422
H       11.02845383      22.80692863      12.86250973
H       15.17351055      21.88883591      13.20723915
H       16.49993706      19.40880775       9.77877140
H        8.76461792      20.57684517      14.86129093
H       14.46044159      23.54572105       7.93426037
H       18.77291298      21.51877213       8.14422035
H       12.85872936      18.69808006      14.91036034
H       18.66506386      22.18417740      10.51804066
H       13.45057201      19.27445030      12.60681629
H        9.36647129      19.96226692      12.54908657
H       14.07094097      22.92022896      10.27294159
C        6.47764873      18.31308174      17.30915642
C        7.54674292      21.26623344      19.76753616
C       11.43761253      23.56072235      19.76665497
C       10.51022911      20.93737030      17.30983734
C        7.27513170      19.13744736      16.56787300
C        6.80180264      22.14877319      20.49057579
C       10.70131016      22.78814125      20.62286186
C       11.33999729      20.13352203      16.58468437
C        7.59730673      18.80873299      15.22978020
C        6.45243502      21.87225723      21.83542442
C       10.37261486      23.25487328      21.92432213
C       11.65551758      20.44168091      15.23751831
C        3.68750310      19.90838814      21.60441208
C       10.25699615      22.43062782      15.43216991
C       14.37413406      22.51355934      15.70214844
C        7.63238430      19.74221992      21.62957001
C       14.05175400      22.95869637      16.95844078
C        7.97431564      20.04478264      20.34526825
C        4.00711441      19.55059433      20.31856537
C        9.95217896      22.09956169      16.72079849
H        6.22273445      18.59015083      18.33201218
H        7.81760502      21.50322151      18.74265099
H       11.69486618      23.17397881      18.80917168
H       10.27103043      20.68891525      18.33361244
H        7.65084362      20.04705811      16.98482704
H        6.47043657      23.08167648      20.05937958
H       10.36500645      21.79014587      20.33001518
H       11.77065754      19.22905540      17.02099037
H        4.05272865      20.82822227      22.02457047
H        9.83099365      23.32129097      14.98181248
H       14.06834412      21.52459717      15.37185478
H        7.95254087      18.81998444      22.08744621
H       13.49232292      22.30811691      17.61439133
H        8.56462574      19.34938240      19.75954628
H        4.62860680      20.19849586      19.72523880
H        9.27048016      22.72231483      17.28339195
C        1.77652407      18.56925011      24.49875069
C        2.96587896      21.47789955      26.85332870
C        6.85087442      24.01462936      26.80188179
C        5.78458452      21.24962234      24.48422813
C        2.57226753      19.39181900      23.74598694
C        2.17746353      22.32836342      27.57707977
C        6.10584688      23.19147491      27.59648323
C        6.52597237      20.36618233      23.75441742
C        2.88590240      19.06614494      22.40645790
C       20.55832481      21.98100853       0.35832950
C       24.57480240      23.55681419       0.39789847
C        6.87288284      20.64992905      22.40950394
C       17.72883987      19.98476982       0.04049717
C        5.69187784      22.77766037      22.61882401
C        9.63832855      22.46025467      22.83414078
C       21.76505470      19.87740326       0.12133897
C        9.32405090      22.92864990      24.07950211
C        3.36653829      20.23190308      27.38840294
C       -0.72605813      19.62488747      27.29328537
C        5.35012102      22.46953583      23.90943527
H        1.53811824      18.84350204      25.52806282
H        3.26941371      21.76183510      25.85271263
H        7.11622953      23.70599174      25.80723763
H        5.51347017      21.01358604      25.51539230
H        2.96343899      20.30802536      24.17070770
H        1.85951221      23.27817535      27.15943146
H        5.76300383      22.22858620      27.24423981
H        6.85276794      19.41777229      24.19077683
H       18.04496193      20.92240906       0.44833222
H        5.36137295      23.71787834      22.17691803
H        9.31088924      21.47656441      22.51306915
H       22.06379127      18.92999649       0.54928398
H        8.74996567      22.32102203      24.75868797
H        3.99052620      19.56538773      26.81047058
H       -0.11585608      20.28750229      26.69348717
H        4.75158167      23.15949249      24.48554993
C       24.01775360      24.30306625       3.03169775
C       24.74722481      26.81500053       5.79786396
C       28.77363586       1.49333358       4.93961763
C       28.16243744      26.34100533       3.06640530
C       24.73240089      25.15149307       2.23839021
C       23.98235893      27.58760071       6.62207699
C       28.29520416       0.76933312       5.98879480
C       28.90727425      25.56551743       2.22680855
C       25.02399826      24.80116272       0.89063150
C       23.85965919      27.27445221       8.00154781
C       28.23247719       1.34976614       7.28389931
C       29.19848251      26.00419426       0.91273940
C       21.34658813      25.15576172       7.04269457
C       28.03448486      28.08218002       1.40294170
C       31.11294746       1.02334332       1.41311729
C       25.22648430      25.29665375       7.61163235
C       31.18997002       1.10618055       2.76734281
C       25.38136482      25.65501595       6.30295372
C       21.40900040      24.78905869       5.72796679
C       27.74433136      27.63228798       2.65708518
H       23.82663918      24.56899071       4.07790995
H       24.86506081      27.07366180       4.75422907
H       28.76180840       1.06722856       3.93477845
H       27.90107727      25.98376656       4.05481386
H       25.09944153      26.09911919       2.62226605
H       23.43850327      28.45558739       6.24444437
H       27.95146179      58.68397903       5.84641981
H       29.24232292      24.59148026       2.52334714
H       21.84394455      26.06060219       7.36992550
H       27.72303963      29.06355476       1.08119917
H       30.41402626       0.34737140       0.95203441
H       25.66054726      24.38516426       7.99186325
H       30.59902763       0.43767709       3.38810611
H       25.97592545      25.03649902       5.64775324
H       21.94565201      25.41283989       5.02204704
H       27.17835808      28.26109123       3.34259486
C       19.86428070      23.95903587      10.24133587
C       20.63421822      26.75597382      12.75586700
C       24.72165680       1.28425586      12.69994926
C       23.60333061      26.58521843      10.71029663
C       20.56297112      24.73418808       9.35677433
C       19.81347656      27.56476593      13.49168777
C       24.60594177       0.28725654      13.63094139
C       24.32764626      25.78489685       9.86844254
C       20.63019562      24.38428688       7.98596525
C       19.38632011      27.16090775      14.77748966
C       24.42534828       0.60202056      15.00189304
C       24.48582649      26.11269951       8.49958324
C       16.38212585      25.37493706      14.40790176
C       23.09953880      28.07109642       8.88812160
C       27.71705055       0.64977789       8.39387321
C       20.66460800      25.10608101      14.49750137
C       27.44882965       1.29012907       9.56686592
C       21.05954742      25.50907326      13.25186253
C       16.80549240      24.87521935      13.20961475
C       22.98912621      27.75245476      10.20965767
H       19.81166077      24.24217224      11.29247379
H       20.99140167      27.05634308      11.77346802
H       24.83253860       1.03840899      11.66337299
H       23.49815941      26.32541275      11.74621296
H       21.07285309      25.62872505       9.68695927
H       19.47990799      28.52789116      13.11577415
H       24.62507629      58.17466736      13.34071350
H       24.78545952      24.88349342      10.22067356
H       16.72404480      26.34453392      14.74981308
H       22.58345795      28.92055702       8.48696899
H       27.46946144      58.52927017       8.29088116
H       20.96401978      24.14213181      14.87657356
H       26.98430824       0.76161134      10.38064575
H       21.70445251      24.87874222      12.65557003
H       17.51144218      25.45738029      12.60340595
H       22.41106606      28.38796997      10.85688782
C       14.45077705      24.24654579      17.37917519
C       15.78079319      26.75617599      19.70444298
C       19.95690537       1.75159431      19.82474518
C       18.58518028      26.28364182      17.32730293
C       15.17237186      25.04970169      16.54478645
C       14.92683125      27.53141975      20.43345070
C       19.28894997       0.80365920      20.55076981
C       19.45130539      25.52772522      16.59867477
C       15.54987144      24.60268211      15.25712490
C       14.50117493      27.11991692      21.71872711
C       18.81896400       1.08917642      21.86170959
C       19.84041023      25.93381310      15.29231262
C       11.52061749      25.33724213      21.39239311
C       18.49215698      27.92898369      15.56136608
C       24.32903671      58.52476883      15.99942207
C       15.89962482      25.14540863      21.47745895
C       24.06548119      58.84896851      17.29287148
C       16.25613022      25.52876282      20.21929169
C       11.85133457      24.85504723      20.15953255
C       18.07318115      27.48003197      16.77967453
H       14.20283508      24.59211159      18.36575317
H       16.08819008      27.08788300      18.71279335
H       20.32038116       1.50363469      18.83111763
H       18.29547691      25.97107124      18.32731056
H       15.46647930      26.04548645      16.86832809
H       14.57476711      28.47139549      20.04848099
H       19.10916138      58.75517654      20.12462425
H       19.84686852      24.60448647      16.97933769
H       11.83950233      26.31352425      21.68182182
H       18.10073090      28.86498833      15.17133713
H       24.40135956      57.49547195      15.69960690
H       16.25244713      24.20807266      21.88987732
H       23.93599701      58.07461548      18.04348183
H       16.91154289      24.91611671      19.62614632
H       12.42791176      25.46728134      19.48160934
H       17.32950974      28.05193710      17.31807327
C        9.76095009      24.22125053      24.47916985
C       10.80762100      26.83622169      26.79970360
C       14.26306534       2.14763188      26.98951530
C       13.78301907      26.27817154      24.30736923
C       10.47221661      25.00222397      23.61809921
C       10.12954330      27.65078545      27.66471291
C       13.30652142       1.51918244      27.73435402
C       14.68470097      25.55476570      23.58083153
C       10.79469872      24.54630280      22.31562424
C       28.73247528      27.26457024       0.48281324
C       31.98895264       1.78007042       0.58650029
C       15.03233242      25.93615913      22.26245308
C       25.77069855      25.66073036       0.04596716
C       13.53946114      27.83474159      22.47176933
C       18.14387512       0.13127427      22.66441917
C       11.10611916      25.18862915      28.52380180
C       17.67761421       0.48077229      23.89451981
C       11.32015896      25.59922218      27.23623466
C        7.29027462      25.27194023      27.29956818
C       13.18787384      27.42454529      23.72426796
H        9.51715374      24.59422493      25.47547722
H       10.94183922      27.15233421      25.76522064
H       14.40241241       1.85292697      25.94306946
H       13.52513313      26.00439644      25.32381058
H       10.80879784      25.99176598      23.91654587
H        9.70515919      28.59510231      27.32523918
H       12.68389130       0.74408937      27.28880501
H       15.14715195      24.65441704      23.99003983
H       26.09977341      26.60678101       0.41866976
H       13.12800694      28.72168159      22.04034042
H       18.00499535      58.06068039      22.29109764
H       30.25394249      24.22579002       0.31776342
H       17.16061020      58.70127869      24.49270821
H       11.86719513      24.95772934      26.55201530
H        7.87690067      25.92887306      26.66018867
H       12.48532581      28.00012398      24.29493523
C       23.73908234       1.33708096       3.22447395
C       25.03286552       4.49792433       5.47233152
C       28.79247475       7.37121630       5.34546900
C       27.54884338       4.09911823       2.72561550
C       24.47609329       2.19254398       2.45669961
C       24.26665497       5.33146000       6.24652958
C       28.01203346       6.55749321       6.11920643
C       28.15180588       3.28256106       1.80670261
C       24.63546944       1.96127689       1.06437945
C       23.93531609       4.98797750       7.57548475
C       27.70405197       6.91052437       7.45716858
C       28.49239540       3.77084184       0.52533448
C       21.30292702       3.02719355       7.32846689
C       27.58318329       5.93616199       1.17324626
C       31.47896004       5.81334496       1.00934780
C       25.19795227       2.91771960       7.28762817
C       31.13135529       6.10787344       2.29828811
C       25.50991821       3.27908707       6.00673389
C       21.69193649       2.56202364       6.10442686
C       27.24745560       5.43659258       2.40081763
H       23.63488770       1.51583683       4.29061460
H       25.27618408       4.78093338       4.46582890
H       29.04814720       7.08163977       4.33495331
H       27.28841972       3.71631312       3.70481873
H       24.92605972       3.07808113       2.89441729
H       23.89622688       6.27525520       5.85971355
H       27.63745308       5.61889410       5.72086287
H       28.36755943       2.24426460       2.04535151
H       21.75107765       3.91034794       7.75265694
H       27.36177063       6.96549082       0.91895157
H       31.12086487       4.89539671       0.54374796
H       25.56878662       1.99322462       7.71054029
H       30.48399544       5.43322849       2.85361099
H       26.13576698       2.62867188       5.40658283
H       22.48688316       3.05948639       5.56106234
H       26.74975395       6.06933260       3.13081002
C       18.89829636       2.20243907      10.03301144
C       19.96868134       4.78895712      12.45678902
C       24.04948807       7.19828987      12.59060669
C       23.19503975       4.18897629      10.15794849
C       19.89416695       2.82824707       9.34685707
C       19.34559822       5.63207531      13.32577515
C       23.37473297       6.29764652      13.36985588
C       23.99557686       3.38112903       9.41586399
C       20.29648590       2.37195611       8.06948471
C       19.09268761       5.23395443      14.66646290
C       23.05176544       6.60769892      14.71547794
C       24.39168358       3.75259519       8.10127544
C       16.26259804       3.18697357      14.07358265
C       23.13785362       5.83051062       8.38918400
C       26.92689514       6.06680059       8.28680420
C       20.09021187       3.07162499      14.14353275
C       26.63831711       6.42750740       9.57468510
C       20.34526253       3.49065614      12.86421013
C       16.22097015       2.75808072      12.78151131
C       22.77179718       5.44120884       9.64979267
H       18.57575798       2.57289839      10.99809742
H       20.15946960       5.11163998      11.44025230
H       24.31538963       6.95546865      11.56788731
H       22.86811447       3.87545109      11.14451408
H       20.39005661       3.68969131       9.76958466
H       19.02664757       6.64452600      13.01589298
H       23.08192635       5.33868408      12.96910477
H       24.32466316       2.40666080       9.80366993
H       16.93521500       3.98073459      14.36745834
H       22.80188942       6.77434874       8.00008202
H       26.59876442       5.12254333       7.89004993
H       20.33707237       2.07846785      14.46335697
H       26.03634071       5.77127504      10.19460773
H       20.81458473       2.81286526      12.16370487
H       16.85432434       3.21767426      12.03839588
H       22.12965012       6.08855677      10.24781036
C       14.61550426       2.44873953      17.32990837
C       15.86130142       4.50158596      19.77906990
C       19.67486763       7.26219273      19.74291420
C       18.62151337       4.39853144      17.29615974
C       15.45768929       3.01565909      16.41305923
C       15.08064461       5.33847570      20.51504707
C       18.89237213       6.42803001      20.49266243
C       19.23644257       3.54815221      16.42174339
C       15.43538761       2.59195948      15.05779266
C       14.67360401       4.98786306      21.82610321
C       18.50852013       6.77752161      21.81067657
C       19.47894096       3.94025731      15.07871151
C       11.83487892       3.32088518      21.53033829
C       18.44224930       6.08433151      15.58666229
C       22.36984634       5.68524027      15.55521965
C       15.84642410       2.86052895      21.54479408
C       22.07893372       6.01252079      16.85218239
C       16.26053238       3.24408627      20.30569649
C       12.04433537       3.13854074      20.19693184
C       18.20894814       5.68707037      16.86574936
H       14.62193966       2.78907108      18.35434914
H       16.15954018       4.79670525      18.77761650
H       19.95553589       6.96449327      18.73518562
H       18.45094681       4.08005714      18.31790352
H       16.12939835       3.82157397      16.70192337
H       14.75525284       6.28784513      20.11469460
H       18.53863716       5.47318745      20.09535789
H       19.52574730       2.55235553      16.72712898
H       12.56294918       3.84116459      22.14835930
H       18.12941360       7.05196953      15.24420071
H       22.08059120       4.72383642      15.14381599
H       16.12783051       1.89166772      21.95617104
H       21.55629539       5.31316519      17.47609138
H       16.87891960       2.59023833      19.70756912
H       12.95604420       3.51544023      19.73018646
H       17.70138931       6.35276461      17.56492233
C        9.25228691       2.66359520      24.10490799
C       10.43133163       4.82467318      26.56243706
C       14.68632984       7.27279043      26.76048660
C       13.88193035       4.22578192      24.39519310
C       10.41640377       3.07654166      23.53223419
C        9.78935432       5.62475443      27.45807076
C       13.87828636       6.41987562      27.45758820
C       14.64013767       3.37003708      23.64877319
C       10.64762592       2.88528752      22.15215492
C       28.21863937       5.12146187       0.20587744
C       32.30809784       6.69157696       0.26673743
C       15.06472206       3.72864199      22.34674263
C       25.33935928       2.87119222       0.23655072
C       13.88443851       5.85054159      22.62335014
C       17.70440674       5.93917370      22.60454750
C       10.30047607       2.95428920      28.06857872
C       17.29886246       6.33296347      23.84928513
C       10.68887997       3.47537231      26.87013817
C        6.60968494       2.66728568      27.41841698
C       13.49682426       5.48204613      23.88030624
H        9.07699394       2.78476524      25.14693832
H       10.72084427       5.23223209      25.60075951
H       14.97976112       7.01554203      25.74106026
H       13.54291725       3.93834376      25.37666893
H       11.19742680       3.55744529      24.11627769
H        9.55341911       6.66148996      27.23283196
H       13.53086758       5.49818230      26.99493599
H       14.94142056       2.38598466      24.03028679
H       25.78868866       3.75445032       0.68469316
H       13.56723118       6.80118322      22.19938660
H       17.38449287       4.97572994      22.19198036
H       10.45005798       1.89717782      28.27218056
H       16.64746857       5.69386196      24.42981529
H       11.16224861       2.83205223      26.14158821
H        7.15890217       3.37353086      26.80591774
H       12.88522625       6.13989592      24.45643616
C       23.82673836       7.32372284       3.02393603
C       24.72077179      10.28507614       5.37521315
C       28.76605034      12.77033138       5.37360048
C       27.72010803      10.04837608       2.91772246
C       24.54313850       8.20761871       2.26278138
C       23.99662781      11.12321663       6.17392397
C       27.99235535      11.93074131       6.11775112
C       28.45633507       9.17915630       2.16114688
C       24.89692688       7.88828421       0.93088835
C       23.68877983      10.76058865       7.51530838
C       27.65547562      12.25145435       7.45949459
C       28.85934258       9.52470398       0.84833753
C       21.02698898       8.59070873       7.26060915
C       27.74288177      11.67095375       1.13952315
C       31.68507004      11.40217113       1.21961617
C       24.85684776       8.65229034       7.14585304
C       31.31770897      11.76441765       2.48985863
C       25.16406250       9.03032207       5.87149668
C       21.37531853       8.23513794       5.99002552
C       27.35776520      11.31372452       2.39690852
H       23.55406761       7.58150625       4.03252792
H       24.95062447      10.58760166       4.36770868
H       29.02277946      12.49816990       4.34827423
H       27.40579414       9.77169323       3.92566633
H       24.84321022       9.16133499       2.66098619
H       23.65356827      12.09117031       5.81677723
H       27.62297821      11.00098228       5.70888710
H       28.74150467       8.19881058       2.54082036
H       21.34891891       9.52635479       7.67729998
H       27.47975159      12.63681126       0.73265475
H       31.39619255      10.44449997       0.81805444
H       25.18646812       7.68992186       7.53696823
H       30.72109985      11.08355522       3.08901238
H       25.75418472       8.36660767       5.23141289
H       21.99120140       8.88902950       5.38310766
H       26.77445984      11.99188232       2.99130630
C       19.05076218       7.24968767      10.11403942
C       20.21589470      10.18639946      12.58803558
C       24.14082527      12.83965588      12.55494022
C       23.08506203       9.99256134      10.13644314
C       19.87856102       8.06284428       9.38981628
C       19.48950005      11.04817963      13.36270618
C       23.37850761      11.99600697      13.31088352
C       23.80133247       9.14677715       9.33514404
C       20.23386192       7.72964668       8.05484009
C       19.17792511      10.73052788      14.70755577
C       23.05741692      12.31721115      14.65671349
C       24.11721992       9.50719547       8.00128746
C       16.48275375       8.76567078      14.38847542
C       22.97220230      11.62787533       8.36932182
C       26.86815262      11.38685131       8.26227951
C       20.36168098       8.61766338      14.40821934
C       26.53623581      11.72941971       9.53709888
C       20.65874481       8.95301914      13.11763191
C       16.76835251       8.43499660      13.09972858
C       22.66475105      11.25356388       9.65229225
H       18.78176117       7.53295660      11.12870121
H       20.45000839      10.46158314      11.56359863
H       24.38992500      12.58518505      11.53438091
H       22.83767700       9.69129086      11.13589096
H       20.25588608       8.97711563       9.81008148
H       19.14137840      11.99767876      12.96671772
H       23.00647736      11.06367302      12.89964104
H       24.12961578       8.17723560       9.70113564
H       16.87209320       9.68170547      14.82367992
H       22.66360092      12.58829975       7.99379826
H       26.52259827      10.46348190       7.82574415
H       20.69682503       7.67049599      14.81382656
H       25.91437149      11.05486965      10.14769268
H       21.23123360       8.27286530      12.49622726
H       17.39341927       9.08594608      12.49928665
H       22.09964180      11.93328762      10.27204609
C       14.62734222       7.37581348      17.30723000
C       15.68020439      10.23974037      19.70549583
C       19.60546494      12.84681225      19.71441460
C       18.59499359      10.03166199      17.35648727
C       15.40770721       8.21286964      16.55098343
C       14.90108299      11.07429409      20.45321846
C       18.83677864      11.99410534      20.46880722
C       19.32950974       9.17880821      16.58322906
C       15.69073868       7.91089487      15.19951630
C       14.51243782      10.71619701      21.76573563
C       18.47266769      12.33156300      21.78942490
C       19.62809753       9.49673748      15.23622417
C       11.73941040       8.64216900      21.54118729
C       18.43566704      11.60100746      15.53350830
C       22.30484009      11.43961143      15.47093010
C       15.70493221       8.60558987      21.48271942
C       22.00037575      11.77533054      16.76070404
C       16.09178734       8.98427868      20.22781181
C       12.06383705       8.28026962      20.26530075
C       18.13739204      11.26076221      16.82699203
H       14.39821911       7.64194918      18.33973503
H       15.98722744      10.53981876      18.71330071
H       19.86505699      12.57259655      18.70906258
H       18.36520576       9.76501465      18.39144516
H       15.81110954       9.12619400      16.98270988
H       14.59204865      12.04010391      20.06656647
H       18.50003052      11.05265236      20.06673622
H       19.69566536       8.24065018      16.97959518
H       12.13413048       9.55142784      21.97355270
H       18.10373878      12.55248737      15.12780762
H       21.98073959      10.50804996      15.04824352
H       16.02079582       7.64760828      21.87781715
H       21.41543770      11.11257744      17.38890648
H       16.71336746       8.31691837      19.61983299
H       12.73396873       8.91397762      19.67319298
H       17.55419731      11.93677425      17.43351746
C        9.64169788       7.43085670      24.36169052
C       10.85035419      10.26823330      26.79642487
C       14.78406048      12.81170654      26.86646843
C       13.75446606       9.94419861      24.35214806
C       10.52488327       8.19489956      23.64801407
C       10.11296654      11.13665295      27.54238701
C       14.02803802      11.95009899      27.61422157
C       14.52213669       9.10174561      23.59914780
C       10.87834072       7.83912659      22.32273293
C       28.49943542      10.78960896       0.33150861
C       32.45117950      12.28369999       0.41301525
C       14.91536522       9.46596718      22.28901100
C       25.62808228       8.78923607       0.11727572
C       13.72556019      11.57591724      22.57963371
C       17.68535805      11.46615696      22.59113884
C       29.61374855       8.64084435       0.04227287
C       17.32811165      11.82364750      23.86354828
C       11.20685673       8.99875259      27.30782127
C        7.15177774       8.46172810      27.35528755
C       13.34792995      11.19583893      23.83898163
H        9.36877251       7.71383619      25.37120438
H       11.16779137      10.55617142      25.78681564
H       15.07082176      12.55119133      25.85750961
H       13.45639706       9.62695885      25.35254478
H       10.95534611       9.10725117      24.07961082
H        9.83622360      12.11081409      27.16186333
H       13.71946812      10.99323082      27.20382881
H       14.83299923       8.13633442      23.98772240
H       25.91852570       9.75008965       0.51621139
H       13.42248154      12.52729607      22.17016411
H       17.35382843      10.51729107      22.18390465
H       29.87891006       7.66084242       0.44887021
H       16.71371269      11.16246700      24.45604324
H       11.80487156       8.31560993      26.71369934
H        7.71731138       9.15036011      26.75273323
H       12.73410130      11.85628605      24.42880058
C       23.81252480      13.12485409       3.05000854
C       24.79595375      15.71908855       5.39507103
C       28.83626366      18.27398109       5.39042091
C       27.78727150      15.58524990       3.01400447
C       24.60171509      13.94278908       2.29573989
C       24.06265450      16.57036781       6.16731453
C       28.06631851      17.42871475       6.15222359
C       28.55559921      14.75162029       2.26039124
C       24.96954155      13.57815647       0.97321832
C       23.77867889      16.25372696       7.51839924
C       27.78256607      17.74169922       7.50278378
C       28.93420792      15.10629082       0.94151849
C       21.00256157      14.36622715       7.24232531
C       27.74492264      17.21091080       1.23390770
C       31.65748405      16.90679550       1.19975591
C       24.96182251      14.15321827       7.21790600
C       31.31111145      17.26384163       2.47315788
C       25.25866318      14.48677731       5.92614126
C       21.33628082      13.98759460       5.97498989
C       27.36668396      16.83579063       2.49074936
H       23.51869011      13.42861462       4.04538059
H       25.01772499      15.99144650       4.36307955
H       29.06758499      17.99162865       4.37653875
H       27.49144363      15.28470135       4.02428818
H       24.94566727      14.88257504       2.67482591
H       23.70371819      17.50020790       5.75435257
H       27.69512177      16.50514412       5.74389458
H       28.87525940      13.79217148       2.65699100
H       21.30699348      15.33189106       7.64278126
H       27.43652153      18.15970421       0.83080173
H       31.34567642      15.95483875       0.78047472
H       25.29566574      13.21915436       7.62461329
H       30.70986176      16.58090019       3.08339858
H       25.85166550      13.80502129       5.31441259
H       21.91759300      14.64976788       5.34711933
H       26.74820328      17.49239349       3.09480309
C       19.20272827      13.00279331      10.19942474
C       20.26064301      15.77757835      12.61514378
C       24.35493088      18.29994965      12.71349335
C       23.22802162      15.57754803      10.18139839
C       19.92683411      13.85409451       9.41471863
C       19.54459572      16.64209366      13.39519978
C       23.54652214      17.47454453      13.42820644
C       23.94084740      14.71282959       9.40198898
C       20.27374268      13.48940086       8.08433151
C       19.18793297      16.30152702      14.72425461
C       23.18163490      17.79283905      14.76543617
C       24.23126984      15.02963543       8.04652119
C       16.43432617      14.42666340      14.38938999
C       23.06002045      17.14061546       8.35435295
C       27.01222610      16.87954903       8.31485558
C       20.30863380      14.16182518      14.40828228
C       26.74621582      17.19649124       9.62174225
C       20.65701485      14.51664543      13.12705040
C       16.77739716      14.02822971      13.12557411
C       22.78263283      16.81362343       9.64907360
H       18.94845772      13.30720711      11.21282387
H       20.55176926      16.05782700      11.60422325
H       24.62839699      18.02354813      11.69620514
H       23.01805305      15.31434441      11.21284103
H       20.24393845      14.82049656       9.77990818
H       19.23776627      17.59983063      13.02166557
H       23.15564156      16.53793335      13.01292706
H       24.30480194      13.76818752       9.78306389
H       16.72655869      15.40105820      14.75993252
H       22.73678398      18.08306885       7.94290543
H       26.64098549      15.94487190       7.88206577
H       20.61393166      13.20574951      14.81130219
H       26.14341164      16.52505684      10.22949219
H       21.22920799      13.83436489      12.50597763
H       17.34133339      14.68690681      12.49885082
H       22.21982193      17.49541092      10.28178596
C       14.63711548      13.10452271      17.36718750
C       15.61253643      15.83079624      19.78719711
C       19.64457321      18.35977745      19.75001717
C       18.47964859      15.56108284      17.32704735
C       15.35102177      13.95108128      16.56321716
C       14.86912155      16.68440247      20.54888725
C       18.85331535      17.52323341      20.49287033
C       19.21503258      14.70033836      16.56024361
C       15.70627117      13.56304932      15.24393558
C       14.50077343      16.33834076      21.87205696
C       18.50810623      17.85659409      21.82431602
C       19.57631874      15.04332447      15.23643684
C       11.74452972      14.48127270      21.53235817
C       18.44698906      17.17639351      15.54525566
C       22.38322639      16.92630005      15.54879951
C       15.66161251      14.21217918      21.57308006
C       22.04673195      17.25293350      16.82787895
C       16.02067566      14.58053398      20.30680847
C       12.12305546      14.06097698      20.28719521
C       18.09582901      16.82099342      16.81643486
H       14.35071754      13.42950916      18.35394669
H       15.89550591      16.13420105      18.78693962
H       19.92504692      18.06736374      18.74231338
H       18.19900513      15.28668022      18.34258652
H       15.63119411      14.92444038      16.91052628
H       14.55759621      17.65070343      20.15254974
H       18.49378395      16.59020615      20.08029556
H       19.51609039      13.73772144      16.95208931
H       12.02805710      15.47007847      21.89651489
H       18.17228889      18.14058685      15.13741302
H       22.04194832      15.99221420      15.10493851
H       15.96414280      13.24942112      21.98451233
H       21.42936897      16.58119392      17.41223145
H       16.61883545      13.89532280      19.71029854
H       12.72023678      14.73167229      19.65270233
H       17.49986458      17.50066185      17.42354393
C        9.81980038      13.23466587      24.46471024
C       10.87037182      15.86941719      26.87700653
C       14.74919891      18.26575470      26.83148956
C       13.73509407      15.57368755      24.45434761
C       10.57955074      14.05249119      23.67703247
C       10.10841274      16.71102142      27.63033295
C       13.98697758      17.42429924      27.58962059
C       14.49532223      14.72817421      23.70092964
C       10.98123741      13.63885021      22.37764359
C       28.52418518      16.35186577       0.42562640
C       32.42443848      17.77311134       0.38459831
C       14.88906765      15.08306217      22.38858795
C       25.75690842      14.42585278       0.16342539
C       13.73248959      17.20754433      22.68596840
C       17.71118546      16.99564362      22.62461853
C       29.71427536      14.24291992       0.13077360
C       17.39089394      17.33289337      23.90442467
C       11.28295040      14.61795902      27.39656830
C        7.31158829      14.04772186      27.42722893
C       13.34831905      16.83456802      23.94140434
H        9.50858021      13.57411385      25.44332123
H       11.16695023      16.17667389      25.87909698
H       15.04574013      17.96775627      25.83709908
H       13.42748642      15.25732708      25.45291901
H       10.87049103      15.03116322      23.99998283
H        9.78922558      17.66212082      27.26189995
H       13.65342522      16.46576309      27.20538139
H       14.78780174      13.75286484      24.08183861
H       26.06955147      15.37683487       0.56705791
H       13.43725491      18.17436218      22.27480698
H       17.36046982      16.07301903      22.18648148
H       30.03467178      13.28925896       0.52701861
H       16.75999451      16.66044426      24.49507141
H       11.88767242      13.95222855      26.79771805
H        7.92689085      14.70675659      26.82243347
H       12.73727894      17.52261734      24.54427719
C       23.79621887      18.63347244       3.01146579
C       24.94259834      21.37988281       5.51464796
C       28.99688721      23.85217857       5.51152992
C       27.88960648      21.22245598       3.04768586
C       24.58088112      19.47026443       2.28018618
C       24.30363274      22.21513176       6.39093637
C       28.28491402      22.96514702       6.26564980
C       28.67441177      20.37926865       2.31211352
C       24.96132660      19.13007736       0.95309848
C       24.04561234      21.80044174       7.72530174
C       27.91609764      23.28346252       7.59498405
C       29.00567245      20.68726158       0.97239590
C       21.21164322      19.95770645       7.33185816
C       27.74379539      22.75776291       1.19348192
C       31.95472336      22.70390511       1.24817407
C       25.07498550      19.65508652       7.19001579
C       31.63330460      23.05242157       2.52990794
C       25.33016205      20.07631493       5.92039156
C       21.49080086      19.65601921       6.02545118
C       27.41865730      22.43224907       2.48222709
H       23.51058197      18.90525818       4.00473213
H       25.14059830      21.72034073       4.50299692
H       29.29995537      23.57930183       4.50778246
H       27.62130356      20.95692062       4.07531357
H       24.93786812      20.41471672       2.68611479
H       23.99625397      23.19733238       6.09380674
H       28.00811958      21.99114418       5.86781597
H       29.02869415      19.44664383       2.73807669
H       21.58997345      20.85535431       7.78951359
H       27.39176369      23.69991684       0.74998099
H       31.62733269      21.76552582       0.82089531
H       25.35560226      18.65796471       7.49929285
H       31.04503632      22.37269783       3.14233375
H       25.82106590      19.41634560       5.20817041
H       22.10327530      20.34077454       5.43214607
H       26.80363274      23.11156654       3.07695913
C       19.37676430      18.51661682      10.22888470
C       20.41633415      21.24983215      12.80659962
C       24.54962158      23.95462227      12.90754318
C       23.57074547      20.92578125      10.34239197
C       20.15302658      19.36602402       9.48670673
C       19.61313248      22.08628654      13.52909565
C       23.77467918      23.09599876      13.63310814
C       24.19836426      20.08958817       9.46245480
C       20.42438316      19.08540535       8.12087345
C       19.23955917      21.76119041      14.86416149
C       23.38672066      23.42069626      14.95581627
C       24.44546700      20.50647545       8.12845993
C       16.50073051      19.85597229      14.44199753
C       23.40631485      22.64161110       8.66952324
C       27.21134758      22.35805130       8.41791153
C       20.49329567      19.68461609      14.62828922
C       26.89527893      22.67543221       9.70578861
C       20.85808754      20.02493286      13.35667419
C       16.86437607      19.50813484      13.17385101
C       23.16213036      22.21889305       9.94063473
H       19.17330360      18.74670601      11.27122498
H       20.71343803      21.52351189      11.80299664
H       24.85861778      23.67615128      11.90833759
H       23.38366508      20.59448051      11.34854794
H       20.55909920      20.26235580       9.93258476
H       19.25630188      23.02261162      13.11493587
H       23.43958473      22.15259743      13.21386528
H       24.51516533      19.09586906       9.75032139
H       16.83215713      20.78016853      14.89275360
H       23.11083412      23.63278389       8.35255814
H       26.94527435      21.40822029       7.98869991
H       20.81372452      18.73749733      15.05471992
H       26.36456680      21.96199226      10.31473541
H       21.47697830      19.37161827      12.77893353
H       17.50635719      20.16838455      12.59023952
H       22.65270042      22.87488174      10.63688183
C       14.54838467      18.46958542      17.29190063
C       15.63055611      21.34066582      19.78099632
C       19.70040131      23.99173164      19.86554527
C       18.52265930      21.03443718      17.47593880
C       15.33288956      19.31437111      16.56055832
C       14.82207108      22.17153168      20.50835800
C       18.95700073      23.15630722      20.64916801
C       19.31588936      20.19787979      16.73601532
C       15.68910885      18.99214363      15.22623825
C       14.46532059      21.84863091      21.84297943
C       18.62212563      23.51437378      21.97249794
C       19.69288635      20.53732300      15.40894032
C       11.69794655      19.76738167      21.55178642
C       18.42051697      22.61243629      15.64687157
C       22.59230042      22.54860878      15.72862244
C       15.77074432      19.79887390      21.63143158
C       22.20443153      22.90025520      16.99739838
C       16.11496544      20.13594437      20.35407257
C       12.02663326      19.38483810      20.28242683
C       18.07215881      22.24947357      16.92421341
H       14.28887272      18.73714256      18.29684448
H       15.89015961      21.60028458      18.76677704
H       19.95196533      23.69315910      18.85150719
H       18.24325752      20.75290489      18.48251343
H       15.67913914      20.24092674      16.98250008
H       14.45206547      23.09336281      20.08349228
H       18.62359047      22.19606209      20.27194595
H       19.66281509      19.25010300      17.13916206
H       12.08734608      20.69008255      21.96297836
H       18.07307053      23.54241943      15.22330189
H       22.26915550      21.61418724      15.31088829
H       16.10953140      18.87662697      22.07600403
H       21.55604935      22.23201752      17.58383942
H       16.74984169      19.46449089      19.76594353
H       12.67815399      20.00624847      19.68145561
H       17.44900131      22.91501045      17.51498604
C        9.72223568      18.51515961      24.44791985
C       10.84077740      21.34215355      26.84848785
C       14.94626331      24.13460732      26.84655952
C       13.76521206      21.14973259      24.46223259
C       10.53796101      19.31130409      23.69734001
C       10.06007862      22.19090271      27.58819580
C       14.23289585      23.26457214      27.61609459
C       14.58047962      20.32075310      23.74230766
C       10.86623096      18.95642471      22.36536026
C       28.53771782      21.89390755       0.40803039
C       32.69512939      23.59135437       0.42676646
C       14.94697189      20.64498901      22.41086388
C       25.76135445      19.98834038       0.16209061
C       13.63644409      22.69354057      22.61937141
C       17.86804962      22.66282654      22.81032181
C       29.79108810      19.81083107       0.18375561
C       17.51878738      23.05442238      24.07107925
C       11.30675030      20.13684463      27.42016792
C        7.32841682      19.62262154      27.41844749
C       13.29051876      22.35159302      23.89817047
H        9.47297668      18.82187080      25.46263504
H       11.07975197      21.59550095      25.82526970
H       15.20472050      23.85890961      25.84079552
H       13.49004650      20.86711693      25.47578430
H       10.92809105      20.22881889      24.10359383
H        9.68162537      23.11261940      27.16488075
H       13.92890835      22.29405975      27.22573662
H       14.93390560      19.39001846      24.16928864
H       26.09101868      20.91110229       0.58721697
H       13.28398418      23.60796738      22.17048645
H       17.54806519      21.69853592      22.41805267
H       30.11955643      18.87184143       0.61102700
H       16.91612244      22.39800644      24.69585609
H       11.90581131      19.44824982      26.81557083
H        7.96479034      20.28953934      26.82809067
H       12.63843250      23.00046539      24.47585487
C       30.93768883      51.46102524       9.26082611
C       -8.40609741      50.78944778      14.23491764
C       30.49862671      52.16911316      10.34534931
C       -7.96720409      50.09529495      13.15018463
C       30.84364891      51.77348328      11.65673828
C       31.58319855      50.58446503      11.83857632
C       30.49215698      52.51760864      12.81274605
C       32.04172134      49.88463593      10.70231152
C       31.73912048      50.31842422       9.43973351
C       -9.02965450      52.04763031      14.06424618
H       30.69754028      51.79759216       8.25838566
H       -8.25787067      50.40271759      15.22655678
H       29.90768623      53.06987381      10.21828842
H       -7.46038580      49.13041687      13.27623558
H       30.09883881      53.51686859      12.68002701
H       -7.15462875      48.97818756      10.86349201
H       32.08946609      49.76091003       8.56802845
H       -9.25963497      52.65280151      14.91836357
C        4.03724241      55.72550583       3.86590981
C        4.79364586      51.28452301       1.65401745
C        3.21768522      54.83818817       3.24005198
C        5.63656092      52.21772385       2.18486714
C        3.71708560      53.61546707       2.75292039
C        5.11680794      53.38153076       2.79748154
C        2.86554360      52.59372711       2.24709105
C        5.93191147      54.29872894       3.48893237
C        5.39110994      55.41133881       4.06591654
C        3.39841890      51.45163345       1.72594178
H        3.63080788      56.64924240       4.25634146
H        5.17936182      50.36419678       1.21841419
H        2.16279268      55.04277039       3.17391014
H        6.71554565      52.06270981       2.16714859
H        1.80106938      52.73704147       2.30671716
H        6.98826361      54.09938431       3.54894304
H        6.01653147      56.06366730       4.67231369
H        2.75176287      50.66070557       1.36658812
C       29.31799126      48.53910065      11.00531769
C       28.43805122      46.73488998      15.58694267
C       28.95384026      49.10975647      12.18423843
C       28.87044907      46.14966965      14.43251705
C       28.88584518      48.33745575      13.36708927
C       29.12486458      46.94750977      13.29131985
C       28.55651474      48.92099380      14.61037827
C       29.57160950      46.39031982      12.07421303
C       29.67062950      47.16837692      10.95687962
C       28.32975006      48.13658905      15.69838619
H       29.38061905      49.13569641      10.11757946
H       28.21762466      46.10446167      16.42580223
H       28.74528694      50.17711639      12.23915577
H       29.00477600      45.07982636      14.37525749
H       28.47088623      49.99969482      14.66674137
H       29.79570580      45.32791519      12.03848076
H       30.01106071      46.73404312      10.03034592
H       28.06104279      48.57461548      16.64929390
C       15.53767872      37.84511566      12.31015110
C       15.89843750      35.70484161      16.84090042
C       14.81699085      36.89628220      12.94804287
C       16.53950310      36.74894333      16.25188255
C       15.14260101      36.52041626      14.27849293
C       16.20552444      37.15822601      14.94388199
C       14.45242214      35.48656845      14.92989540
C       16.85213661      38.22983933      14.28945255
C       16.54222107      38.55743027      13.01020050
C       14.86596584      35.05475235      16.15194511
H       15.30411530      38.09837723      11.28756332
H       16.20594406      35.38265610      17.82671928
H       14.00018883      36.37170029      12.45725822
H       17.29578781      37.26894760      16.78250122
H       13.62224674      35.00164795      14.42776966
H       17.56772614      38.80706787      14.82173824
H       17.00677490      39.40959549      12.53432274
H       14.39997673      34.19983673      16.57412529
C       10.63394070      52.16957092      20.03607750
C       13.75977707      48.27616501      19.56146049
C       10.66288185      51.10667801      19.19075775
C       13.64382362      49.27658844      20.47814941
C       11.65916347      50.11680603      19.32676888
C       12.59573746      50.21475601      20.38103676
C       11.78639698      49.06389999      18.40490341
C       12.49030685      51.28934860      21.28944778
C       11.54861259      52.25728226      21.10000610
C       12.81372929      48.17381287      18.52070236
H        9.91051960      52.95722580      19.90997124
H       14.58209896      47.58161163      19.59447479
H        9.94871521      51.01570892      18.38139343
H       14.37331390      49.42055130      21.26277924
H       11.06291962      49.00807953      17.60297394
H       13.18337727      51.31287384      22.11232567
H       11.46949005      53.09659576      21.75503349
H       12.90411091      47.37252045      17.80446053
C        8.75253773      40.28822708      11.89272213
C       10.11584759      39.44867325      16.71602249
C        7.97733784      40.03520966      13.13423538
C       10.73736095      39.95068741      15.59006786
C        8.78727818      39.52144623      14.27854919
C       10.12647724      39.89118195      14.34830952
C        8.14686298      39.07416153      15.42343903
C       10.89297581      40.18670654      13.09798241
C       10.06191826      40.45400238      11.89297581
C        8.82591724      38.95819473      16.62393761
H        8.18424988      40.43345642      10.99270821
H       10.65994358      39.41733933      17.63267136
H        7.16386747      39.35868835      12.92629051
H       11.73590755      40.33260345      15.68076897
H        7.08355522      38.87152481      15.37661552
H       11.58723450      41.00969696      13.28422642
H       10.62329865      40.68394089      10.98272800
H        8.33138847      38.52287674      17.49241638
C        8.94930458      41.48591614       8.88926220
C        8.25683975      43.47225189       4.39587069
C        8.55697250      40.90747452       7.75166464
C        8.15108585      44.00335312       5.66121769
C        7.99479961      41.69430542       6.62668276
C        8.17141819      43.17670441       6.79506779
C        8.47942352      41.25624084       5.32003355
C        8.47524452      43.70417023       8.05964184
C        8.86535549      42.89392090       9.08717728
C        8.48499680      42.07425308       4.25877810
H        9.38734913      40.88829422       9.66508961
H        8.24003124      44.09535599       3.51998615
H        8.65538979      39.82879639       7.62186384
H        8.13269806      45.07277679       5.79337883
H        8.68812466      40.20111465       5.22938585
H        8.47974873      44.78947830       8.18686390
H        9.15079021      43.31649017      10.03394127
H        8.68089390      41.61103821       3.31619763
C        6.48320580      57.59058762      23.53483391
C       11.03145313       0.25470850      24.88736534
C        7.66610622      57.72167587      22.87081718
C        9.90929413      58.87345123      25.59854698
C        8.84512138      58.07209778      23.56410980
C        8.78313351      58.31579590      24.94968796
C       10.05255127      58.32674789      22.87135506
C        7.56779575      58.08064270      25.63283730
C        6.44524860      57.72489166      24.94264221
C       11.12280750      58.88075256      23.51925850
H        5.58147621      57.35430145      22.99958992
H       11.87999630       0.70202738      25.37417603
H        7.71665812      57.60175705      21.79337502
H        9.85694504       0.14097269      26.67027473
H       10.06292248      58.16351318      21.79838753
H        7.53575230      58.21673203      26.70067787
H        5.50824928      57.57566834      25.46275902
H       12.04222488       0.18606655      22.97342300
C       11.68080425      44.71605682       9.86182213
C       14.01255989      46.06077957      14.08311176
C       11.36158943      44.56563187      11.17901421
C       14.14125252      46.46073914      12.78309250
C       12.18247700      45.14818192      12.18043327
C       13.25980473      45.97525406      11.78892517
C       12.04541969      44.77922058      13.54252911
C       13.54385757      46.14385605      10.41542721
C       12.80902958      45.47466660       9.47853661
C       12.96444225      45.19595337      14.46700954
H       11.06186390      44.24668121       9.09567547
H       14.70500088      46.41643906      14.81538773
H       10.51392365      43.95702744      11.48482704
H       14.94619560      47.13153458      12.49639034
H       11.24289513      44.12975311      13.81578350
H       14.36753273      46.77344513      10.11886597
H       13.05712605      45.56122208       8.43271732
H       12.88840008      44.86408234      15.50227261
C       10.06268215      41.85307693      18.84576607
C       14.68308926      40.02715683      19.69496727
C       10.55278206      40.84499741      19.61822510
C       14.20071888      41.04689407      18.92082787
C       11.93332386      40.52348328      19.61301041
C       12.81090450      41.29835510      18.82891273
C       12.45191002      39.44627380      20.37205505
C       12.26735210      42.32453156      18.00118065
C       10.93431854      42.59458923      18.00895691
C       13.79714203      39.19970703      20.40647125
H        9.00716686      42.09104538      18.86696053
H       15.74661732      39.88219070      19.76952744
H        9.89056110      40.28114700      20.24870300
H       14.89073467      41.70886230      18.41548920
H       11.77226448      38.83241272      20.92769051
H       12.94080734      42.89686966      17.37731934
H       10.52836514      43.39105225      17.40962219
H       14.18541527      38.38443375      21.00277328
C       27.22944260      32.80744934      10.69062614
C       28.94236565      31.49163818       6.14929342
C       27.37986374      31.60557365      10.06333447
C       28.83016396      32.68774414       6.79841852
C       27.88864899      31.55379868       8.74144650
C       28.28586388      32.75445175       8.10782528
C       28.01519966      30.32310486       8.04086208
C       28.12471962      33.97871399       8.78402233
C       27.58618164      34.01137924      10.03380108
C       28.51898956      30.29630852       6.77443695
H       26.81192398      32.85723877      11.67888927
H       29.37392235      31.45793152       5.16082048
H       27.08946419      30.68143272      10.54613209
H       29.17376900      33.60881805       6.33949280
H       27.71441460      29.40438652       8.53796768
H       28.42828941      34.89686966       8.28463078
H       27.42606163      34.95283127      10.54908371
H       28.61480522      29.35094261       6.26604939
C       13.18088722      29.09872818      11.02711868
C       11.64559174      31.52478027       6.92475367
C       12.84106922      28.69165611       9.77131653
C       12.11038685      31.93593788       8.13810158
C       12.60523224      29.62725258       8.74036884
C       12.61669636      30.99834251       9.06491661
C       12.28684902      29.26083183       7.40435886
C       13.05996513      31.39999580      10.34386063
C       13.35001850      30.47247505      11.30142403
C       11.82028389      30.18491745       6.52159548
H       13.35739422      28.38156891      11.80164719
H       11.19654942      32.21451187       6.24913311
H       12.72338963      27.62915802       9.57193756
H       12.06486320      32.98593140       8.41532516
H       12.38461876      28.21917343       7.10250711
H       13.11361790      32.46498489      10.55144691
H       13.68957710      30.77696609      12.27243233
H       11.56678867      29.90151978       5.50525427
C       15.50828171      46.31846237      25.63331223
C       17.88721657      50.10356140      23.33204079
C       15.55939770      46.76302719      24.34716797
C       17.85630417      49.66766739      24.61973953
C       16.33654976      47.88851547      23.98901939
C       17.06746292      48.55532455      24.99430847
C       16.35779381      48.38086319      22.66526794
C       16.97539520      48.09973907      26.32959557
C       16.21026230      47.01018524      26.64560699
C       17.09912109      49.47819138      22.34128380
H       14.90553188      45.44890213      25.88801956
H       18.52948380      50.93368912      23.06317711
H       15.00098705      46.28964615      23.56346512
H       18.44865417      50.17142868      25.37139893
H       15.76321793      47.87696457      21.91586113
H       17.49793434      48.64293289      27.10545158
H       16.13026810      46.68738556      27.67653465
H       17.11291122      49.86493301      21.33370209
C        9.71040726      51.68515396       2.17935920
C        8.93364239      54.98883438       5.86713219
C        9.93877888      53.02472687       2.28656149
C        8.58635139      53.68372726       5.68956137
C        9.57098484      53.72298813       3.46244407
C        8.90662765      53.01834869       4.48994350
C        9.89100742      55.08571243       3.65896463
C        8.56219959      51.66020584       4.29193735
C        8.98938751      50.99338150       3.17770171
C        9.61695194      55.68507767       4.84748983
H       10.06414986      51.15928268       1.30443192
H        8.66491318      55.49562073       6.78892040
H       10.42472458      53.57430649       1.49347186
H        8.06515980      53.13552094       6.45102739
H       10.37713432      55.63734055       2.86751962
H        7.96399164      51.16213226       5.04135227
H        8.76438713      49.95185471       3.04452491
H        9.91670227      56.70732117       5.00008678
C       24.75711060      34.38402176      18.74899292
C       25.28606224      34.46258163      13.76929951
C       24.91475677      35.38681030      17.83377075
C       25.00647163      33.47120666      14.65025997
C       24.93449211      35.11002731      16.44761848
C       24.83915901      33.76279068      16.02383232
C       25.15544510      36.13289642      15.48905563
C       24.69113350      32.74572372      16.98930168
C       24.63292503      33.04438782      18.32121277
C       25.33334923      35.81008911      14.18385696
H       24.72327042      34.61638641      19.79041672
H       25.50977135      34.21612167      12.73830414
H       25.05100060      36.40582275      18.14041901
H       25.00614929      32.42398071      14.33310318
H       25.24996185      37.15744019      15.83179569
H       24.63730431      31.71932220      16.65207481
H       24.48013306      32.26362228      19.05596352
H       25.55964088      36.57394028      13.44231319
C       13.02971268      58.40141296      20.49265480
C       17.31403351      55.86890411      21.19713402
C       14.30411339      58.58601379      20.03315735
C       16.08115768      55.81311798      21.76749039
C       15.32508659      57.66561890      20.37681961
C       15.03988457      56.64353561      21.31304169
C       16.61507416      57.70061874      19.80251694
C       13.70832157      56.45183182      21.74596596
C       12.72750854      57.28925705      21.30745697
C       17.57150459      56.79435730      20.16770363
H       12.23416138       0.17907789      20.21671295
H       18.11364937      55.21705627      21.53834534
H       14.54117393       0.48632291      19.38693047
H       15.86406422      55.11968231      22.57458496
H       16.83423996      58.45264816      19.04966736
H       13.48645592      55.61289978      22.40210533
H       11.71550274      57.10517883      21.62753296
H       18.54503632      56.78391647      19.69362831
C       26.00478172      52.17045593      11.98957157
C       26.37582588      51.13228989      16.90405083
C       26.08853531      52.95297241      13.10612869
C       26.07505417      50.38266373      15.81003666
C       26.14588547      52.36303329      14.39978600
C       26.01068497      50.96724319      14.51860237
C       26.35334206      53.12810516      15.57891846
C       25.85332870      50.18786621      13.35580826
C       25.88842201      50.76270676      12.11378288
C       26.53375435      52.53031921      16.78483582
H       26.02491379      52.60970306      11.00452900
H       26.46904182      50.65811157      17.87460327
H       26.15397644      54.02672577      13.00866508
H       25.89376259      49.32470322      15.89716244
H       26.35033798      54.20609283      15.49393749
H       25.74848747      49.12173843      13.46736431
H       25.84885597      50.16113663      11.22113132
H       26.76067734      53.14655685      17.65731812
C       21.31715202       0.20373034      15.81927109
C       20.53480911      54.17695618      15.70739079
C       21.13909912      58.19622040      16.79150009
C       20.85241508      55.09766769      14.76131630
C       21.02730751      56.82697296      16.47562408
C       21.08074951      56.44999313      15.11499405
C       20.72762489      55.83896637      17.44579697
C       21.26298523      57.43273926      14.12318230
C       21.38825417      58.74568558      14.46404552
C       20.46541405      54.55239487      17.07369995
H       21.42011070       1.24273992      16.09911919
H       20.36272812      53.14970398      15.43297291
H       21.07425690      58.47910309      17.84215164
H       20.90570450      54.84328079      13.71887779
H       20.67193031      56.14302444      18.47563744
H       21.21818542      57.11785889      13.09102631
H       21.52305794       0.57007289      13.69480991
H       20.22452354      53.79763031      17.80659676
C       24.24144745      29.33031654       3.31821823
C       27.87754631      31.96749115       1.03477812
C       24.55131722      29.55315781       2.00598621
C       27.60743332      31.67582130       2.33625007
C       25.66906738      30.35375023       1.65087366
C       26.48682404      30.88680840       2.68038583
C       25.96251488      30.69060135       0.30687720
C       26.15298080      30.61818886       4.03267670
C       25.04924965      29.88055992       4.34182596
C       27.03540421      31.48655891       0.00627506
H       23.35870743      28.73822594       3.58070993
H       28.74421692      32.57309341       0.78749877
H       23.91909981      29.16445541       1.20673800
H       28.24899673      32.04677200       3.13659072
H        6.52159643      30.31044960      28.05291367
H       26.77181625      31.02799034       4.81362295
H       24.80797386      29.71947289       5.36994743
H        8.42644024      31.76828766      27.49788475
C       22.74134064      39.48771667      15.15549374
C       23.82846642      43.24539566      18.30224991
C       22.60644531      40.84032059      15.08125019
C       24.02534294      41.89071655      18.35087204
C       23.05398560      41.66493225      16.13476944
C       23.65163803      41.07444763      17.26469231
C       22.86183548      43.06747055      16.10976982
C       23.75959969      39.65753555      17.32517624
C       23.29542923      38.88787460      16.30704880
C       23.24165726      43.83946228      17.16611862
H       22.44191170      38.86441040      14.33417606
H       24.11395454      43.86864090      19.15312576
H       22.16247559      41.31638718      14.20535374
H       24.44069099      41.43085480      19.22270203
H       22.39246559      43.49251556      15.23563099
H       24.16915321      39.21990585      18.21548653
H       23.29398155      37.80717468      16.36779785
H       23.10676193      44.92240143      17.13314438
C       -4.88031721      37.70972061      20.91353226
C       -2.47985029      34.74699020      17.65410995
C       -4.85614014      36.36255264      20.73313904
C       -2.67722011      36.09451294      17.74105072
C       -4.13650656      35.78611755      19.65949440
C       -3.47139335      36.64665985      18.75767517
C       -3.96713400      34.39057541      19.51271439
C       -3.54974413      38.05003357      18.94120026
C       -4.21634293      38.56322861      20.01089668
C       -3.13886738      33.88143158      18.55026436
H       -5.38017893      38.13006973      21.77648544
H       -1.84406710      34.33334351      16.86605263
H       -5.33739948      35.69977188      21.46905327
H       -2.20999622      36.76275635      17.03921318
H       -4.44264364      33.72352982      20.23141670
H       -3.01189232      38.69850159      18.25885582
H       -4.24105263      39.62781906      20.18040085
H       -2.99283528      32.81277847      18.49302864
C       13.60997581      42.61168289      12.68091774
C       17.69219589      42.89849854      15.70302105
C       13.91562653      41.88177872      13.93052387
C       17.39117050      43.32833862      14.43810940
C       15.16634178      42.36984253      14.60007763
C       16.13013840      43.06943130      13.86135864
C       15.45644379      42.01653671      15.90863991
C       15.81488895      43.54053497      12.56231499
C       14.55540943      43.32173920      12.00876713
C       16.70738983      42.25119019      16.45577812
H       12.65160370      42.43980789      12.21560001
H       18.67300797      43.10049438      16.13861084
H       13.07218838      41.87922287      14.60366154
H       18.12134171      43.86415100      13.84578896
H       14.68301582      41.52593613      16.48686218
H       16.55043602      44.09223938      12.01449490
H       14.32243824      43.73651886      11.05190182
H       16.91202736      41.95381546      17.46706009
C       -9.33707333      50.47290421      24.87183762
C       -9.95601845      45.56471252      25.73041725
C       -8.48546886      49.43971252      25.13555336
C      -10.81843662      46.61078262      25.69064522
C       -8.98939896      48.13700485      25.30292702
C      -10.37403393      47.92320633      25.39785194
C       -8.11934948      47.03049088      25.27060890
C      -11.23769379      49.00563049      25.10057449
C      -10.72623920      50.23500061      24.79986572
C       -8.58163548      45.75949860      25.48199463
H       -8.94503498      51.45296097      24.63260269
H      -10.32494640      44.55721664      25.92260742
H       -7.41601801      49.59628296      25.12670517
H      -11.89347267      46.44544601      25.82354927
H       -7.10398006      47.23818588      24.99192429
H      -12.31650925      48.84063339      25.07107544
H      -11.38267899      51.05181503      24.51766205
H       -7.92195511      44.90354156      25.44729996
C        4.06451035      43.85551453      17.55651855
C        1.57426953      46.33457184      13.97381878
C        4.07440710      45.15250397      17.13807487
C        1.52337241      45.05486298      14.44047928
C        3.17061424      45.58825302      16.14452744
C        2.30772185      44.64749908      15.54489708
C        3.15826559      46.92790222      15.68696117
C        2.28557134      43.32956696      16.04106140
C        3.13725734      42.94319916      17.02533531
C        2.38612223      47.29147339      14.62094879
H        4.78171110      43.51683426      18.29535294
H        1.00228357      46.61140442      13.10507011
H        4.76205206      45.86650085      17.56572914
H        0.91657811      44.30592346      13.95202160
H        3.77701521      47.65114975      16.18863869
H        1.57078707      42.62667847      15.62796402
H        3.12555861      41.93119049      17.39548874
H        2.40224123      48.31399918      14.26939774
C        5.71405411      57.06219864      16.55101585
C        0.92129338      58.63622284      16.42637825
C        4.81113195      57.25611877      15.54879475
C        1.77478850      58.30339050      17.43816948
C        3.52592874      57.78577423      15.82885265
C        3.11522484      57.92617035      17.17444801
C        2.65586567      58.24388123      14.81266022
C        4.08094645      57.74152374      18.19361877
C        5.35910225      57.37776947      17.88223267
C        1.38983560      58.64739990      15.09553909
H        6.71062469      56.70948791      16.32205963
H       -0.10229702      58.90713501      16.64603233
H        5.06529856      57.06458664      14.51426315
H        1.42742193      58.31795502      18.46617699
H        3.01975417      58.25646591      13.79434586
H        3.82581162      57.94526672      19.22178268
H        6.09351873      57.33657837      18.67029572
H        0.74910462       0.03146486      14.29770470
C       16.97248650      42.51941299      25.34811783
C       21.82892036      41.26683807      25.63898087
C       18.11497116      43.23468018      25.55378342
C       20.70037842      40.59472275      25.25900841
C       19.39726067      42.63588715      25.40300560
C       19.45792007      41.26247025      25.10980415
C       20.60677528      43.34088898      25.62288666
C       18.26331711      40.57994843      24.75602722
C       17.04935265      41.18584824      24.89226341
C       21.79164505      42.67568970      25.76640320
H       16.00228691      42.98080063      25.52612877
H       22.76136589      40.73900986      25.77821922
H       18.04647827      44.25816345      25.86236191
H       20.74499702      39.54325867      25.07761955
H       20.57487488      44.42689514      25.70699310
H       18.31980324      39.54216385      24.41018486
H       16.14525795      40.64516830      24.68731499
H      -17.07462502      43.22122955      25.95399666
C       14.22442245      30.96279144      19.59729385
C       13.67543697      28.19993210      15.42325687
C       14.95206356      30.86426353      18.44471550
C       12.96094418      28.33365631      16.57436943
C       14.55653381      29.98059845      17.41138077
C       13.36476898      29.23180962      17.58787155
C       15.26766300      29.84186172      16.19029045
C       12.59511185      29.40727997      18.76343727
C       13.02532864      30.23989868      19.74913216
C       14.83126831      28.97563362      15.22373772
H       14.57289600      31.59697914      20.39067268
H       13.33042145      27.52126122      14.63518524
H       15.85175228      31.44894600      18.31392288
H       12.07003498      27.76723099      16.75581551
H       16.15100670      30.45759201      16.03009224
H       11.66802216      28.83801079      18.86946487
H       12.45466709      30.34124756      20.65211296
H       15.37259769      28.88288689      14.27904701
C      -17.07652283      51.47168350      26.27846718
C      -15.50424576      56.18955994      25.57978249
C      -16.39888954      52.09323502      25.26689911
C      -16.13828278      55.54922867      26.60725594
C      -15.98541069      53.44425201      25.40757751
C      -16.36576271      54.15969467      26.56380463
C      -15.24034595      54.10995483      24.40370369
C      -17.00304604      53.46742249      27.62313461
C      -17.32761574      52.15174866      27.49127960
C      -15.00845718      55.45402527      24.47787285
H       22.33296013      50.45455551      26.14579201
H      -15.39888096      57.26387405      25.61849403
H       23.59716415      51.56389999      24.35690308
H      -16.50982857      56.09458160      27.44860458
H      -14.87668896      53.53759384      23.55309105
H        1.57701159      54.00734329       0.01251038
H      -17.82128525      51.62863922      28.30879402
H      -14.45580387      55.94826889      23.69907570
C       -8.18884659      29.97621918      21.97522926
C       -5.04678726      30.37623787      18.09000206
C       -7.05021572      29.30973244      21.63247108
C       -6.32536030      30.80638313      18.30642509
C       -6.39091969      29.57184792      20.40887260
C       -7.01734495      30.42727280      19.48005104
C       -5.09492636      29.07667923      20.11801720
C       -8.29970932      30.93699646      19.79067421
C       -8.84717846      30.77725410      21.02355003
C       -4.43211746      29.49025154      18.99840546
H       -8.62483883      29.85777664      22.95399857
H       -4.51916027      30.68735123      17.20407677
H       -6.61879873      28.58652496      22.31704330
H       -6.82676506      31.44375801      17.59541321
H       -4.63225126      28.39195824      20.82988548
H       -8.82437325      31.48573685      19.03590584
H       -9.79308033      31.23715019      21.26410294
H       -3.44185257      29.10644913      18.78586578
C        3.71749091      46.91043472      11.77593899
C        3.28756833      47.54541397       6.82026291
C        3.75392985      46.05294037      10.71976566
C        3.27366114      48.40695953       7.87478018
C        3.63475657      46.54299927       9.39268303
C        3.45536137      47.92699814       9.19184875
C        3.67931676      45.67840195       8.27432537
C        3.38057280      48.79534912      10.31327820
C        3.51827669      48.29946136      11.57647991
C        3.50508904      46.16566086       7.00507212
H        3.82028985      46.52090073      12.77799606
H        3.14034128      47.92780685       5.80819416
H        3.88677382      44.98889542      10.87183189
H        3.08199048      49.46986389       7.72971630
H        3.82559443      44.61340714       8.43948746
H        3.18753195      49.86071777      10.16527557
H        3.44915247      48.96862411      12.43908119
H        3.51386642      45.49198532       6.15991879
C       -0.11719198      34.99828339      25.91030502
C        0.82434791      39.32010269      23.51228714
C        0.04188224      36.28494644      26.33674049
C        0.82036537      38.00870132      23.14096832
C        0.37806839      37.31895828      25.42041779
C        0.58854544      36.97399521      24.07258034
C        0.50102478      38.68271637      25.80400276
C        0.47976980      35.62258911      23.67380905
C        0.11412638      34.65405273      24.56263542
C        0.70095778      39.65523529      24.86918449
H       -0.41890508      34.22442627      26.61319733
H        0.95441192      40.08616638      22.76900864
H       -0.11555093      36.53004074      27.38017654
H        0.95606995      37.73492813      22.10802460
H        0.42431977      38.95376968      26.84045982
H        0.61848283      35.38438034      22.64851189
H       -0.01873048      33.62684250      24.23456383
H        0.77096850      40.69839096      25.18455124
C       32.06559372      38.01625442       2.12517381
C       28.17687035      41.15339661       1.73117959
C       30.74408531      37.84179306       1.83711040
C       29.52116966      41.34833145       1.83791101
C       29.86272812      38.94146729       1.75034380
C       30.39978409      40.24210739       1.86886024
C       28.45674896      38.76892471       1.64232171
C       31.80142784      40.39731979       2.00277209
C       32.61571884      39.31642151       2.16631651
C       27.63646317      39.85055161       1.65555155
H       32.69309235      37.16501617       2.32170486
H       27.52352905      42.01334381       1.68836546
H       30.32921600      36.85018539       1.74862802
H       29.94748688      42.35559464       1.89626241
H       28.03799057      37.77371979       1.57826579
H       32.20326614      41.39834213       1.99893355
H       33.67588043      39.43848801       2.31408167
H       26.54911232      39.72080994       1.60013068
C        8.94418526      55.24901581      25.48772430
C       13.11368370      54.46450424      28.15274239
C       10.25031757      54.98062134      25.14414024
C       11.76587677      54.31732559      28.45355034
C       11.19237518      54.61860275      26.09952164
C       10.78466511      54.50980759      27.44456100
C       12.63521385      54.42073822      25.72212219
C        9.43152714      54.75618362      27.77648163
C        8.53098679      55.14589310      26.81915665
C       13.53843784      54.67016220      26.86146164
H        8.25379753      55.62569809      24.75371742
H       32.63770676      54.50917053       0.43540573
H       10.57692242      55.11465836      24.09312820
H       30.22082710      54.26263046       0.95496553
H       12.87387562      55.08721924      24.88176918
H       27.94272995      54.70962143       0.29026106
H        7.51170397      55.42344284      27.09178162
H       14.57470417      54.90234756      26.65704346
C        2.21755219      58.36879730       2.23451638
C       -1.91234624      56.44334793       4.37153721
C        1.54156744      58.63226700       3.38788795
C       -1.20254958      56.11617279       3.24648809
C        0.40915784      57.86559296       3.75305510
C       -0.02630005      56.82655716       2.90407181
C       -0.34178400      58.18127441       4.91866302
C        0.69909257      56.56884766       1.71294022
C        1.79481602      57.31602859       1.39613593
C       -1.47648978      57.49178314       5.21536493
H        3.06080174       0.03909085       1.94814909
H       -2.79172230      55.88038254       4.64381599
H        1.84870076       0.53359413       4.02745581
H       -1.52857828      55.28823090       2.60983229
H       -0.02296406       0.06808211       5.53287077
H        0.35990882      55.76263046       1.04497111
H        2.36154103      57.11985779       0.48010182
H       -2.05721545      57.74452209       6.09976387
C       32.34013367      55.95427322       3.33781600
C       29.54706955      56.91835022       7.40031719
C       32.37072754      56.94672775       4.27815199
C       29.50467300      55.95484924       6.43762541
C       31.40432167      56.98585129       5.31033659
C       30.40905190      55.98455048       5.35250854
C       31.40675354      57.98995590       6.31152821
C       30.34470940      55.02526855       4.31638861
C       31.30125809      54.99683762       3.34536576
C       30.49740791      57.95831299       7.32749128
H       33.09695435      55.88109207       2.57538152
H       28.80978584      56.89384460       8.17551136
H       33.14543533      57.70530701       4.25702810
H       28.77432251      55.16158676       6.49588823
H       32.13450241      58.80402756       6.23909473
H       29.54258728      54.29909515       4.32176256
H       31.29581833      54.22547150       2.59062600
H       30.47254562      58.74311829       8.07895851
C       16.37706947      28.49663734      10.26633644
C       19.69448471      28.00765800       6.53459692
C       16.32847214      28.81099701       8.94284248
C       19.77021408      27.86765862       7.89029121
C       17.45890236      28.60668373       8.12170887
C       18.65285301      28.13624763       8.71206856
C       17.41750336      28.77252769       6.71987915
C       18.69169044      27.88928413      10.10208511
C       17.57508659      28.03913879      10.86225510
C       18.49560165      28.45957947       5.94845486
H       15.49003983      28.59348869      10.87394714
H       20.54948616      27.78704071       5.91633129
H       15.41180134      29.16407776       8.50257874
H       20.67949867      27.53092003       8.36927319
H       16.50710106      29.10979462       6.25985003
H       19.60832024      27.52813530      10.52688026
H       17.59219551      27.82406807      11.92209911
H       18.42211151      28.55793381       4.87240934
C        1.87117565      33.08726883      28.27826309
C       22.53797531      33.33323288       4.41558456
C       21.84872055      32.68634033       0.31319147
C       21.31119919      33.60343552       3.89187789
C       22.07087898      32.84190369       1.70528674
C       21.05030060      33.38795090       2.51882458
C       23.33835793      32.58382797       2.27673936
C       19.83243179      33.76507568       1.91359842
C       19.65857506      33.64411163       0.56644601
C       23.56766891      32.83840179       3.59572601
H        1.71594453      33.03323364      27.21190834
H       22.74486923      33.49988937       5.46572638
H        3.84922147      32.31746674      28.22146606
H       20.50832939      33.98667526       4.53328896
H       24.12318230      32.25570679       1.62443197
H       19.03556633      34.17753220       2.53144979
H       18.75540543      33.98250580       0.11324646
H       24.56296158      32.69139481       4.01639366
C       -5.82241058      44.41654205      18.68133926
C       -2.10292649      41.13166428      19.51087379
C       -5.19070864      43.97074127      19.80199814
C       -2.69829679      41.60068512      18.37889290
C       -4.13919497      43.02716446      19.70519447
C       -3.73180604      42.56402969      18.43665314
C       -3.47123003      42.55970764      20.85419464
C       -4.38789320      43.06125259      17.28126144
C       -5.41346073      43.95654678      17.40496254
C       -2.47672391      41.63391113      20.77151680
H       -6.64206696      45.10408020      18.75811386
H       -1.32311320      40.38219452      19.45176506
H       -5.48736143      44.32709885      20.78689575
H       -2.37160206      41.23998261      17.41401672
H       -3.72315145      43.03065109      21.78164101
H       -4.09050989      42.71040344      16.29634094
H       -5.93737221      44.30632401      16.52266121
H       -1.94450033      41.31480026      21.65884972
C       36.06861114      53.41355896       2.65798044
C       34.09061432      51.56972504       6.89270115
C       36.01036072      52.15171051       3.18329978
C       34.19163513      52.81798172       6.36207914
C       35.38414001      51.92478180       4.42600870
C       34.83906174      53.02923203       5.11936426
C       35.27511978      50.63681412       5.01021957
C       34.91925049      54.32397461       4.56633711
C       35.50820541      54.50645828       3.34424853
C       34.64197922      50.46792984       6.20305157
H       36.56807709      53.60342026       1.70286381
H       33.59284210      51.40781403       7.84134245
H       36.44897842      51.30686188       2.68097258
H       33.79787827      53.69316483       6.85938406
H       35.69106674      49.80078125       4.45807362
H       34.51086807      55.14952469       5.11550283
H       35.57568359      55.48961258       2.90506053
H       34.54059982      49.48254013       6.62932825
C       17.10390472      30.97426033      27.54603195
C       12.23729229      31.40789413      26.31536865
C       16.07081223      30.08210564      27.53708076
C       13.29710674      32.27551270      26.35575485
C       14.77465248      30.49593925      27.13339615
C       14.57674503      31.84485817      26.75501251
C       13.66387844      29.61322021      27.09471703
C       15.66928959      32.74763489      26.78387642
C       16.90896416      32.31804657      27.16753006
C       12.43139648      30.06450081      26.70114708
H       18.11083412      30.66710854      27.83061028
H       11.26728153      31.75120544      25.98266983
H       16.23401451      29.05163765      27.83477783
H       13.18528175      33.30365753      26.04072189
H       13.79100704      28.57820702      27.41883278
H       15.52002621      33.78356171      26.48694801
H       17.73404694      32.99977875      27.15709686
H       11.59545040      29.38710976      26.71704674
C        0.01524206      29.92367363       9.82419491
C       -0.38711679      31.11935997       4.94448662
C        0.74093670      29.60570717       8.71986008
C       -1.12049007      31.43035126       6.04960251
C        0.39725569      30.12183762       7.44447994
C       -0.73597503      30.95740128       7.33725834
C        1.13061059      29.80524254       6.28038025
C       -1.47549593      31.26453209       8.50385284
C       -1.11950290      30.75828934       9.71372223
C        0.76069522      30.30303764       5.06185246
H        0.28382009      29.49911690      10.78755569
H       -0.68258631      31.47902870       3.96838713
H        1.58111286      28.91300964       8.78681564
H       -2.00479913      32.05404282       5.97321892
H        1.98741031      29.12904167       6.36998892
H       -2.37509608      31.87980843       8.42091942
H       -1.74482167      30.95331955      10.57232094
H        1.30910373      30.02878761       4.17755604
C       16.21292496      35.37817764      10.27433777
C       16.32050896      33.03606796      14.69566536
C       15.34235954      34.53037643      10.90411758
C       17.12701225      33.97202301      14.12786865
C       15.63476944      34.05405808      12.19557858
C       16.81730652      34.48655319      12.84651852
C       14.79883289      33.11803436      12.84127998
C       17.65570450      35.40647125      12.19133282
C       17.39635277      35.79822540      10.92155457
C       15.16093636      32.58883667      14.04024696
H       15.98810005      35.76721573       9.29749107
H       16.53065872      32.66790390      15.68537331
H       14.42530823      34.20006180      10.41611958
H       17.99294662      34.38133240      14.64204788
H       13.87674522      32.82758331      12.36596012
H       18.53756905      35.77111816      12.71097851
H       18.10325050      36.42673874      10.39405346
H       14.55346298      31.83739090      14.51103210
C       -3.37831569      49.12326050      10.83487892
C       -4.90834045      45.20875168      13.56845474
C       -2.82297182      48.38678741      11.84264183
C       -5.43263435      45.83035660      12.46832275
C       -3.45420218      47.21895218      12.31435776
C       -4.70707512      46.84064102      11.79055882
C       -2.89319968      46.48219681      13.37153339
C       -5.21039391      47.55894089      10.67467785
C       -4.56816053      48.67575836      10.21972561
C       -3.59494996      45.49257278      13.99807262
H       -2.90842319      50.03249741      10.52801991
H       -5.50653458      44.48822784      14.11539745
H       -1.91818655      48.71120834      12.34243107
H       -6.42891502      45.59336853      12.14129543
H       -1.89967024      46.77293777      13.70425606
H       -6.14141321      47.22805023      10.21195030
H       -4.98705912      49.24641037       9.39342213
H       -3.19286323      44.95292282      14.84153843
C       22.28357697      43.38188553       7.19601297
C       23.33534241      39.50197601       4.19792223
C       21.62332535      42.22755814       6.89180899
C       23.99107170      40.66032028       4.49109459
C       22.17067146      41.32379150       5.96231365
C       23.41912460      41.60536957       5.37275219
C       21.47679901      40.15148163       5.58205891
C       24.07124329      42.82248306       5.70460892
C       23.52525520      43.68352890       6.60584402
C       22.04524040      39.26413727       4.71919250
H       21.84629440      44.07505035       7.88822937
H       23.77945328      38.77408218       3.53263140
H       20.66508675      41.98466110       7.33574533
H       24.97667313      40.85873413       4.07349539
H       20.46713257      39.99940491       5.96257687
H       25.00634003      43.04618073       5.21560478
H       24.04034042      44.59490204       6.87953520
H       21.49905396      38.36113739       4.44833708
C        7.93799925      53.58202744      16.65588570
C        4.09052896      52.25578308      19.60983276
C        6.59125280      53.61877441      16.48235893
C        5.44252396      52.27229691      19.77261543
C        5.73146582      53.15428162      17.51246262
C        6.28699255      52.68480301      18.71791458
C        4.33244801      53.10992050      17.35871315
C        7.69279003      52.61244583      18.84787941
C        8.49295998      53.05751801      17.83925056
C        3.54585624      52.64791489      18.36782837
H        8.62351131      53.92621994      15.88337612
H        3.44537091      51.97555542      20.42131042
H        6.13494015      53.97523880      15.56025982
H        5.89827633      52.00419617      20.72703934
H        3.88109446      53.44628143      16.41658401
H        8.07836723      52.19176102      19.77224541
H        9.56382847      53.01844406      17.91831017
H        2.48426747      52.59095001      18.22075081
C        3.70665884      41.81727600      13.67542648
C        7.26166105      43.46571350      16.82790184
C        4.33753920      43.02457047      13.81427193
C        6.98713589      42.16641998      16.20728493
C        5.29559422      43.21393967      14.83103752
C        5.63095427      42.10372162      15.64390278
C        5.93192768      44.42996216      15.08057690
C        4.91831875      40.92539597      15.56858253
C        3.95807672      40.78654861      14.58590889
C        6.80436039      44.55914307      16.18972397
H        3.00904560      41.66714096      12.86907291
H        7.92799091      43.54090500      17.68784904
H        4.11894941      43.84312820      13.12259769
H        7.20361805      41.31169510      16.85689735
H        5.69522429      45.27348709      14.47346592
H        5.18870926      40.08232498      16.19803810
H        3.44595838      39.84484482      14.49195480
H        7.10580683      45.55374527      16.50939941
C       14.41661549      45.37298584      17.81553841
C       17.67688942      42.70050430      20.54036903
C       14.29514503      44.66563416      18.97842789
C       17.79633141      43.52708817      19.46156120
C       15.44183064      44.11215210      19.58710289
C       16.69813538      44.26633453      18.96698952
C       15.34949017      43.28995132      20.72711754
C       16.79603195      45.08352661      17.82547188
C       15.68706799      45.63699341      17.26632118
C       16.43619728      42.61265183      21.20971107
H       13.53378677      45.73881149      17.31382751
H       18.50941658      42.13103104      20.89222145
H       13.32200527      44.48083115      19.42535210
H       18.73662758      43.61281586      18.92637253
H       14.37531376      43.15821838      21.16084862
H       17.76987839      45.21689606      17.35180092
H       15.79242802      46.26003647      16.38342857
H       16.33886719      41.95901871      22.06218719
C       34.39283752      34.72188187       0.94390458
C       18.26477623      38.16839218      26.97819710
C       35.70861053      34.81341171       0.59390944
C       16.94475937      38.07638168      27.32379723
C       17.36923027      35.88668442      28.33685875
C       16.45935631      36.92763519      27.99538231
C       18.71883392      36.00148773      27.93194389
C       15.10471249      36.80731583      28.37247086
C       33.48062897      35.70820618       0.53100926
C       19.14566994      37.10792160      27.26091194
H       34.04101181      33.88998413       1.52608359
H       18.64843941      39.08406067      26.54500389
H       36.41234589      34.04439163       0.89086515
H       16.26006126      38.89523315      27.13584900
H       19.41913033      35.22829819      28.22763443
H       14.42075443      37.59878922      28.12416077
H       32.44447708      35.61087036       0.80366606
H       20.19223976      37.20720673      27.00190353
C       22.85995483      46.47332382      21.08057785
C      -14.05724239      50.19164276      22.92959404
C       23.70486069      47.37002945      20.49829864
C      -14.99330616      49.36293411      23.47415733
C       24.38453674      48.32826614      21.29018021
C       24.12198257      48.38784790      22.67980003
C       25.36413383      49.19739914      20.74780464
C       23.27079201      47.42248917      23.26161575
C       22.67980003      46.47624588      22.48027039
C      -13.73811245      50.08209229      21.55451584
H       22.38417816      45.69941330      20.48476982
H      -13.56410408      50.94046402      23.54777336
H       23.89934921      47.30656815      19.44469833
H      -15.21383190      49.41268539      24.52922440
H       25.58797836      49.13024521      19.69634438
H       23.09764290      47.43729782      24.34511185
H       22.05975533      45.73936462      22.94255066
H      -12.97712708      50.71696091      21.14715958
C        8.75381565      48.68140411       5.56917572
C        6.81589079      51.68311310       9.07654095
C        7.49334669      48.90377426       6.02691412
C        8.08827114      51.46582794       8.63584232
C        7.25156307      49.90952301       6.98536634
C        8.34128761      50.59270859       7.55698442
C        5.93416595      50.21257782       7.39189196
C        9.64447689      50.35113525       7.05206060
C        9.84077835      49.43741608       6.05661869
C        5.72054148      51.07772446       8.42967415
H        8.92116737      47.90547562       4.82983971
H        6.64230299      52.27885056       9.96589565
H        6.65617609      48.31786346       5.67395210
H        8.92915630      51.91632843       9.15539551
H        5.10991240      49.74748230       6.86442757
H       10.48083115      50.88221741       7.49347877
H       10.82290840      49.25532150       5.66013861
H        4.70408726      51.29795074       8.73730850
C       -2.39480829      39.89883804      15.19189548
C       -0.12598117      41.78294754      11.13267612
C       -1.97302401      41.15961838      14.85414600
C       -0.77702147      40.61020660      11.37062740
C       -1.42830193      41.41019440      13.57805538
C       -1.40254772      40.37588120      12.61529064
C       -0.78924847      42.63488770      13.27850437
C       -1.85374832      39.09242249      12.99073219
C       -2.30345225      38.85458374      14.25775909
C       -0.09891749      42.79728317      12.11679554
H       -2.79029727      39.67829514      16.19327927
H        0.38918337      41.93222427      10.18975449
H       -1.96258879      41.97496796      15.56559849
H       -0.72789609      39.79833603      10.64966297
H       -0.83031839      43.41305161      14.01437664
H       -1.80405605      38.28757477      12.27079773
H       -2.59183621      37.84196854      14.55481529
H        0.44891623      43.71673203      11.90926838
C        7.45896578      45.24484253      23.02428627
C       12.33085537      44.59735489      24.48054695
C        8.28444767      44.13859177      23.18264008
C       11.35613251      45.79314041      24.49043083
C        9.59305191      44.27830505      23.58703041
C       10.11968422      45.56513596      23.67975235
C       10.47664928      43.07027054      23.87506866
C        9.32736397      46.65724182      23.37576103
C        7.97298241      46.51918411      23.13366127
C       11.56545258      43.36192703      24.92716599
H        6.40189505      45.09691238      22.86427689
H       13.11426258      44.80144119      25.19295692
H        7.88645649      43.15077591      23.03722763
H       11.86843967      46.69793320      24.18855667
H        9.85186958      42.25202560      24.22226524
H        9.77797317      47.63452911      23.41477776
H        7.33906746      47.38262558      23.06852341
H       12.26459217      42.51220322      24.93069267
C        1.58595860      34.55176926      10.25907421
C        3.74772549      30.81144524       7.72278833
C        1.93812513      33.28244400      10.61188030
C        3.14753294      31.97152328       7.34132481
C        2.46879649      32.39538193       9.64489460
C        2.51737142      32.80831909       8.29259586
C        3.07501411      31.17278290      10.01065063
C        2.07084179      34.10112762       7.95075321
C        1.66639292      34.97416306       8.91916943
C        3.72297239      30.41497040       9.08146000
H        1.27220476      35.25468826      11.03189659
H        4.25120020      30.19638443       6.99074364
H        1.88730550      32.97503662      11.64838791
H        3.14937973      32.28505707       6.30070591
H        3.04883814      30.85880280      11.04577637
H        2.10503626      34.40833282       6.91517496
H        1.38535190      35.98918915       8.66477966
H        4.21738243      29.49993515       9.38490772
C       18.71046829      31.43631554       4.04860115
C       21.22233200      30.93367958       8.38063812
C       19.96816635      31.01702309       4.35422945
C       19.91482735      31.15463638       8.08237267
C       20.40899658      30.97523117       5.70245171
C       19.49688339      31.24782944       6.73402691
C       21.76363945      30.72116089       6.03380632
C       18.19181252      31.68485260       6.38666248
C       17.82635689      31.82433891       5.08117914
C       22.16377640      30.75010490       7.33866644
H       18.38676262      31.51729584       3.00800991
H       21.55984306      30.91910553       9.41327953
H       20.68451881      30.75569725       3.56088495
H       19.18858147      31.29294205       8.88537121
H       22.47282600      30.57305145       5.24363661
H       17.50042915      31.91509628       7.18349457
H       16.87448502      32.21693802       4.82117891
H       23.21627045      30.61659050       7.57496357
C       30.22093964      36.12448502      11.52634907
C       31.90413475      32.93634796       8.01084614
C       30.26429939      34.76411819      11.43513680
C       31.94455147      34.29174423       8.14434624
C       30.84813690      34.12364960      10.31531525
C       31.38110733      34.91416168       9.27986050
C       30.85314751      32.71316147      10.16596508
C       31.31005669      36.32504272       9.38875484
C       30.75393486      36.91659164      10.48083115
C       31.34458351      32.13764954       9.03586483
H       29.73740196      36.57653046      12.37673664
H       32.31629181      32.46627426       7.11920929
H       29.82359505      34.13169861      12.20421982
H       32.40736008      34.90072632       7.38919544
H       30.41059875      32.09778976      10.93957520
H       31.71068573      36.93288040       8.58245564
H       30.71119881      37.98503876      10.53397655
H       31.33751869      31.05383110       8.91880703
C        2.13059998      52.37413788      26.25432396
C        6.12261391      49.70707321      27.75229454
C        2.64954185      51.16764832      25.87558556
C        5.55608273      50.86804962      28.18758965
C        3.81302261      50.64813232      26.50376511
C        4.38845158      51.36973953      27.56868935
C        4.46124887      49.49020767      26.03341675
C        3.82641721      52.61446381      27.94941521
C        2.73580003      53.11833191      27.29460335
C        5.57276917      49.00423050      26.65603638
H        1.24882174      52.75553131      25.73136902
H        7.03595304      49.35767746      28.20580673
H        2.20178103      50.60379791      25.07212448
H       24.79748726      51.42958450       0.46824068
H        4.08442402      49.01130295      25.14093781
H       23.09778404      53.18109512       0.22115074
H        2.33307099      54.09198761      27.58088493
H        6.05548477      48.10522461      26.28546333
C       11.73819351      41.75727844       7.87385607
C       10.83279896      38.41588593       4.21464109
C       11.72547817      40.39614487       7.81191111
C       10.80926514      39.77721786       4.25873947
C       11.48726463      39.72531128       6.59756994
C       11.14120579      40.47409821       5.45264673
C       11.62006855      38.31311417       6.48354816
C       11.15923977      41.88966370       5.54687643
C       11.46164131      42.51670837       6.72167349
C       11.27548981      37.66867828       5.33035755
H       11.96562290      42.24945450       8.82304001
H       10.50918770      37.89230728       3.32206893
H       11.94277191      39.81182098       8.69803238
H       10.51617718      40.32263947       3.37461138
H       11.99116993      37.76314163       7.34256601
H       10.93494511      42.47470093       4.66426563
H       11.48993874      43.61462021       6.76048994
H       11.31996822      36.59467697       5.27158451
C       15.11610889      32.89633560       7.33371067
C       11.84667683      32.62387085       3.54614663
C       14.95477772      32.02119446       6.30103016
C       12.14434147      33.60498810       4.44486856
C       14.02910233      32.29314041       5.26045609
C       13.24184132      33.46082687       5.33697510
C       13.77995777      31.35224915       4.22992897
C       13.48761749      34.39061737       6.37469769
C       14.40392017      34.11347580       7.35506916
C       12.68870163      31.49476814       3.42603326
H       15.77537441      32.65708542       8.15473652
H       10.95360661      32.71299744       2.93338847
H       15.49769592      31.10214424       6.27838898
H       11.49904823      34.46597672       4.54269600
H       14.41595459      30.48329163       4.13266277
H       12.90463734      35.30778122       6.41227627
H       14.54586124      34.81299973       8.16350937
H       12.45438766      30.73886108       2.68912268
C        9.67335033      36.07676697       7.98518467
C       10.97476196      33.32428360      11.99285984
C        9.60836887      34.74378967       8.26180935
C       11.26543331      34.60575867      11.60706806
C       10.10650444      34.23354721       9.48414898
C       10.80169773      35.10233307      10.35982609
C        9.84377384      32.90802765       9.89903355
C       10.89603043      36.47672653      10.02515793
C       10.28841019      36.95631409       8.90257454
C       10.24917412      32.47073746      11.12437534
H        9.21754551      36.46942902       7.08755350
H       11.30170345      32.95997238      12.94911957
H        9.11115360      34.05131912       7.58564329
H       11.82525063      35.26000214      12.26842690
H        9.28147888      32.26692200       9.24813652
H       11.42616558      37.14704514      10.70408058
H       10.28726101      38.03071594       8.72481155
H       10.01444912      31.46307755      11.43295574
C       13.71374226      35.23176575       0.88610405
C       -2.73867130      30.93408775      28.24801445
C       13.32120132      33.92474365       0.86238462
C       -2.33214593      32.23350525      28.33004379
C       14.24533653      32.90293503       0.54406172
C       15.58643818      33.25242233       0.24185528
C       13.85362530      31.54457092       0.43831044
C       15.96249104      34.61367416       0.31959245
C       15.05904961      35.57728195       0.63693106
C       14.74064445      30.57941246       0.05982617
H       12.98966503      36.01575851       1.11016917
H       -2.04787636      30.17645454      27.91137314
H       12.29149342      33.65903854       1.05673790
H       -1.33190060      32.50915146      28.01512718
H       12.81313896      31.29292488       0.66232646
H       16.98368454      34.89200974       0.10180207
H       15.35903168      36.62065125       0.69621807
H       -4.37211084      29.55198479      28.51288605
C        1.54218042      43.03448105       7.10576010
C        2.80977154      38.56250000       9.05004787
C        1.99397552      42.64445496       8.33679295
C        2.35507369      38.93519974       7.83659887
C        2.32076430      41.30752945       8.59036350
C        2.42898059      40.36718750       7.40929985
C        2.81680989      40.86188126       9.82804680
C        1.46314192      40.74890518       6.32486010
C        1.14667273      42.04563141       6.14788103
C        3.15111160      39.54750824      10.03388786
H        1.45445287      44.09086990       6.86373091
H        2.90733147      37.53273392       9.31104088
H        2.10877037      43.37906647       9.14238453
H        2.05383706      38.18706512       7.09902620
H        2.94533253      41.59836578      10.62259293
H        1.09753847      39.97459030       5.62969923
H        0.56820291      42.34799576       5.26435947
H        3.55478477      39.23504639      10.98776531
C       23.34566116      53.56540680      16.74612808
C       22.71193695      48.56615067      16.69923782
C       23.26420212      52.64748383      15.74498081
C       22.80422401      49.49684525      17.69377899
C       23.10792732      51.27128601      16.04207039
C       23.01870155      50.86561966      17.38859940
C       23.03545952      50.28077698      15.03585148
C       23.11853790      51.83839416      18.40184402
C       23.27493858      53.15555954      18.09190369
C       22.84798241      48.96942139      15.34651375
H       23.45039749      54.61737442      16.52063942
H       22.50073624      47.52193832      16.93903732
H       23.29705048      52.95332336      14.70205307
H       22.69734383      49.20761871      18.73881912
H       23.15113258      50.58731079      14.01620579
H       23.05315399      51.50675583      19.41711998
H       23.32985306      53.90002060      18.86395645
H       22.76377678      48.23313141      14.55238056
C       -4.41477633      45.24373627       7.28017998
C       -1.17002547      46.08582306       3.52943802
C       -3.69351339      44.42526245       6.47035313
C       -2.02665901      46.88224030       4.22578716
C       -2.86918569      44.94598770       5.43842554
C       -2.87113309      46.34041595       5.22711611
C       -1.98318851      44.14118958       4.67971373
C       -3.66783524      47.17364120       6.05169439
C       -4.40663576      46.63768387       7.06566906
C       -1.14115739      44.69749451       3.75521708
H       -4.99587822      44.82392502       8.08462048
H       -0.51454073      46.51098251       2.76982784
H       -3.71534467      43.35088730       6.63723230
H       -2.07156634      47.94686508       4.04332685
H       -1.90098119      43.09260559       4.88918209
H       -3.62654924      48.24600220       5.90146923
H       -4.97237301      47.29259872       7.72464609
H       -0.45820808      44.07304764       3.20347214
C       20.39253807      50.26156616       1.19606638
C       16.72636604      46.83587265       0.66290110
C       20.28217506      49.10846329       0.47096446
C       16.86550713      47.95203781       1.43419278
C       19.12220764      48.29496384       0.56890726
C       18.06859207      48.69407654       1.41859126
C        0.16376489      47.11081696      28.34029961
C       18.22978020      49.88058472       2.18406868
C       19.35300064      50.63830948       2.07579541
C       -1.00075388      46.39915466      28.38045692
H       21.26034164      50.88306808       1.08632362
H       15.79953384      46.27017212       0.67537135
H        2.28056860      48.82258606      28.35841942
H       16.04405785      48.29459381       2.06055951
H        0.95680124      46.77336502      27.69971848
H       17.40515518      50.16505814       2.83299160
H       19.45700645      51.55882645       2.64878201
H       -1.08971560      45.51706696      27.76806450
C        8.83503532      51.04511261      14.43562889
C        4.93963385      49.67050171      17.31970978
C        8.73405552      50.63918686      15.73103523
C        5.05288076      50.12280655      16.04217911
C        7.47193527      50.32120132      16.30158806
C        6.31466389      50.44317627      15.49823570
C        7.32580805      49.83985138      17.62158775
C        6.46657133      50.82668304      14.14393234
C        7.68255043      51.13341141      13.62506008
C        6.09407282      49.50811386      18.11205864
H        9.79016209      51.27705765      14.00479603
H        3.96502686      49.44494629      17.73520851
H        9.62488270      50.54685593      16.33836555
H        4.15894127      50.24214554      15.41383743
H        8.19323826      49.71992493      18.24557114
H        5.57536936      50.84613419      13.52836990
H        7.77758026      51.46536255      12.58782673
H        5.98839712      49.15932465      19.13328362
C        0.26018298      47.11973190      10.52135468
C       -1.45690596      43.25856018       7.85561848
C       -0.53704500      46.06003571      10.84075356
C       -0.80377346      44.40518951       7.52651501
C       -1.00173497      45.18968201       9.82780075
C       -0.53207225      45.37134552       8.50315475
C       -1.81982887      44.07465363      10.09475899
C        0.24686313      46.50419998       8.19880772
C        0.58843631      47.37515640       9.17494106
C       -2.00209546      43.11454773       9.13644791
H        0.69364172      47.76082230      11.29163074
H       -1.58750904      42.47257996       7.12020779
H       -0.80913848      45.84242630      11.86913490
H       -0.45666045      44.59640503       6.51046944
H       -2.21737528      43.94588470      11.09105206
H        0.58631134      46.64379120       7.17247486
H        1.14895701      48.24757385       8.93189716
H       -2.52088428      42.20528793       9.38999653
C      -13.74605656      30.74659157      20.96276665
C      -14.18486595      33.20119858      25.33750534
C      -13.73285866      32.06857300      21.30448914
C      -14.05129051      31.88411140      25.01326179
C      -13.81487942      32.47220230      22.65666962
C      -13.86763287      31.48394203      23.66581154
C      -13.93518925      33.83595657      23.02213669
C      -13.85395527      30.11540222      23.28569794
C      -13.81042957      29.75786591      21.96829605
C      -14.12739182      34.19387436      24.32770920
H       26.03758049      30.44803429      19.91666222
H      -14.36598492      33.49386215      26.35830498
H       26.08468056      32.84162521      20.54726791
H      -14.13124084      31.12708282      25.77526855
H      -13.89912033      34.58722687      22.23778343
H      -13.92549992      29.35774612      24.05271530
H      -13.82676220      28.70051575      21.68858528
H      -14.24183369      35.23326492      24.60831070
C       -6.06698608      49.32253265      27.84842110
C       -1.31872225      50.98934937      27.73463821
C       -5.46366215      50.42580414      28.36900330
C       -1.92830455      49.85751724      27.30005264
C       -4.06258249      50.61289215      28.22234154
C       -3.31028104      49.64546967      27.52437973
C       15.40040874      51.76846313       0.17116755
C       -3.95090485      48.48727417      27.02905273
C       -5.29193687      48.33821487      27.19550514
C       -2.07495880      51.94594192      28.45178604
H       -7.12598038      49.16328430      27.92387581
H       -0.26122880      51.15362930      27.56375694
H       12.74494076      51.17592621       0.35672095
H       -1.37671578      49.07902527      26.76426697
H       14.82845974      52.52142334       0.72011268
H       -3.36869860      47.75287247      26.48446846
H       -5.79890060      47.43579483      26.86610794
H       17.22923088      52.82458878       0.29752454
C       10.87040234      54.37169266       8.91122627
C        8.20366383      54.26674652      13.17224121
C        9.53707886      54.32615280       9.19224739
C        9.54484844      54.32152939      12.91764355
C        9.07298851      54.33984375      10.52531338
C       10.02090931      54.36879730      11.58244991
C        7.68771887      54.32725143      10.82657528
C       11.39971352      54.45001984      11.26057720
C       11.81218815      54.45386124       9.95965672
C        7.26400661      54.27755737      12.12220097
H       11.20157146      54.34001541       7.87506390
H        7.83169556      54.20200729      14.17915249
H        8.80281258      54.25094223       8.40204620
H       10.26928329      54.32514954      13.72879982
H        6.99268293      54.36875153      10.00704670
H       12.13235188      54.50089264      12.05841541
H       12.87421417      54.50285339       9.73566818
H        6.21232128      54.26301575      12.36120701
C       21.88609886      35.30014420       7.02393436
C       17.17817116      36.97223663       7.45660830
C       21.31495476      36.53203583       6.94815016
C       17.71947289      35.72542191       7.42082882
C       19.94000244      36.70420456       7.21836424
C       19.12191200      35.56826019       7.36146164
C       19.37025070      37.98282623       7.39686203
C       19.74333763      34.31147385       7.44798088
C       21.09676552      34.17204666       7.33876514
C       18.02348709      38.10062790       7.53134871
H       22.96041870      35.18996429       6.85565615
H       16.10395050      37.10298538       7.47315836
H       21.89239883      37.41468430       6.70650768
H       17.11432838      34.84419632       7.44498253
H       20.01463127      38.84240341       7.47839260
H       19.12553215      33.45928955       7.65165329
H       21.54937363      33.20977783       7.45371103
H       17.59539032      39.07053375       7.73020697
C       29.07416153      57.18463135      10.73266411
C       27.65912628      56.37405014      15.46851635
C       28.69898224      58.00984192      11.74498558
C       28.07175827      55.55727386      14.45713902
C       28.25742912      57.48102951      12.98358917
C       28.30137062      56.08216858      13.16589260
C       27.79540253      58.30208206      14.03511333
C       28.56097031      55.24809265      12.04970551
C       28.93685341      55.78408051      10.85743999
C       27.48045540      57.75585938      15.24534988
H       29.45113754      57.61281204       9.81120682
H       27.46890068      55.94639206      16.44940758
H       28.76158142       0.16158634      11.61625862
H       28.23889351      54.50736237      14.61292839
H       27.68799973       0.42694306      13.85173130
H       28.41114044      54.18092346      12.16508865
H       29.13600922      55.13555527      10.00343895
H       27.09980583      58.38792801      16.04061127
C       21.50224686      42.48731995      22.62285423
C       20.66948128      41.35865784      17.83478737
C       21.63849068      41.34111786      21.90531158
C       20.67946815      42.52752686      18.52183533
C       21.31471252      41.32901382      20.54119873
C       20.95223045      42.54652405      19.91329193
C       21.35092926      40.13328934      19.79041100
C       20.79009056      43.70809555      20.69295692
C       21.01179886      43.66047287      22.03692818
C       21.01998901      40.14588928      18.48292732
H       21.80539131      42.50444412      23.65067673
H       20.45583344      41.35266876      16.78145981
H       22.01451302      40.43401718      22.35770035
H       20.48365784      43.46436310      18.02425957
H       21.63521194      39.20656204      20.29321098
H       20.42280388      44.61788940      20.22981071
H       20.78725433      44.49814606      22.67062759
H       21.03559494      39.23884201      17.90258598
C       -1.79440951      42.15049362      24.67719078
C       -5.31362772      45.56662750      25.30206299
C       -2.98744988      42.37210846      24.05379677
C       -4.32080936      45.13057709      26.11656380
C       -3.89048147      43.32938385      24.54207039
C       -3.56836128      44.00000763      25.74538040
C       -5.06695414      43.69160080      23.83813667
C       -2.43787384      43.58515549      26.48602867
C       -1.54241562      42.72052002      25.93600845
C       -5.74481630      44.82351685      24.18279457
H       -1.07888329      41.46002579      24.22034264
H       -5.80796385      46.48644257      25.51624680
H       -3.26563478      41.80457306      23.18053627
H       -4.07367277      45.68110657      27.01618576
H       -5.40334415      43.09473038      22.99553108
H       -2.26811862      44.01955795      27.47276115
H       -0.63718736      42.47829819      26.47169495
H       -6.61077595      45.15445328      23.62797356
C       12.74557590      39.39728546      11.65816784
C       13.45709801      38.15606308      16.52346802
C       11.78524590      38.94671631      12.71992970
C       14.04605103      39.08866501      15.67800426
C       12.49542809      38.52139664      13.96110344
C       13.55827427      39.31210327      14.39680195
C       11.97628212      37.51888275      14.75709724
C       14.15203762      40.35225677      13.47524452
C       13.79329205      40.11262894      12.02364063
C       12.43774700      37.34951401      16.05327415
H       12.53995991      39.17210007      10.60818386
H       13.83740139      38.02734375      17.53307915
H       11.09171581      38.16007996      12.39540005
H       14.93206120      39.62376785      16.01396179
H       11.13388252      36.92581177      14.38780594
H       15.22681618      40.25046158      13.52415466
H       14.46729946      40.49853516      11.28769779
H       12.00660706      36.58169174      16.68707848
C        0.09638545      50.76773453      13.31736660
C        1.34096229      52.74663544       8.86753750
C        0.04808807      50.30388641      12.03657532
C        1.24648476      53.25489807      10.12801266
C        0.41541931      51.11885452      10.94434071
C        0.81645387      52.44695663      11.20584679
C        0.39715949      50.67006302       9.60924149
C        0.77846211      52.93038559      12.52938747
C        0.46456128      52.10811615      13.56964493
C        0.88582933      51.44092178       8.59175110
H       -0.16536476      50.11826706      14.14448833
H        1.69305706      53.38367081       8.05932045
H       -0.24668521      49.29287720      11.83444881
H        1.48858559      54.29401779      10.31878471
H       -0.05052723      49.70786667       9.39737701
H        1.00701010      53.97493362      12.68285847
H        0.49206194      52.48559570      14.57620335
H        0.88462460      51.09053802       7.57905531
C       -2.81041312      38.25763321      26.67740059
C       -7.44542313      39.76939392      25.52036858
C       -4.01226330      37.62936020      26.67555809
C       -6.25994444      40.41734314      25.66053391
C       -5.19378519      38.32444382      26.32031822
C       -5.10797119      39.70517349      26.06500816
C       -6.43184996      37.67427063      26.12085342
C       -3.85792899      40.35177231      26.16435051
C       -2.72613716      39.63909531      26.39602661
C       -7.53188992      38.37693787      25.72606277
H       -1.91254342      37.69478607      26.86730194
H       -8.34903049      40.32175064      25.26197243
H       -4.04618740      36.56194305      26.86960220
H       -6.18093967      41.48358536      25.49938011
H       -6.48055458      36.60759354      26.27320480
H       -3.84030271      41.42321396      26.04595184
H       -1.76073730      40.12693787      26.40193176
H       -8.47877884      37.88724518      25.57660103
C       -7.42292356      40.08099747      22.30894852
C       -6.95838404      38.50123596      17.57616234
C       -6.96369123      40.67387009      21.16929626
C       -7.52618074      37.95582581      18.68726921
C       -7.02043390      39.98130798      19.93740082
C       -7.57010698      38.67687988      19.90317154
C       -6.49909830      40.54529953      18.75636673
C       -8.07316303      38.10551834      21.09545517
C       -7.98772764      38.78532410      22.27431870
C       -6.45037651      39.82215500      17.60515213
H       -7.34641933      40.60801315      23.25680542
H       -6.91204500      37.93159103      16.67877007
H       -6.52652025      41.66256714      21.17194748
H       -7.91956186      36.94640732      18.67483711
H       -6.09768295      41.55757904      18.79533196
H       -8.47875500      37.10056305      21.06090164
H       -8.33093643      38.30989838      23.19676590
H       -6.00183201      40.25285721      16.72400665
C        5.72632837      42.72956467      10.44818687
C        8.71221161      43.25988007      14.51389408
C        6.05287218      41.88507843      11.49742985
C        8.52484417      43.95146561      13.39487553
C        6.96234751      42.28028870      12.49156570
C        7.55303669      43.53678513      12.38378906
C        7.28479528      41.36039734      13.64274979
C        7.20990515      44.38563156      11.33643818
C        6.30014420      43.99510574      10.37022686
C        7.97425032      42.01716995      14.85654068
H        5.01375437      42.41638947       9.68773460
H        9.41394520      43.62619781      15.25703430
H        5.58806658      40.90393829      11.57697868
H        9.06423855      44.87660980      13.22964191
H        6.33551502      40.97120285      13.96103477
H        7.69261312      45.33716965      11.26025486
H        6.07591105      44.65780640       9.54305363
H        8.72898865      41.35717011      15.27611542
C       28.41411781      37.37549973      16.36295700
C       27.84287071      32.39708328      15.78766441
C       28.39632988      36.54417038      15.27702713
C       27.82110786      33.22710037      16.87004662
C       28.20170784      35.14807510      15.42724419
C       28.01516533      34.62063217      16.72144318
C       28.19200897      34.27322006      14.32427025
C      -11.72139263      35.49854660      17.83207703
C      -11.52243614      36.83575821      17.66397285
C       28.03421593      32.92911530      14.49377537
H       28.56398773      38.44944763      16.24133301
H       27.70686531      31.33937073      15.91324711
H       28.51461029      36.95901489      14.26970768
H       27.67092133      32.81435013      17.87050247
H       28.27646255      34.70341492      13.32809353
H      -11.85640526      35.08606339      18.82808495
H      -11.50060654      37.50116348      18.52222252
H       28.04034233      32.26306915      13.62531853
C       24.14247131      55.29351044       1.38633704
C       23.49453354      52.27861023       5.38115025
C       25.00330544      54.63949203       2.22278976
C       22.63092041      52.86926270       4.50180244
C       24.51397324      53.84100342       3.29227138
C       23.11630630      53.67922974       3.44862556
C       25.38409042      53.22636414       4.22033596
C       22.24911499      54.36787796       2.56134939
C       22.74685860      55.16797256       1.56851840
C       24.88696098      52.47647476       5.25477886
H       24.53144073      55.90498734       0.59044629
H       23.11381149      51.64325714       6.16520405
H       26.07034492      54.74204636       2.09103370
H       21.56310272      52.72823715       4.60808373
H       26.45255661      53.32512283       4.09620571
H       21.17632866      54.24844742       2.67177463
H       22.06931686      55.68234634       0.88527584
H       25.57429886      51.98640823       5.93806839
C        7.21853828      31.95390701      15.63446617
C       12.18108177      31.40832329      15.43016052
C        8.04406834      31.40260124      14.69851685
C       11.35084629      32.16639709      16.20729828
C        9.44493771      31.48073959      14.85707951
C        9.96327019      32.19739914      15.95697784
C       10.34574985      30.77323532      14.02337265
C        9.08265972      32.84724426      16.84711838
C        7.73799515      32.69549179      16.71517563
C       11.67162895      30.70948029      14.32205677
H        6.14738750      31.81950188      15.55363846
H       13.21055603      31.31958771      15.70422649
H        7.64235497      30.85319901      13.87360668
H       11.72793961      32.69199371      17.07021332
H        9.95892811      30.25172615      13.17621708
H        9.49866199      33.44254303      17.65643120
H        7.04935837      33.15998459      17.40789032
H       12.33520222      30.10843658      13.71824265
C        3.79387689      46.45940781      25.37350464
C       -0.08556736      48.66747284      23.06018829
C        2.72025490      47.16402817      25.82902908
C        0.98866141      47.94468689      22.62833405
C        1.79382646      47.75423431      24.92702675
C        1.97330534      47.51830292      23.55163383
C        0.70228571      48.56590652      25.33345222
C        3.12330389      46.84046555      23.10351562
C        4.02217579      46.31997681      23.99067688
C       -0.20247765      49.01984787      24.41551590
H        4.50892878      46.02615356      26.04452705
H       -0.87615263      48.96475601      22.37085533
H        2.61403918      47.32633972      26.89546204
H        1.10469234      47.66212463      21.57956886
H        0.62139344      48.83954239      26.37629700
H        3.27051735      46.72791290      22.03276825
H        4.89260101      45.80393219      23.63956261
H       -1.03638363      49.67233276      24.72265816
C       21.42753983      38.65086746      12.15069962
C       23.83087921      39.71591568       7.89394665
C       22.08229637      39.75309372      11.70326996
C       23.26550865      38.58419037       8.38554764
C       22.64796257      39.76480865      10.41566086
C       22.56536674      38.60280609       9.61743641
C       23.26392555      40.92240524       9.89306736
C       21.85448265      37.48351288      10.09836102
C       21.29755974      37.50681305      11.34291553
C       23.75544167      40.91993713       8.62787628
H       20.95294952      38.68400574      13.10622501
H       24.36862946      39.70678329       6.94901085
H       22.15050507      40.65106964      12.31818104
H       23.36764908      37.64237595       7.85565758
H       23.30768776      41.81519699      10.48981857
H       21.80832100      36.58898544       9.49224663
H       20.74560165      36.65521240      11.71670055
H       24.14011002      41.82534790       8.18517494
C       22.71334648      46.89649963       6.20649052
C       24.75153160      50.28385544       3.12546253
C       23.99703789      47.28254700       5.96722078
C       23.47099495      49.92154312       3.39011598
C       24.26180649      48.32733154       5.05190134
C       23.18948936      48.94380951       4.36889744
C       25.58783531      48.74796295       4.78597116
C       21.86677742      48.52891159       4.64800596
C       21.64545059      47.53037262       5.55091143
C       25.82273102      49.70745087       3.84494758
H       22.49967384      46.09580612       6.91640520
H       24.96324158      51.05211258       2.40368438
H       24.83535957      46.80637360       6.45276928
H       22.65568542      50.38574219       2.85737991
H       26.37699318      48.29169083       5.34998608
H       21.04974747      49.00516891       4.12731123
H       20.65184975      47.20252991       5.76554203
H       26.83133125      50.04961777       3.62748814
C       11.32631588      34.13084793      24.34986114
C        9.17772007      32.60577774      20.08353615
C       11.82126427      33.63008499      23.18906021
C        8.69932365      33.12958908      21.24783707
C       10.94417286      33.22223282      22.16243553
C        9.55115318      33.40559769      22.33055115
C       11.42268276      32.67979431      20.94517517
C        9.06635094      33.88200760      23.56760025
C        9.93494225      34.21984863      24.55890083
C       10.56131172      32.34862900      19.94614029
H       11.99094200      34.52334976      25.09821892
H        8.51894093      32.35504913      19.28035164
H       12.88954735      33.60041428      23.02202415
H        7.63642359      33.27947235      21.37580490
H       12.48455715      32.57925415      20.82186699
H        8.00069332      33.99539566      23.71627998
H        9.57394981      34.60374069      25.49851990
H       10.95366764      31.91765785      19.01929283
C        4.70845747      51.26068115      23.50570869
C        9.24547100      49.92295837      21.82087517
C        5.12428617      50.34077835      22.58926964
C        8.81768990      50.83316803      22.73897362
C        6.51528025      50.13631058      22.37063980
C        7.44436169      50.92554092      23.07970428
C        6.98777199      49.18143463      21.44258690
C        6.97749472      51.77842712      24.11531830
C        5.64338160      51.92379379      24.32835388
C        8.32129002      49.07005692      21.17893219
H        3.64675331      51.44334793      23.64496231
H       10.30169106      49.82777405      21.59355354
H        4.41691351      49.79562759      21.98992920
H        9.53093624      51.47217178      23.25129127
H        6.27626896      48.51263809      20.98085785
H        7.70122480      52.33903503      24.70896149
H        5.28290224      52.57600784      25.11559296
H        8.68375397      48.29989624      20.51968193
C       19.85962677      48.40993500      19.89325905
C       19.10179520      46.21229172      24.34724236
C       19.15360069      47.31916046      20.29867744
C       19.82295799      47.29548645      23.96374512
C       19.14126778      46.92903900      21.65808868
C       19.85637856      47.69561386      22.60045242
C       18.39635277      45.80759430      22.08803749
C       20.56397247      48.84073257      22.16064644
C       20.57375336      49.17948532      20.84342957
C       18.38010406      45.45239639      23.39708328
H       19.86268044      48.69281387      18.85502434
H       19.03073883      45.98080444      25.39436150
H       18.55461311      46.73550797      19.61227417
H       20.34902763      47.89855194      24.70669365
H       17.85378647      45.23403549      21.36292839
H       21.11852837      49.43691254      22.88800049
H       21.12951088      50.04345322      20.49668121
H       17.79219437      44.59437180      23.70109177
C       12.86974716      52.91073227      25.11029625
C       17.60014534      53.18140030      23.40531731
C       13.49428749      52.96382523      23.77751160
C       17.04632187      53.13666153      24.62951279
C       14.82502651      52.81669235      23.59686661
C       15.65663910      52.75720596      24.79474640
C       15.48688412      52.74866104      22.30361748
C       15.11458111      52.43260574      25.98673630
C       13.66698933      52.10575867      26.11565399
C       16.82024765      52.86748886      22.23381424
H       11.86185646      52.49949646      24.98596954
H       18.65838623      53.41128159      23.29023361
H       12.86011887      53.17000198      22.91939545
H       17.60942841      53.34136200      25.50769615
H       14.88371372      52.63660431      21.41579819
H       15.74237251      52.42825317      26.87272072
H       13.36424828      52.42285538      27.10724258
H       17.32138252      52.79956436      21.28196907
C       28.83400154      51.80727005       1.72627378
C       29.25757408      46.88291931       0.72583997
C       27.92375946      50.81251907       1.51228714
C       30.14946365      47.91354752       0.82440072
C       28.34400368      49.49260330       1.22645402
C       29.72491455      49.23300934       1.08993971
C       27.43686485      48.41308975       1.09456277
C       30.64382172      50.28880310       1.28725386
C       30.21662331      51.53567505       1.62936962
C       27.87770462      47.14913177       0.81704634
H       28.49295044      52.80981064       1.94455683
H       29.59643745      45.87321472       0.59331441
H       26.86341667      51.02932739       1.52973068
H       31.20488358      47.72475433       0.76180166
H       26.38389969      48.59881973       1.23716867
H       31.70835686      50.09583282       1.18236887
H       30.92964363      52.31324005       1.79530787
H       27.16904640      46.34220123       0.70731223
C       -1.14043438      34.92473221       5.70543337
C       -1.91961348      39.06563187       8.45113564
C       -1.45039618      36.21683884       5.38776588
C       -1.64977193      37.76984406       8.77569199
C       -1.53511953      37.20592117       6.39832306
C       -1.42626309      36.81381989       7.75663996
C       -1.74908948      38.57302094       6.09598446
C       -1.11112666      35.47072220       8.04290390
C       -0.93055326      34.55575943       7.05156040
C       -1.92574453      39.47451782       7.10100412
H       -1.02994704      34.19014740       4.92286873
H       -2.13112092      39.77901077       9.22129250
H       -1.61193359      36.51897812       4.35252428
H       -1.64611530      37.44611359       9.81422901
H       -1.77368486      38.87745285       5.04555416
H       -0.99940646      35.17271042       9.08543396
H       -0.62434798      33.54494858       7.29367208
H       -2.12271214      40.52488327       6.86230087
C        3.87880135      52.61156082      13.40316677
C        2.97839499      56.47940826      10.35277557
C        3.47522497      53.89635849      13.63632107
C        3.62522173      55.29473495      10.19829178
C        3.37351871      54.80698776      12.56313801
C        3.81547928      54.42219543      11.28946400
C        2.67968559      56.02849197      12.69769287
C        4.26608658      53.09778595      11.08284473
C        4.25911522      52.19921875      12.10313797
C        2.48062205      56.84425735      11.61934948
H        3.85959816      51.90013504      14.20565033
H        2.79737949      57.12387466       9.49756050
H        3.10765886      54.19348907      14.61206341
H        3.93587470      54.94041443       9.21747017
H        2.25328755      56.25862885      13.66201496
H        4.54748392      52.81332397      10.07793522
H        4.51643658      51.16402435      11.90999508
H        1.92908800      57.77744675      11.74422359
C       10.91086483      57.68880844      12.63488674
C       10.69384670      58.48867416      17.59268761
C       11.50022411      57.08464050      13.70893860
C       10.00777340       0.07765193      16.53909302
C       11.20479584      57.51179123      15.02270508
C       10.28512096      58.56526184      15.21688557
C       11.87282658      56.96392059      16.14056587
C        9.69411278       0.24105288      14.09088325
C        9.99942684      58.74891281      12.82459068
C       11.66204166      57.47658920      17.38636971
H       11.16153717      57.34574127      11.63508415
H       10.49114513      58.83307266      18.60052109
H       12.22046757      56.30557632      13.58030605
H        9.25728321       0.85483873      16.69305801
H       12.58233070      56.18132401      15.97495842
H        9.01184082       1.06156969      14.25123978
H        9.52660465       0.30347651      11.98454666
H       12.23323631      57.10929108      18.22478104
C       -5.81568575      55.99581909      25.17257881
C       -9.47747993      52.88041306      26.59884071
C       -5.82835102      54.82849121      25.86700630
C       -9.46814251      54.02969360      25.86888313
C       -7.04845953      54.15118027      26.08724403
C       -8.25446796      54.71233368      25.60555077
C       -7.08479834      52.92684937      26.79432297
C       -8.20148754      55.92539597      24.87512779
C       -7.00503063      56.54074478      24.66205978
C       -8.26925468      52.31131744      27.05636597
H       -4.88419104      56.51050186      24.97742653
H      -10.40283585      52.36045074      26.76359749
H       -4.90354204      54.37880707      26.23287392
H      -10.38553905      54.44714737      25.47019958
H       -6.14351988      52.48387527      27.09273720
H       -9.11886501      56.34309387      24.47923660
H       -6.93292332      57.44620132      24.06499290
H       -8.27735615      51.34433365      27.56173897
C        2.61315608      44.04174805      27.59204864
C        6.99710464      41.70215225      28.16250420
C        3.88382959      44.47984314      27.80978966
C        5.73347712      41.26594162      27.88725853
C        4.96212530      43.56970215      27.82076454
C        4.68859911      42.18861389      27.66820335
C        6.29265308      43.99282837      28.05755424
C        3.38075471      41.78365707      27.32271385
C        2.36441278      42.69256592      27.27997398
C        7.28297234      43.07938766      28.24031448
H        1.78783286      44.73124695      27.69517517
H        7.79130602      40.97603226      28.24789238
H        4.06912613      45.53467941      28.07771683
H        5.51389217      40.20766067      27.81011200
H        6.50275087      45.05697250      28.12549019
H        3.17142487      40.73368835      27.14165497
H        1.34999728      42.36338425      27.09159660
H        8.29539776      43.40014267      28.44129944
C       14.65385056      40.64073944       8.55810070
C       18.85688400      40.72539902      11.27728367
C       15.47031116      39.67766953       9.03366756
C       17.97150230      41.69153214      10.90451717
C       16.60331726      40.02698517       9.80381393
C       16.85078812      41.38674164      10.11033535
C       17.53944206      39.05550385      10.18750381
C       15.97192955      42.36931229       9.59211063
C       14.89224911      41.99924088       8.85125732
C       18.66284752      39.39348221      10.86216545
H       13.86662006      40.37297821       7.87121201
H       19.72733879      40.97882080      11.86975002
H       15.30193710      38.62893295       8.80247784
H       18.12797356      42.71778107      11.19053173
H       17.33234596      38.03751373       9.91526604
H       16.19997215      43.40322876       9.77499676
H       14.21590710      42.75749207       8.46274853
H       19.37376022      38.62590408      11.10390663
C       22.73106956      28.72152138      14.62254047
C       21.44592476      31.74132156      18.43903923
C       22.29468918      28.49063301      15.89235401
C       21.77117348      31.97467041      17.13533974
C       21.95802498      29.56508255      16.75061798
C       22.06831169      30.88948059      16.26738548
C       21.55656815      29.36042404      18.09310913
C       22.53340912      31.09938622      14.94422531
C       22.85945511      30.04485893      14.13890934
C       21.32904243      30.42477417      18.92214203
H       22.98209763      27.88722229      13.98076439
H       21.24991226      32.57796860      19.10855484
H       22.18086243      27.47422600      16.25808144
H       21.84758186      32.99169159      16.74817276
H       21.44246292      28.34826088      18.45776749
H       22.64999962      32.12350845      14.57747555
H       23.22505188      30.22375107      13.12685108
H       21.03640747      30.26265335      19.95692635
C        0.44230396      38.27163315       0.95711195
C        1.98689711      34.04217911       3.21640778
C        0.93952107      37.08975601       0.49918753
C        1.43089390      35.19887161       3.67476869
C        1.26934886      36.04161835       1.38841903
C        1.05461633      36.23348999       2.77461123
C        1.85257125      34.82930756       0.93756038
C        0.55572563      37.47478104       3.22852468
C        0.26156738      38.47340393       2.34439611
C        2.20420170      33.85583496       1.82695186
H        0.18944372      39.06536865       0.25194660
H        2.25856876      33.26313782       3.91381359
H      -17.69246292      36.93449783      27.96449089
H        1.28427029      35.36956024       4.73388767
H      -16.76556778      34.70470428      28.39674568
H        0.44938511      37.63572311       4.28846645
H       -0.10327540      39.43601990       2.72969437
H        2.65693092      32.94845200       1.47526205
C        5.60470533      54.27156448       7.29001379
C        0.91745871      55.02614594       5.69161034
C        4.67678881      53.47187805       6.69670963
C        1.84969079      55.84495163       6.24609709
C        3.40655112      53.97788620       6.35391378
C        3.12528944      55.33853912       6.60908937
C        2.41540408      53.15635681       5.77092457
C        4.12953806      56.16213608       7.16845512
C        5.34208059      55.62905121       7.51664877
C        1.19381070      53.66983414       5.45790243
H        6.56183004      53.85281372       7.60340309
H       -0.04885009      55.41821289       5.42947054
H        4.89035749      52.44631577       6.47328377
H        1.62753415      56.90565109       6.40782976
H        2.63102484      52.11823654       5.59371233
H        3.91133475      57.19490814       7.35679245
H        6.08618498      56.24761963       8.01630116
H        0.42863813      53.04412842       5.02877331
C       10.80704403      47.21826553       3.56431365
C       15.40631104      48.98200607       4.58413124
C       11.49912453      48.32741547       3.16658258
C       14.70377445      47.90060043       5.02830172
C       12.80594158      48.57213593       3.65253544
C       13.38685036      47.65521240       4.57031870
C       13.54601860      49.69943237       3.23231864
C       12.63227749      46.52302551       4.96444273
C       11.36892891      46.31194305       4.48731613
C       14.82207298      49.89849091       3.68124080
H        9.83716774      47.01352692       3.15899158
H       16.43864250      49.14360428       4.92260885
H       11.06913853      49.03124619       2.47553110
H       15.15079594      47.19454193       5.71708584
H       13.09893513      50.37967300       2.52335048
H       13.07524586      45.80933762       5.65158224
H       10.79885197      45.42800140       4.79342365
H       15.37305260      50.75619507       3.34074903
C       18.11013222      57.48625946      11.79967880
C       17.98891449      57.40874100      16.81042862
C       18.15892792      58.46566010      12.74785137
C       17.96700478      56.43533325      15.85669327
C       18.03370094      58.13820648      14.12532425
C       17.97931671      56.77315140      14.49263000
C       17.99989319       0.19555274      15.13155842
C       17.90908623      55.78166580      13.48790836
C       17.92193794      56.14028931      12.17344475
C       17.96918869      58.76808548      16.44969940
H       18.21767235      57.71285629      10.73722267
H       18.04384613      57.11397934      17.83350563
H       18.29486656       0.57180786      12.48134804
H       17.97840881      55.39477158      16.14054489
H       18.03219032       1.23542416      14.85904121
H       17.80094719      54.73851395      13.78696918
H       17.77283287      55.38040161      11.40541935
H       17.98377419       0.60459173      17.20648193
C       -7.04870796      55.37606049      17.56427193
C      -11.36820412      56.18466187      19.99661064
C       -7.55438471      54.92080307      18.73852539
C      -10.93343353      56.48737335      18.73962975
C       -8.83926392      55.32672501      19.17055130
C       -9.64757633      56.08509445      18.29858398
C       -9.28576374      55.10123444      20.48926163
C       -9.11597633      56.48735046      17.04646301
C       -7.82915068      56.18535614      16.71252251
C      -10.52291012      55.50604630      20.89619064
H       -6.01074219      55.14959335      17.30130196
H      -12.35485744      56.49156570      20.32682419
H       -6.94476843      54.31801605      19.38234138
H      -11.54686165      57.07395935      18.08095169
H       -8.61848831      54.60876465      21.20014000
H       -9.74382877      57.05718231      16.39086533
H       -7.39760542      56.56181717      15.77854156
H      -10.85680389      55.31172562      21.90642166
C       -2.55053592      38.76942444      22.96081543
C       -1.24182832      34.28725052      21.08047867
C       -1.72987270      38.37633514      21.94841957
C       -2.13654828      34.67522430      22.03616142
C       -1.60319114      37.01102448      21.61216354
C       -2.32359767      36.04392624      22.34829330
C       -0.70757228      36.57964706      20.61005783
C       -3.23440814      36.48687744      23.33912468
C       -3.34527922      37.81616211      23.62504578
C       -0.50797546      35.25573349      20.36432457
H       -2.59673405      39.79982758      23.28120995
H       -1.11219549      33.24026489      20.85367203
H       -1.12411749      39.09762955      21.42436981
H       -2.74917531      33.94170380      22.55843735
H       -0.15327646      37.34322739      20.05080795
H       -3.85727358      35.75890350      23.84019852
H       -4.06598806      38.15495300      24.35110283
H        0.22026217      34.93502808      19.60287666
C        6.72608709      47.35107803      13.30861950
C       11.23032475      47.66489792      15.46643829
C        8.00002193      47.30783081      12.84055901
C        9.98716640      47.42118073      15.97398376
C        9.09312725      47.45219040      13.71282578
C        8.86762047      47.41864014      15.10168266
C       10.39364529      47.71191025      13.22056293
C        7.53072834      47.44554520      15.56565952
C        6.49487257      47.47431564      14.68746281
C       11.42274570      47.88968277      14.08783340
H        5.90977955      47.31935883      12.61084938
H       12.09770775      47.69397736      16.11866760
H        8.20230103      47.22175980      11.78055000
H        9.82978153      47.27431107      17.03480911
H       10.53456593      47.80189133      12.15574646
H        7.35303545      47.51856613      16.63643837
H        5.48493052      47.57040024      15.06204796
H       12.39940357      48.13106537      13.71483994
C      -13.42666912      45.28605270      24.01407051
C       -8.86619949      44.16151810      22.21690559
C      -12.71531296      44.12324905      23.90493011
C       -9.60070610      45.31308365      22.22966194
C      -11.46798611      44.11133194      23.24014664
C      -10.92096233      45.31275558      22.75007439
C      -10.71777058      42.91522598      23.11721039
C      -11.68594074      46.49326706      22.86610031
C      -12.91515350      46.47994232      23.46655083
C       -9.44073677      42.94110107      22.64118958
H      -14.39013767      45.28918839      24.49649429
H       -7.84639311      44.16856766      21.83238602
H      -13.11164093      43.19300842      24.28171730
H       -9.17005920      46.25626373      21.88467216
H      -11.18466473      41.99267960      23.40421295
H      -11.24548340      47.41914749      22.54057884
H      -13.48067474      47.39386749      23.56848335
H       -8.87711811      42.00971985      22.54997635
C       29.20703888      42.84022522       8.71679783
C       29.22524071      40.47696686      13.14990234
C       28.85201645      43.22561264       9.98027420
C       29.44420242      40.06888962      11.86928844
C       28.88015938      42.28709030      11.04575253
C       29.28661156      40.96523285      10.78152657
C       28.59729385      42.66701508      12.37906837
C       29.55624962      40.58319473       9.44471264
C       29.53291893      41.49928665       8.43500328
C       28.79139709      41.79233933      13.41279602
H       29.23125839      43.56325912       7.92541790
H       29.37372971      39.78703308      13.96879864
H       28.58473396      44.25738144      10.18110561
H       29.71958923      39.04584122      11.67906475
H       28.25386810      43.67805481      12.59712410
H       29.77310944      39.52986908       9.24059391
H       29.73219681      41.21237564       7.41295385
H       28.59727669      42.10003662      14.42956162
C       33.58619308      44.33589935       4.68272686
C       28.66082573      43.77220917       5.32914686
C       32.63976288      45.11360931       5.27585602
C       29.64401054      42.92112350       4.92553234
C       31.31476402      44.62435150       5.42820454
C       30.99576569      43.33105469       4.95372105
C       30.28496170      45.42562866       5.95419884
C       32.03234863      42.50667191       4.46206141
C       33.28770828      43.00762177       4.31213093
C       28.98637390      45.02434158       5.88329983
H       34.56428528      44.74744034       4.47366095
H       27.62186813      43.49439621       5.22756529
H       32.85870743      46.14003754       5.58991194
H       29.41301346      41.93772507       4.53087234
H       30.55904198      46.40800095       6.33027172
H       31.81238747      41.48955536       4.17935801
H       34.05934143      42.39448929       3.87121177
H       28.18994522      45.68156433       6.22353745
C       18.39362144      53.58861923       4.27348328
C       15.49858856      55.52053070       7.89204741
C       18.52081871      54.67454147       5.09176302
C       15.47817326      54.33709335       7.21502399
C       17.52432251      54.96700287       6.05505657
C       16.45380592      54.06366730       6.22863865
C       17.54885864      56.15893936       6.81896639
C       16.33601570      52.94816971       5.36257458
C       17.26203728      52.74734879       4.38249016
C       16.53908348      56.44704819       7.69456100
H       19.13609695      53.40006256       3.50277138
H       14.68080139      55.75894165       8.56412315
H       19.37085724      55.35809708       4.96662998
H       14.69036293      53.63404465       7.38635683
H       18.36640739      56.84215927       6.66401052
H       15.50470638      52.27462006       5.48806572
H       17.14817238      51.93774796       3.69739771
H       16.51880836      57.38407516       8.24298859
C        2.21593142      30.98631668      24.05520630
C       -0.59400272      30.41410637      19.92739487
C        2.51549363      30.76523590      22.74006653
C       -0.88305885      30.76782989      21.20711708
C        1.49499416      30.66348076      21.77103043
C        0.15027519      30.84654236      22.17840576
C        1.76128352      30.31797791      20.41069794
C       -0.13183317      31.06035423      23.54367638
C        0.86679888      31.10780334      24.46706581
C        0.73405457      30.16825294      19.52658844
H        3.00573230      31.05240250      24.79977226
H       -1.39766049      30.30346680      19.21500587
H        3.54239058      30.66263771      22.41423988
H       -1.90556347      30.97719002      21.50202942
H        2.78526115      30.13985252      20.11921692
H       -1.17729414      31.14159393      23.86075974
H        0.64063871      31.24626350      25.52373695
H        0.90925449      29.84712028      18.49880219
C       10.69951344      46.10689545      25.93186378
C       12.39248943      41.77186584      27.65777397
C       11.76522064      45.78683472      26.91031647
C       11.24889565      42.12922287      27.07524109
C       11.99509048      44.49326324      27.12356758
C       11.08961296      43.48423767      26.43790436
C       13.24546909      44.02919006      27.66652107
C        9.67295361      43.96897507      26.41944885
C        9.47513962      45.25447083      26.17840004
C       13.47740364      42.72506714      27.85076714
H       10.43113136      47.14961624      25.92078972
H       12.54511738      40.78000641      28.03252792
H       12.43749714      46.55539703      27.26261330
H       10.41561031      41.43687058      26.98986626
H       13.98473644      44.78504181      27.88791466
H        8.88122940      43.22711182      26.42050934
H        8.49678230      45.65648651      26.00374985
H       14.42907906      42.38595581      28.23707962
C       17.75900650       0.01090111       4.24442720
C       18.20172310      55.01484680       1.16056931
C       17.06682014      57.78043365       4.10511684
C       18.91931915      56.16001511       1.32128549
C       17.38711166      56.88138962       3.06606627
C       18.51782989      57.14057159       2.25893784
C       16.60622978      55.73657227       2.80929589
C       19.19787788      58.38043594       2.39883280
C       18.80077553       0.33847362       3.34401560
C       16.99114037      54.83229065       1.86642802
H       17.48635674       0.70536608       5.02481508
H       18.55468941      54.26553345       0.46441126
H       16.22732735      57.54030609       4.76168013
H       19.79952049      56.35171890       0.71132386
H       15.71515942      55.57760620       3.41034293
H       20.00369072      58.62911224       1.71251822
H       19.27708054       1.29694784       3.42008924
H       16.38749695      53.94681168       1.71102667
C       26.27554131      45.56240845      11.46287918
C       21.84327698      47.18682098       9.73793411
C       25.59548569      46.73132324      11.61617851
C       22.48848152      45.99181747       9.71550655
C       24.29339981      46.88368607      11.07727051
C       23.72916222      45.80597687      10.35865784
C       23.55766296      48.09712601      11.16256332
C       24.44468880      44.58251572      10.23869514
C       25.69124603      44.47058868      10.78142929
C       22.36879539      48.24217224      10.50672436
H       27.27844048      45.46779251      11.86267567
H       20.93536949      47.32054901       9.17639160
H       26.08550644      47.55854797      12.13574505
H       22.07262611      45.16136932       9.17480087
H       23.94093704      48.91121674      11.75953102
H       23.97250557      43.76775742       9.69220924
H       26.23473358      43.54080200      10.69790363
H       21.82309532      49.17486191      10.55302048
C       25.34382248      45.24517822      15.08465385
C       25.95092392      40.28953552      14.39757538
C       24.98569870      44.38834381      14.08598995
C       26.37752724      41.16749573      15.34984589
C       25.33812523      43.01882553      14.13452339
C       26.08717918      42.55112076      15.23907089
C       24.92438507      42.08873367      13.15343475
C       26.46950531      43.46228027      16.25309181
C       26.07394028      44.76828003      16.18972015
C       25.21543312      40.76104355      13.28249741
H       25.04545212      46.29363632      15.04240131
H       26.15925407      39.23456955      14.50928783
H       24.39893532      44.73995209      13.23936653
H       26.93197823      40.82287979      16.21100044
H       24.33254433      42.44859314      12.31815624
H       27.04478073      43.08406448      17.09910393
H       26.29292870      45.43439484      17.00648117
H       24.84024429      40.03588867      12.56479836
C        4.59340858      49.26589966       3.74055147
C        3.82302666      44.45893478       2.46379828
C        3.47983551      48.49966431       3.60222197
C        4.94471264      45.23128891       2.57545257
C        3.57529950      47.14114761       3.22378659
C        4.85110092      46.58522415       2.97259116
C        2.43231893      46.30555344       3.13231778
C        5.98802614      47.41143799       3.10966563
C        5.86325121      48.72410202       3.44994378
C        2.55704141      44.99505997       2.78052425
H        4.52229500      50.30031204       4.05713511
H        3.90115643      43.40734863       2.16806817
H        2.49498558      48.92809296       3.82270575
H        5.92472506      44.80556107       2.36509943
H        1.46974719      46.72112274       3.34166408
H        6.95809078      46.97685623       2.93981314
H        6.73271275      49.36484146       3.50712109
H        1.68081832      44.36224747       2.70955014
C       11.17996502      47.42191315       7.94520950
C        7.28991175      49.09433746      10.61340332
C        9.86835480      47.07707596       7.96949673
C        8.63170719      49.31800079      10.67987823
C        8.99259758      47.66582489       8.92116737
C        9.51354980      48.61621475       9.82708454
C        7.60045338      47.40649796       8.91928768
C       10.90311813      48.89418030       9.82255363
C       11.71850395      48.31824112       8.89458656
C        6.77048922      48.11120987       9.74860764
H       11.81977749      47.02703476       7.16968679
H        6.60945988      49.63645935      11.26515102
H        9.46930408      46.41702271       7.21326160
H        9.04476261      50.04922867      11.37707233
H        7.17416716      46.70041656       8.21772194
H       11.30027294      49.57378387      10.56345367
H       12.78157711      48.54861832       8.86871910
H        5.70516157      47.96608353       9.70848751
C      -10.76161957      56.54385757      27.84948730
C        8.80256844      58.63808060       3.83153081
C       -9.69923782      57.18632889      28.41295815
C        7.82007122      57.84172821       3.33140874
C        9.04635143      57.62681198       1.23437262
C        7.90109205      57.32856750       2.00651002
C       10.04963779      58.45724106       1.78658414
C        6.81151390      56.65589142       1.39203632
C        6.88122320      56.27619553       0.08127017
C        9.93066311       0.03489779       3.04348731
H      -10.73729420      56.25009918      26.80434990
H        8.72548771       0.12412145       4.81750154
H       -8.82682896      57.42507553      27.81020164
H        6.94525433      57.63649368       3.91022372
H       10.89285374      58.73213577       1.14687705
H        5.90765238      56.48112869       1.94322348
H      -12.76226711      55.79455185      28.13852310
H       10.68495178       0.70798832       3.43923235
C        8.81606197      48.96817017       0.53361726
C      -14.53011703      49.63408279      27.05769920
C      -10.58280945      50.01426315      28.41897392
C      -13.88386917      48.53666687      27.53659630
C      -11.90237141      49.89744949      27.94110680
C      -12.56280518      48.65481567      28.03556252
C      -12.60195637      51.01038742      27.41748428
C        6.87717628      47.59178925       0.17749323
C        8.11785030      47.76836014       0.71996272
C      -13.88843727      50.89794922      27.01256371
H        9.81384945      49.06385040       0.92741996
H      -15.56319618      49.54466629      26.73318672
H      -10.08659649      50.96694565      28.31668091
H      -14.37518692      47.56515121      27.57825851
H      -12.12404346      51.97936249      27.43360519
H        6.33145332      46.66305542       0.31252205
H        8.57948875      46.98342514       1.30695546
H      -14.43647003      51.78266144      26.71605301
C        3.45736885      34.74960327      13.07057762
C        3.82860398      33.65286255      17.97328186
C        3.16025829      35.41819382      14.21973038
C        4.25392771      33.01965714      16.85030937
C        3.42953110      34.85773468      15.48635578
C        4.02068901      33.58953094      15.57389736
C        3.08295012      35.54526901      16.67218208
C        4.29022360      32.90122986      14.36459637
C        3.99837685      33.45294571      13.15515995
C        3.21751881      34.92170715      17.87491989
H        3.29721069      35.21340942      12.10115719
H        3.94228935      33.19284821      18.94643974
H        2.72870421      36.41182327      14.17619896
H        4.73688793      32.05511475      16.93628120
H        2.66941142      36.55349731      16.61494064
H        4.70741224      31.91869736      14.39882374
H        4.17897367      32.89397430      12.25082874
H        2.87458014      35.40985107      18.75378609
C        7.48355484      33.84601974       5.34106207
C        7.73808956      33.48985291       0.32265863
C        8.00142574      32.91907501       4.48465013
C        7.32362890      34.47682190       1.17569900
C        7.90009403      33.07867050       3.08267426
C        7.35487700      34.28154755       2.57858038
C        8.27717304      32.05556107       2.18099546
C        6.85585356      35.24916458       3.48678136
C        6.89517450      35.02600861       4.83874941
C        8.19102478      32.24576950       0.83008474
H        7.49426746      33.65865707       6.41334057
H      -11.08236027      33.65262985      27.79270935
H        8.48036957      32.02435684       4.86969042
H        6.96707010      35.42275620       0.78210783
H        8.61236286      31.10115433       2.57767034
H        6.41378403      36.15122223       3.11063337
H        6.47787952      35.74015808       5.53468466
H        8.45247555      31.44902802       0.15716043
C       21.04393387      47.63864136      27.94355011
C        0.14287207      42.67392731       0.26237547
C       20.08892250      46.66991043      27.90261841
C        1.13050818      43.62038422       0.16485955
C       20.42321396      45.31940079      28.17739677
C      -17.98950768      44.96628952      28.39167786
C       19.43253136      44.31023026      28.24561691
C      -17.00520134      45.98397446      28.32853508
C      -17.36095047      47.29412460      28.15092468
C       38.55926132      43.01994324       0.03069453
H       20.76372147      48.68669510      27.81648827
H        0.39784569      41.64847565       0.46686250
H       19.05381966      46.92911530      27.71065712
H        2.16138959      43.34164429       0.29469952
H       18.39304161      44.58031082      28.03011703
H      -15.95649338      45.71081924      28.48019981
H      -16.60346794      48.07106018      28.18200493
H       37.79361725      42.24534988       0.01918683
C       -4.45313883      42.17618561      11.03677559
C       -5.65426207      38.18851852      13.82971668
C       -4.87199974      42.03855515      12.32450581
C       -4.88334036      38.34477997      12.72097683
C       -5.12767410      40.75983047      12.86601925
C       -4.72451448      39.62351990      12.13155079
C       -5.88772774      40.57902527      14.04134941
C       -4.26738214      39.78415680      10.81372166
C       -4.22417593      41.02524185      10.25241375
C       -6.22497988      39.31765366      14.44695950
H       -4.37351227      43.16648865      10.59853268
H       -5.82866907      37.18974304      14.23247337
H       -5.10923576      42.89805984      12.91568851
H       -4.41026640      37.48729324      12.23520851
H       -6.24459314      41.44327164      14.56867790
H       -4.03566217      38.90921021      10.21998501
H       -4.03016424      41.12406540       9.18331242
H       -6.90930271      39.17740250      15.26650715
C        8.58006763      35.65382004      15.25826073
C        4.68111229      37.99360657      13.10796833
C        8.33431435      36.10680008      13.99678230
C        4.94431210      37.58404160      14.38401604
C        7.09766006      36.72091293      13.68089962
C        6.12138176      36.86209488      14.68918037
C        6.82809544      37.24470520      12.40059662
C        6.39704227      36.37979507      15.99672222
C        7.59912777      35.80026627      16.26719475
C        5.62209368      37.79497147      12.08705235
H        9.53722477      35.20113754      15.49267578
H        3.73377347      38.48415375      12.88134670
H        9.08767509      36.01508713      13.21690464
H        4.21888065      37.76986694      15.18005657
H        7.63577604      37.26171494      11.69062710
H        5.64510536      36.50018692      16.77594185
H        7.81163788      35.45552063      17.26133156
H        5.42392778      38.15856552      11.08262348
C       32.70510864      40.92127609       7.47570896
C       31.83756447      43.67473221      11.54240608
C       32.70281601      42.26057053       7.69921780
C       32.02032089      42.34006882      11.35321617
C       32.51432419      42.75709152       9.00662327
C       32.36390305      41.84106445      10.07319546
C       32.36539459      44.14504242       9.23938370
C       32.49533844      40.46108246       9.82059574
C       32.64649200      40.00946808       8.54247475
C       32.01527786      44.59323120      10.47751045
H       32.75853348      40.57722473       6.45503759
H       -8.24772167      44.03510284      12.51493835
H       32.80522919      42.95006943       6.87136888
H       -7.88893604      41.61351013      12.14952087
H       32.47508240      44.82501602       8.41163826
H       32.43717957      39.76200867      10.64742374
H       32.69688034      38.94650269       8.34011841
H       31.84673882      45.64066315      10.64231777
C       -5.16686869      29.68379784      23.98102951
C       -4.93592501      34.15144348      26.23270988
C       -4.23050499      30.66624069      24.02128220
C       -5.89723921      33.18957901      26.14947319
C       -4.45335722      31.86114311      24.73512459
C       -5.69632959      32.02975082      25.38255692
C       -3.45451522      32.85880661      24.86821556
C       -6.68510056      31.01984024      25.27635002
C       -6.41573286      29.86341858      24.60866547
C       -3.69430661      33.98342514      25.59145164
H       -4.93271065      28.76069450      23.48075294
H       -5.10210657      35.00858307      26.85268784
H       -3.27091670      30.52587318      23.52878189
H       -6.81804848      33.28388214      26.71061134
H       -2.49272203      32.71478653      24.38448524
H       -7.64683342      31.18186188      25.74985695
H       -7.17045403      29.07306862      24.55765533
H       -2.91662407      34.74447250      25.70897675
C       -6.60695982      54.03821564      14.55664349
C       33.11044693      53.72409821       9.55906391
C       -7.16475248      54.80346680      13.57944107
C       -6.03992081      52.98820496      10.53527260
C       -6.99114323      54.46184158      12.22200584
C       -6.20979595      53.33286285      11.89302921
C       32.18739700      55.22964478      11.18152809
C       -5.65812063      52.54836273      12.93564606
C       -5.85863543      52.88457108      14.23556995
C       32.34572983      54.86411667       9.88007927
H       -6.79715109      54.25677109      15.59293938
H       33.16962433      53.40651703       8.53864574
H       -7.77210045      55.66733933      13.81929874
H       -5.48439360      52.08233643      10.28845692
H       31.59260750      56.09545898      11.45650673
H       -5.11975336      51.63100815      12.67677498
H       -5.47720575      52.25458527      15.03292179
H       31.86736298      55.43907166       9.08000183
C      -15.11905479      38.68080902      26.23015022
C      -10.80710316      39.56870270      23.79837608
C      -14.57760429      38.19841385      25.06515884
C      -11.38237572      40.10052490      24.91343117
C      -13.33936214      38.69297409      24.58370399
C      -12.66427898      39.67934799      25.33818436
C      -12.73379803      38.19290924      23.40262604
C      -13.27290154      40.20394516      26.50337982
C      -14.46912193      39.71052170      26.95250702
C      -11.49220753      38.60611725      23.01924896
H      -16.06073380      38.26651764      26.62137604
H       -9.82576275      39.88676453      23.49485588
H      -15.07666206      37.41225052      24.51112366
H      -10.85308552      40.86459732      25.48923683
H      -13.28467369      37.43796539      22.82204437
H      -12.76128387      40.99470520      27.04837036
H      -14.89961529      40.08636475      27.85733795
H      -11.01221848      38.19307327      22.15070534
C       24.57613945      41.58752823      22.82521820
C      -12.60999012      44.23855591      19.41760063
C       24.58428383      42.90020752      22.46883774
C      -12.69753838      42.90637589      19.69190407
C       25.42958641      43.35280609      21.43008995
C      -13.52284336      42.43151474      20.73407555
C       25.52221489      44.72349548      21.10704994
C      -13.56058598      41.07209778      21.11638451
C      -14.37231445      40.66835403      22.13558006
C       26.37871742      45.16470337      20.14032936
H       23.92759705      41.24338531      23.62240410
H      -11.93535137      44.58226013      18.64855385
H       23.96666527      43.62351608      22.97638512
H      -12.12659740      42.18280029      19.11513901
H       24.93982887      45.42244720      21.68074608
H      -12.94315433      40.36528778      20.60146904
H      -14.37827587      39.63150406      22.42393112
H       26.44141388      46.22043991      19.94584274
C        5.25552416      42.56420517      23.10517693
C        9.16310692      39.40802383      23.79503822
C        5.92986679      41.68927002      22.27738953
C        8.27711964      40.09255600      24.76805687
C        7.02382278      40.94507599      22.76412010
C        7.39457417      41.11701202      24.12049103
C        7.76558399      40.06014252      21.93896866
C        6.76466513      42.07555389      24.88628006
C        5.69055843      42.79592514      24.39710045
C        8.87556648      39.39688873      22.45638657
H        4.38311768      43.08477402      22.76273918
H       10.05281734      38.89778519      24.16184807
H        5.63475561      41.53733063      21.23517227
H        8.88374615      40.54522705      25.57998848
H        7.47520304      39.95368195      20.90067101
H        7.07696342      42.21849823      25.91492271
H        5.17830849      43.51160431      25.02547264
H        9.50965977      38.82665634      21.79054642
C        3.87529182      39.68178177      24.03425026
C        8.06091881      36.94758606      24.66429710
C        4.92880344      39.73992538      24.91498566
C        7.09453249      36.93642044      23.75092697
C        6.01225710      38.87864304      24.79828072
C        5.95826578      37.83921814      23.86887169
C        7.27099991      39.09683609      25.57328415
C        4.84210825      37.72256470      23.05234718
C        3.84301639      38.67319107      23.08150482
C        7.93882084      37.77735138      25.90586090
H        3.09489250      40.42681503      24.08235741
H        8.94991493      36.33721161      24.53700447
H        4.95432615      40.52128983      25.64869499
H        7.14617205      36.30528259      22.85408401
H        7.03719234      39.65156555      26.48625946
H        4.78084135      36.88525772      22.38836861
H        3.03626013      38.60467911      22.36888313
H        8.94394112      37.97505951      26.30442238
C       17.76569748      41.29097748       0.67859614
C       21.84741211      38.37800980       0.74892235
C       19.07499123      41.52213669       0.97784704
C       20.52346230      38.12100220       0.54047394
C       19.99814224      40.44499207       1.02590251
C       19.56297302      39.14577866       0.68645936
C       21.35536194      40.64283752       1.35794342
C       18.18054771      38.92880249       0.47044832
C       17.30224419      39.97424316       0.48535451
C       22.26128387      39.62985611       1.22151434
H       17.04760361      42.11226273       0.61163431
H       22.57866669      37.60892105       0.56912643
H       19.43004417      42.52954483       1.18623078
H       20.20938683      37.12593460       0.23561291
H       21.68995667      41.61799622       1.64688063
H       17.81917572      37.91595459       0.31426159
H       16.24571800      39.78582001       0.34817630
H       23.30900764      39.79796600       1.44301867
C       18.86247635      30.46481514      21.74236488
C       18.43059540      32.35024261      17.12291336
C       18.87691116      31.74118042      21.24624252
C       18.28067780      31.09886742      17.64040756
C       18.56911659      31.98597336      19.88906479
C       18.30829048      30.88423729      19.04161263
C       18.58206367      33.28813934      19.33283043
C       18.18232918      29.59680176      19.61281395
C       18.44437790      29.38963890      20.93742180
C       18.50077438      33.47026825      17.98022842
H       19.14334106      30.28881836      22.76622772
H       18.49136162      32.49570465      16.05365181
H       19.16118431      32.56867218      21.87981796
H       18.19544983      30.23903084      16.98997307
H       18.68271446      34.14046097      20.00925446
H       17.89985085      28.74897575      18.99291611
H       18.35434341      28.39077950      21.34443092
H       18.52148819      34.46945572      17.55409241
C        0.38965753      44.99398804      25.13455391
C       -2.01441956      45.12569809      20.74354935
C       -0.74266529      45.62192917      24.71206284
C       -0.91870219      44.45967865      21.20083809
C       -1.22671521      45.42248154      23.40684891
C       -0.49624589      44.58136368      22.53596497
C       -2.40710640      46.04435349      22.93738747
C        0.64565241      43.89482498      23.01769066
C        1.08638501      44.09725952      24.29390526
C       -2.79684925      45.88466644      21.63564110
H        0.75877899      45.16619492      26.12889481
H       -2.32271266      45.00717926      19.72124290
H       -1.28181481      46.31345749      25.37194824
H       -0.36211839      43.80681610      20.53688240
H       -3.00143743      46.63590622      23.63168716
H        1.14604723      43.22438049      22.33900261
H        1.95694840      43.58556366      24.66183472
H       -3.71214676      46.31755829      21.28784943
C        4.81333494      39.04001236      19.01582527
C        4.40503693      34.52490616      21.20553017
C        3.75925446      38.33275604      19.51519394
C        5.45007277      35.20474243      20.65517807
C        3.96573400      37.06123734      20.10329247
C        5.26603222      36.49884796      20.10033607
C        2.90185952      36.32831573      20.69417572
C        6.34419823      37.26907349      19.60121346
C        6.12214041      38.51340485      19.08472824
C        3.10916162      35.08908844      21.22337914
H        4.65964842      40.01923370      18.55829430
H        4.55051851      33.52843857      21.63177872
H        2.76898766      38.72493362      19.46305656
H        6.43853712      34.77111816      20.64653206
H        1.90452063      36.73989487      20.65448570
H        7.33477688      36.87626266      19.65806389
H        6.95534945      39.10981369      18.71871376
H        2.27570915      34.51731110      21.61982727
C       26.99851799      40.67433548       6.10354662
C       26.99727440      38.57856369      10.68009567
C       27.23133850      39.40271378       6.54326200
C       26.54598427      39.76901245      10.19089222
C       27.17536163      39.09808350       7.92996883
C       26.70649147      40.08426285       8.82156849
C       27.67140579      37.88109207       8.46848488
C       26.48819733      41.38526535       8.33837032
C       26.66481209      41.69045639       7.02360868
C       27.62200928      37.65637589       9.81444359
H       27.11009979      40.90190125       5.04385948
H       26.90476418      38.33848572      11.72908306
H       27.47851562      38.61808777       5.84598589
H       26.12160873      40.52521896      10.84699726
H       28.15284538      37.16340637       7.80282545
H       26.21005440      42.15769577       9.03876305
H       26.53568077      42.70157623       6.71933937
H       28.04298782      36.75663376      10.21795940
C       -4.06963444      35.10074997       7.45243835
C       -5.96901178      35.11888504      12.09290791
C       -4.02236557      34.21800232       8.48603058
C       -5.90093756      36.05437088      11.11230850
C       -4.56446028      34.53829575       9.75534344
C       -5.19224787      35.79131317       9.91458988
C       -4.58686066      33.61601639      10.82766724
C       -5.12464333      36.73598862       8.86162758
C       -4.57610416      36.39433289       7.66095400
C       -5.30319834      33.88371277      11.95154285
H       -3.64709783      34.84247208       6.50243235
H       -6.51080370      35.32030487      13.00639343
H       -3.56853604      33.24724197       8.34927273
H       -6.39351749      37.00528336      11.22732067
H       -4.06472778      32.66973495      10.72440720
H       -5.51766300      37.74623871       9.04287815
H       -4.48582649      37.13244247       6.88137293
H       -5.36960840      33.17052078      12.73951626
C       17.77464104      43.03367996       6.86865902
C       14.02813435      40.32648468       4.95304966
C       17.63115311      41.70364761       6.58876181
C       14.21699810      41.66202927       5.13333178
C       16.41767502      41.22795486       6.04844761
C       15.37979507      42.13973618       5.78487349
C       16.19678879      39.85316086       5.81340837
C       15.54007149      43.49314499       6.13567352
C       16.71201706      43.93492889       6.66990185
C       14.99417496      39.40658951       5.39983892
H       18.73584175      43.39926910       7.19433117
H       13.15044785      39.95295715       4.44963789
H       18.44709206      41.00741577       6.74190044
H       13.48135281      42.38449860       4.79314613
H       17.00021172      39.15750504       5.95941877
H       14.72937489      44.18062210       5.95599365
H       16.83590889      44.97943115       6.89957094
H       14.79279137      38.34862518       5.34115505
C       22.76012611      52.48428726      21.54529381
C       23.02865601      57.44798279      20.72754478
C       21.81458855      53.45733643      21.39845848
C       23.95556259      56.44627380      20.74846077
C       22.19489098      54.79532242      21.13248825
C       23.57250023      55.10524368      20.98012352
C       21.25736618      55.84378052      21.04657555
C       24.52256012      54.05723572      21.05868340
C       24.12738037      52.78894043      21.34357262
C       21.65770531      57.14059448      20.88610458
H       22.46881104      51.46901703      21.77790260
H       23.33380890      58.47986984      20.59047699
H       20.75445175      53.23359680      21.47538376
H       24.99952507      56.66905212      20.60054016
H       20.20092392      55.60050583      21.16265678
H       25.58133507      54.28005219      20.89295197
H       24.84602547      52.00170136      21.39821625
H       20.94282913      57.94214630      20.87808418
C       -0.25108033      32.43161011      17.03169250
C       -0.71773797      28.98104858      13.40468979
C       -1.07700729      31.36600685      16.84987640
C       -0.00614107      30.13932228      13.49870205
C       -0.97183967      30.55527878      15.69824123
C       -0.08348889      30.94482613      14.66413307
C       -1.70211899      29.34742737      15.57217026
C        0.68016905      32.12690353      14.83277702
C        0.63649958      32.82518387      16.00798988
C       -1.55146444      28.56322861      14.46516132
H       -0.28315821      32.99657059      17.96042252
H       -0.63838267      28.35129166      12.52191257
H       -1.82542682      31.11136818      17.57222176
H        0.64921474      30.45470810      12.70917702
H       -2.34995604      29.04864883      16.36790085
H        1.34101474      32.45439529      14.03635406
H        1.28391445      33.69201279      16.15983582
H       -2.07807660      27.61400032      14.40570354
C       30.56942940      30.08452225       3.42922568
C       35.22803879      31.84239388       2.68229866
C       31.57832718      30.45438194       4.26952648
C       34.17434311      31.57851982       1.85316467
C       32.80718231      30.93441772       3.75303555
C       32.94255447      31.11054230       2.36279202
C       33.89740372      31.24872208       4.59262705
C       31.83941269      30.82460403       1.52243364
C       30.70142937      30.27726555       2.03787041
C       35.08283234      31.68471527       4.08238125
H       29.65788460      29.66073036       3.82037807
H       36.15636444      32.19126892       2.26062226
H       31.45943832      30.39829636       5.35345984
H       34.26763916      31.72887993       0.78737688
H       33.75497055      31.15981102       5.66172361
H       31.91533279      31.04681778       0.45776144
H       29.87801361      30.00728035       1.38799334
H       35.91490173      31.94747925       4.73022652
C        4.01464462      45.73863983      20.23838615
C        0.45822591      42.64200974      18.59337425
C        2.80088425      45.96165466      19.64656258
C        1.46023750      42.48511124      19.50645256
C        1.90875685      44.88943481      19.41051102
C        2.23917532      43.60173035      19.90136909
C        0.79952848      45.02927017      18.54182053
C        3.44993019      43.42993164      20.60755920
C        4.33781147      44.45794296      20.73267364
C        0.11196073      43.92919922      18.12368584
H        4.73292065      46.53256989      20.33552551
H       -0.04978817      41.78517151      18.19544601
H        2.54690433      46.94359207      19.26031685
H        1.74371338      41.50316620      19.85704231
H        0.55266851      46.01634979      18.16444588
H        3.69228148      42.43936157      20.96645546
H        5.29303265      44.30038452      21.18614578
H       -0.68092400      44.03636932      17.39734650
C       26.70419884      51.91443634       8.19934940
C       27.34669495      46.94263840       8.35763359
C       27.75419807      51.10287476       7.89986134
C       26.25222206      47.74279785       8.49843693
C       27.61657333      49.69491959       7.97570610
C       26.35894775      49.14549255       8.32720089
C       28.71474075      48.83123016       7.76442480
C       25.26928139      50.01813507       8.56822586
C       25.44726944      51.37067413       8.53320312
C       28.58551216      47.49688339       7.97664070
H       26.80865860      52.98992157       8.18030071
H       27.28067207      45.88619232       8.56480598
H       28.72122955      51.52718735       7.63177586
H       25.30071640      47.31452560       8.78201103
H       29.66771698      49.25620270       7.48581886
H       24.29957771      49.56351852       8.80963325
H       24.64074135      52.03843689       8.77692699
H       29.44427872      46.84116745       7.86865568
C       36.41659546      48.41268158       1.31893754
C       33.28531265      44.49871063       1.76520002
C       36.58856964      47.06696701       1.44818056
C       33.08798599      45.84398270       1.74635196
C       35.49284363      46.19152069       1.61303294
C       34.18542862      46.73259735       1.64773667
C       35.66381073      44.78424454       1.67478490
C       34.03348541      48.13822174       1.52156281
C       35.11588287      48.95481110       1.36127234
C       34.58245087      43.95601273       1.69662082
H       37.27410889      49.05047989       1.17645800
H       32.43237305      43.84008789       1.82549453
H       37.56534195      46.64287949       1.40872824
H       32.08031082      46.24890900       1.80304337
H       36.67635727      44.39629745       1.67863047
H       33.03594208      48.55102539       1.54862034
H       34.96888733      50.04058456       1.25391173
H       34.71753311      42.87754059       1.69956756
C        8.05226707      29.95839310       5.92600393
C        8.36547756      29.42872238      10.90974808
C        8.90675545      29.27712631       6.73504210
C        7.54968548      30.14662170      10.09016228
C        8.76374245      29.34604836       8.14025784
C        7.74729729      30.14526558       8.69063950
C        9.58156967      28.58815956       9.01602173
C        6.90523100      30.88529015       7.82318830
C        7.03026772      30.76790237       6.47275734
C        9.39640522      28.63965797      10.36709595
H        8.12137604      29.85288429       4.83896923
H        8.20755386      29.45173645      11.97713280
H        9.65998745      28.61632347       6.31569767
H        6.72984695      30.71335983      10.47936153
H       10.36056709      27.98031425       8.58868122
H        6.15012646      31.52932549       8.26493454
H        6.37987518      31.31174469       5.81961823
H       10.03581619      28.05337906      11.01776314
C       -6.76598406      29.68566322      11.99356365
C       -4.78827286      29.57489014       7.37205887
C       -6.33787012      30.65166473      11.14013577
C       -5.19808483      28.60667610       8.23566723
C       -5.82087040      30.30677605       9.87481308
C       -5.71590137      28.94672585       9.51243401
C       -5.42265177      31.28783035       8.93808937
C       -6.17218208      27.97010040      10.42243576
C       -6.71832895      28.33400726      11.61430740
C       -4.89121962      30.93753624       7.73376322
H       -7.11691952      29.95718002      12.98668766
H       35.36646652      29.30836296       6.39458609
H       -6.40231133      31.70190048      11.42476082
H       -5.15371752      27.55908966       7.95364904
H       -5.57657385      32.32548523       9.17849064
H       -6.09788179      26.93526077      10.14366055
H       -7.08366299      27.59327126      12.30154991
H       -4.58546972      31.71183014       7.03733110
C       -1.82780123      32.89067841      12.52817059
C       -5.04528141      34.70967484      15.92837620
C       -2.67410445      32.29484940      13.41693306
C       -4.10233068      35.27605438      15.13080502
C       -3.45653033      33.08061981      14.30073929
C       -3.30784249      34.49040222      14.27148724
C       -4.44967556      32.51271820      15.13613796
C       -2.42417669      35.07756042      13.33388805
C       -1.72238004      34.29324341      12.46354771
C       -5.24093628      33.31200409      15.91497993
H       -1.22595584      32.28412247      11.86132240
H       -5.62018347      35.32037735      16.62308311
H       -2.77591205      31.21497536      13.45914555
H       -3.92591095      36.35474396      15.17980671
H       -4.59008121      31.43460464      15.11065865
H       -2.34714127      36.15717316      13.28549290
H       -1.09434748      34.73992920      11.70310307
H       -6.01429510      32.88228226      16.53611755
C       -2.93749714      53.55433273      20.17045403
C       -1.97365773      56.56985092      16.30376434
C       -3.50800443      53.71606064      18.93764114
C       -1.48902035      56.50330353      17.56641388
C       -3.04116368      54.71028137      18.05635262
C       -2.00906134      55.56335449      18.48409653
C       -3.56066060      54.82677460      16.74532318
C       -1.46083844      55.40402222      19.77154160
C       -1.89352930      54.40353775      20.58851433
C       -3.06091404      55.75761414      15.89024162
H       -3.28755093      52.78495407      20.85233688
H       -1.51677811      57.24119568      15.59197521
H       -4.29870462      53.07356644      18.58448410
H       -0.66935343      57.12702179      17.87465668
H       -4.34416914      54.14705276      16.43141747
H       -0.65859628      56.06205750      20.08569145
H       -1.44444931      54.24900818      21.56059837
H       -3.45552373      55.84636307      14.88761330
C       -2.09789777      54.29507446      12.98706722
C       -0.35514829      56.21119308       8.67011356
C       -2.17887950      53.90948868      11.68297100
C       -0.32992756      56.65086746       9.96276188
C       -1.53110743      54.66404343      10.67684174
C       -0.88930464      55.87376022      11.00541782
C       -1.47023416      54.20639038       9.35545158
C       -0.77930158      56.22203064      12.36941051
C       -1.33212399      55.42721176      13.32304192
C       -0.90846527      54.95085526       8.36326885
H       -2.58188272      53.71955109      13.76279354
H        0.03238101      56.83216095       7.87691164
H       -2.71229863      53.01468277      11.38739491
H        0.07921888      57.62956619      10.20757675
H       -1.82950568      53.20360565       9.16077900
H       -0.20928635      57.09547043      12.65198803
H       -1.16798818      55.66138840      14.36294174
H       -0.85391057      54.56714249       7.35475302
C       31.43226242      34.20356750       3.19861460
C       31.16394997      38.25661469       6.16053295
C       30.46681023      35.14136124       3.42071581
C       32.05157852      37.23278427       6.07362413
C       30.65082932      36.17359924       4.37703180
C       31.84393120      36.18429565       5.13844967
C       29.75266457      37.26111603       4.50492859
C       32.82811356      35.19487762       4.89188862
C       32.63902283      34.24248505       3.93860364
C       30.03552437      38.30346298       5.33593559
H       31.28270531      33.43251419       2.45140243
H       31.29529762      39.06079483       6.87216282
H       29.55718231      35.13100052       2.83061075
H       32.93811035      37.19361496       6.68291140
H       28.87952042      37.29693604       3.86429834
H       33.73871231      35.20631409       5.46990347
H       33.41927338      33.52574921       3.72699356
H       29.40110970      39.18171310       5.36425257
C       17.65904236      52.71689606      18.75998306
C       19.74086761      50.88391113      14.56671906
C       17.33410835      52.81503677      17.43699646
C       19.98171425      50.69923401      15.89682770
C       18.08839417      52.12512589      16.45641899
C       19.18769455      51.34227371      16.87288094
C       17.80450249      52.23511505      15.07634830
C       19.49889565      51.25545502      18.25349236
C       18.74901581      51.92049408      19.18305016
C       18.62702179      51.64998245      14.15784740
H       17.07032394      53.27960968      19.48371887
H       20.38028336      50.39735794      13.83344555
H       16.51223564      53.42826843      17.11646461
H       20.78921127      50.03992462      16.23778534
H       16.97320747      52.82720566      14.76973629
H       20.36856461      50.68903351      18.54898453
H       18.99094582      51.84592438      20.23228264
H       18.41159248      51.75395966      13.10028648
C       21.04380226      31.43379974      27.82533264
C       22.32227707      33.02686310      23.21309853
C       21.75260353      30.87037277      26.80454445
C       21.70808983      33.62319183      24.27420044
C       22.00390434      31.59889603      25.61140060
C       21.51069641      32.92266846      25.48725700
C       22.71036720      31.03407288      24.51923752
C       20.79173279      33.47978973      26.57659912
C       20.55654144      32.75386429      27.71108246
C       22.83323860      31.71485329      23.34072685
H       -0.11605424      30.88650131       0.20155814
H       22.44236565      33.55933380      22.27590179
H      -17.63027191      29.83979607      26.87976646
H       21.32890129      34.64621353      24.18062210
H       23.13082314      30.04264259      24.62275124
H       20.39926910      34.48578262      26.47339249
H       38.81929016      33.18453979       0.01258751
H       23.35705185      31.26305199      22.50761414
C       12.99011421      55.09143448       0.92964131
C       12.77353096      55.13678360       5.94773960
C       12.94898605      54.10651016       1.87475288
C       13.02083969      56.10034180       5.02325726
C       12.92562485      54.42094803       3.25587463
C       13.03437901      55.77895355       3.64232755
C       12.68508053      53.43635559       4.24681139
C       13.06165123      56.78166580       2.64261603
C       13.01721096      56.45248413       1.32158685
C       12.56674099      53.79442596       5.55619907
H       -5.84317875      54.84819412      28.40378380
H       12.73664856      55.40926743       7.00045919
H       12.84937286      53.06671524       1.57142293
H       13.18394566      57.10989761       5.31724548
H       12.52513218      52.40924072       3.92960262
H       13.05623531      57.82609940       2.94820094
H       12.97659492      57.21270370       0.57644409
H       12.31870461      53.05748367       6.29063368
C       10.24460030      45.54468918      20.24037743
C       13.43516159      42.83191299      23.04041290
C       10.22622299      44.25776291      20.74952698
C       13.09346676      44.30695343      23.13407898
C       11.22795200      43.83751678      21.61299324
C       12.24231720      44.71627045      21.96684837
C       11.10341072      42.60260773      22.47896767
C       12.28789330      45.99237442      21.42511749
C       11.27110958      46.41627121      20.58616257
C       12.47064018      41.99938202      22.66842079
H        9.42918873      45.89678574      19.61860657
H       14.45656300      42.51174927      23.25325394
H        9.38407326      43.60279083      20.57349586
H       14.01512146      44.89551926      23.12767220
H       10.41457081      41.91138840      22.04051971
H       13.09186077      46.68904114      21.71328926
H       11.26203346      47.41186523      20.20838928
H       12.62836647      40.93001938      22.52648926
C       11.61333847      53.63277435      16.41861534
C       14.91722679      49.95407104      17.30119896
C       11.93030167      52.47897720      15.76208305
C       14.59564972      51.09748459      17.97058296
C       12.90158081      51.59621429      16.29281616
C       13.57075119      51.94539642      17.48774719
C       13.21820259      50.37308502      15.65588188
C       13.19431305      53.12181854      18.16906548
C       12.23934078      53.94239807      17.64771461
C       14.20874310      49.57277679      16.14753723
H       10.89799118      54.32749939      15.99205303
H       15.67252541      49.29964828      17.70541573
H       11.44736576      52.24066925      14.82397747
H       15.10025024      51.35493088      18.89006805
H       12.64362049      50.07534790      14.79394817
H       13.68385601      53.35472488      19.10984039
H       11.96346760      54.85695648      18.16539383
H       14.42283916      48.62102509      15.66420650
C       22.84959030      36.65320206      19.76214218
C       20.55116463      37.32725143      24.14377022
C       21.75901222      36.06949997      20.33190155
C       21.78637123      37.66789627      23.68779564
C       21.37970352      36.38383102      21.65314674
C       22.22122192      37.22634888      22.41509247
C       20.12539673      35.99141693      22.18021393
C       23.43165970      37.68542099      21.84476089
C       23.72785568      37.44252014      20.54042816
C       19.70964432      36.49072647      23.38737106
H       23.02321815      36.49091721      18.71256447
H       20.17006683      37.70448303      25.08196831
H       21.13646507      35.40340042      19.75511551
H       22.43288803      38.33188629      24.25741768
H       19.49393654      35.31696320      21.61357307
H       24.07858849      38.30300903      22.46728706
H       24.63188744      37.86546326      20.11015701
H       18.74985886      36.25834656      23.78964233
C       -8.41242695      35.31560135      16.18222618
C       -9.21630669      30.46646500      15.03110123
C       -8.33466434      34.58977127      15.02530289
C       -9.11227226      31.13562965      16.21501923
C       -8.52996922      33.18561172      15.02445984
C       -8.81802464      32.52536392      16.23753548
C       -8.58234787      32.45278549      13.81816673
C       -8.91475391      33.31507111      17.40816689
C       -8.70217991      34.65687942      17.39402771
C       -8.98619080      31.14416885      13.81556034
H       -8.34592533      36.39176941      16.18404007
H       -9.49183750      29.40993500      15.00688839
H       -8.20878887      35.08089828      14.07758808
H       -9.30373096      30.59894371      17.12890625
H       -8.36179638      32.96619034      12.88746357
H       -9.27730465      32.86947632      18.33415794
H       -8.86907196      35.22743607      18.28700829
H       30.63793755      30.62141037      12.87724400
C        9.01979351      50.33277893      26.07744408
C       13.99689102      49.76522827      25.17346001
C        9.76000881      49.57764053      25.20804787
C       13.30368519      50.56446457      26.19244194
C       11.16642380      49.67944336      25.16825867
C       11.81172276      50.44093704      26.16469955
C       11.94315433      49.09376907      24.13269806
C       11.03671169      51.22949982      27.00331116
C        9.65690994      51.22223663      26.94120407
C       13.33894539      49.12268066      24.17403221
H        7.93785143      50.27955627      26.05136681
H       15.08181000      49.73945999      25.23643112
H        9.25490379      48.94054413      24.49593735
H       13.68117428      50.26988602      27.18689919
H       11.46408272      48.60963058      23.30097771
H       11.51147461      51.90227890      27.69347954
H        9.09733582      51.90494156      27.55555344
H       13.90328693      48.59439850      23.40700912
C       14.81249046      50.37189102      12.57944393
C       14.09120941      50.81922531       7.60620689
C       15.51646137      49.95541382      11.48989105
C       13.37754726      51.23413849       8.69957638
C       15.04416847      50.22482681      10.17699528
C       13.83860588      50.94825363      10.01007175
C       15.76121140      49.81683350       9.02813053
C       13.12890244      51.36314011      11.16379738
C       13.60324001      51.08420181      12.41004562
C       15.30259609      50.11664200       7.77857590
H       15.20115089      50.18381119      13.57188225
H       13.71786404      51.01390457       6.58735132
H       16.45674896      49.44961166      11.59287262
H       12.44229698      51.76771545       8.57627773
H       16.69083023      49.28712463       9.17077446
H       12.21475315      51.94097519      11.04821014
H       13.08512974      51.45649338      13.26953888
H       15.89068413      49.81412888       6.91300106
C       -2.32510781      51.42314911      17.12547493
C       -5.54304028      48.11130142      15.14154148
C       -3.09527755      50.43488312      17.65483856
C       -4.76177549      49.09274673      14.60353947
C       -3.87799978      49.60586548      16.81536102
C       -3.88494420      49.84403229      15.42441845
C       -4.67515039      48.55892944      17.33782768
C       -3.02807331      50.85282135      14.89839649
C       -2.27122307      51.61298752      15.73311520
C       -5.47120619      47.81042099      16.52098656
H       -1.78409934      52.07488632      17.77068710
H       -6.19900846      47.53240204      14.52222061
H       -3.15401959      50.27955246      18.72799683
H       -4.80193329      49.30025101      13.54918003
H       -4.61791039      48.35531235      18.39598274
H       -2.99246836      50.99887466      13.83311844
H       -1.62581193      52.38898849      15.33326149
H       -6.04688454      46.98152924      16.92115784
C       -2.64963627      52.54798126       7.11489105
C        0.08409120      48.85411835       5.13525581
C       -1.97649229      52.42476654       5.94237089
C       -0.64422441      48.98167419       6.28220987
C       -1.35824168      51.20565033       5.60310125
C       -1.38973451      50.14466095       6.53703213
C       -0.69012833      50.99792862       4.36909389
C       -2.13647270      50.28534698       7.73638058
C       -2.74968719      51.46116257       8.01595593
C        0.02429352      49.85125732       4.14430714
H       -3.12040687      53.48721313       7.37306118
H        0.65474844      47.95638657       4.97727156
H       -1.95222497      53.27175140       5.23819542
H       -0.68031305      48.20437241       7.00728035
H       -0.75349712      51.75946808       3.60616589
H       -2.18650293      49.43686676       8.42169666
H       -3.30849123      51.58571625       8.93522930
H        0.52602756      49.71675873       3.19351959
C        6.44687319      41.26770401       6.53170919
C        6.91875744      39.63996506       1.70309699
C        6.16574049      39.85616302       5.94474220
C        6.25370121      40.72623825       2.26384068
C        6.47802734      39.76968384       4.45696688
C        6.05853987      40.80803299       3.62967610
C        7.15846777      38.69676590       3.90453911
C        5.33784866      41.95175552       4.24374056
C        5.55369711      42.20897293       5.76191139
C        7.39782095      38.63971710       2.53684020
H        6.15182877      41.27670670       7.57295704
H        7.08497000      39.58842087       0.63052851
H        6.78363848      39.10731506       6.45094013
H        5.89903736      41.53418350       1.63309646
H        7.52482986      37.90620804       4.56065893
H        5.48220158      42.85843277       3.65408182
H        5.78289032      43.23518372       5.99726343
H        7.94301701      37.80370331       2.12349367
C        0.19298029      37.08919907      16.97984123
C        1.44447982      39.54211807      12.78970909
C        0.23052719      36.72609711      15.66641140
C        1.23445153      39.92668533      14.07504177
C        0.61379206      37.65830994      14.67188358
C        0.88965780      38.98720169      15.06817245
C        0.75878423      37.29789352      13.30797958
C        0.84068221      39.34426117      16.43727684
C        0.50938147      38.40582657      17.37527084
C        1.20851004      38.20760345      12.39541626
H       -0.08205551      36.36137772      17.73968887
H        1.75705791      40.25229645      12.04784966
H       -0.00598139      35.71351624      15.35774422
H        1.36032891      40.96498108      14.36658764
H        0.56017083      36.27779388      13.02181721
H        1.08538461      40.34765625      16.71533966
H        0.49011448      38.67272568      18.43328857
H        1.36544490      37.94089508      11.36173630
C       -8.65914440      34.19174957      22.41658401
C      -10.74465370      36.40578461      26.44894791
C       -8.25214577      34.36343002      23.70837975
C      -11.19273090      36.13449097      25.18789864
C       -9.09308815      35.01499939      24.65030670
C      -10.36603546      35.46675873      24.24610710
C       -8.68735695      35.25361252      25.98798943
C      -10.76121712      35.27237701      22.89316177
C       -9.92985535      34.65829468      22.00570107
C       -9.47443295      35.95167923      26.85763168
H       -8.00906658      33.69892883      21.69910240
H      -11.35789871      36.98871994      27.12137413
H       -7.29113626      34.01204300      24.02780342
H      -12.17201042      36.45103073      24.89783287
H       -7.70518017      34.93113709      26.29788780
H      -11.74103451      35.63349152      22.56964302
H      -10.24441910      34.52375031      20.97471046
H       -9.12259388      36.17939758      27.85965919
C       20.92233276      55.53625870      24.36001205
C       18.73015404      52.82338333      27.98224258
C       20.74974442      54.19836426      24.56155014
C       18.95870972      54.15904999      27.82942009
C       20.09082794      53.71566772      25.71644020
C       19.65304947      54.63963318      26.69187546
C       19.83950233      52.33277512      25.91065598
C       19.87537384      56.02381897      26.47347069
C       20.46389771      56.45864105      25.32387924
C       19.18445015      51.89901733      27.01791191
H       21.41159821      55.89877701      23.47281837
H       36.96873474      52.44165421       0.30283803
H       21.12709236      53.47370911      23.83586311
H       37.38819885      54.86811066       0.01702151
H       20.15234184      51.63017654      25.13385963
H       19.52922821      56.73356247      27.21182060
H       20.58045578      57.52291107      25.12403488
H       18.99123383      50.85258484      27.17224884
C       14.92466068      55.32076645      16.33042145
C       14.97132492      55.77111816      11.32852077
C       14.88467503      54.41528702      15.30628109
C       14.90371609      56.67086411      12.34577656
C       14.91093636      54.84585571      13.95688629
C       14.90405369      56.23085403      13.68766499
C       15.02853489      53.94028473      12.87427807
C       14.98029327      57.13652420      14.77238178
C       14.99777317      56.70222473      16.05768585
C       15.06478500      54.38772964      11.58181190
H       14.91680527      54.98328781      17.35298538
H       15.04426575      56.12396622      10.31334305
H       14.83082485      53.35306931      15.51388359
H       14.94130230      57.73824310      12.14277077
H       15.12404633      52.88859940      13.09080601
H       15.09701157      58.18226624      14.55392456
H       15.08490276      57.41376495      16.86698341
H       15.18449020      53.68566132      10.76095772
C        0.11215456      56.18597412      25.04805946
C       -4.20502949      57.89597702      26.95712852
C       -0.71868092      57.21440125      24.71559334
C       -3.44556952      56.79045486      27.22379494
C       -1.94629586      57.40974426      25.39425659
C       -2.30454946      56.51675797      26.43144226
C       -2.80727410      58.49066162      25.09139633
C       -1.45601261      55.41762161      26.70253944
C       -0.26624596      55.26917267      26.05052567
C       -3.90111756      58.73433685      25.86361885
H        1.06293190      56.07389069      24.54645729
H       -5.07237816      58.12795639      27.56553078
H       -0.42898023      57.92493439      23.94511795
H       -3.67012048      56.14526749      28.03614807
H       -2.56219578       0.20649102      24.23875809
H       -1.75104916      54.72976303      27.47226715
H        0.38811463      54.46430588      26.32674599
H       -4.55794859       0.63308358      25.63512421
C        6.28177929      32.97580338      11.10498333
C        6.12653255      37.17319107       8.38997841
C        5.63532257      33.32209778       9.95925713
C        6.99136209      36.72098160       9.33939457
C        5.88833857      34.55968475       9.32668114
C        6.87191439      35.41337585       9.87003994
C        5.10796547      35.00801849       8.23781013
C        7.61927128      34.94722366      10.97402573
C        7.29907322      33.79422760      11.62117004
C        5.18078804      36.29869461       7.81212521
H        6.02029514      32.08454895      11.63428497
H        6.17683411      38.20970154       8.09363270
H        4.87498903      32.67803955       9.54240036
H        7.75577211      37.38556290       9.74553680
H        4.40908670      34.32048798       7.78275156
H        8.44015408      35.53474045      11.32502079
H        7.83573961      33.50252914      12.50707150
H        4.49906588      36.64505768       7.05158043
C        0.47325054      53.74251938      17.73156357
C        2.04733682      54.06470108      22.51203346
C        0.34037298      52.94097137      18.82291985
C        2.18506861      54.87409592      21.41877365
C        0.93605167      53.29050827      20.05972099
C        1.65050614      54.50115585      20.16169167
C        0.82117903      52.46799850      21.19820023
C        1.82059145      55.28828049      18.99769020
C        1.24549747      54.92701721      17.81735229
C        1.36021686      52.83281708      22.39675522
H        0.01261549      53.47731781      16.78701019
H        2.47349381      54.34930801      23.46654129
H       -0.18324503      52.00174332      18.78253555
H        2.74096203      55.80756378      21.49765968
H        0.29072788      51.52843475      21.09178734
H        2.42133212      56.18090439      19.06698036
H        1.39467418      55.55864334      16.93243790
H        1.26140952      52.19204330      23.25384140
C       11.92678738      57.27741623      27.70574951
C       16.61444855      57.01768494      26.05043030
C       12.49350357      57.32194901      26.47159004
C       16.10470009      57.30910492      27.28228760
C       13.88200665      57.43372726      26.30046082
C       14.70429707      57.46523666      27.44742012
C       14.45895290      57.32398224      25.01957130
C       32.89953995      57.43756104       0.19255613
C       31.54746056      57.31155014       0.32121187
C       15.78453922      57.04444885      24.90204620
H       10.85550404      57.12015915      27.81040001
H       17.65600586      56.80197525      25.91459084
H       11.89241600      57.18523788      25.59516907
H       16.75469208      57.35738754      28.14401627
H       13.83622169      57.39567566      24.13704300
H       33.51745987      57.45028305       1.08080053
H       31.09332657      57.17930603       1.30364048
H       16.22807884      56.88304901      23.92822456
C        6.86599445      30.44789505      20.27043915
C        8.92182446      30.34085083      24.86634064
C        7.99922466      29.87544632      20.78573227
C        7.75885534      30.85675812      24.37342453
C        8.32391834      30.01732636      22.15473557
C        7.44176722      30.73706245      22.99453735
C        9.52156925      29.48750305      22.69546127
C        6.28488350      31.32685661      22.43598175
C        6.00823069      31.19134712      21.10339355
C        9.82377052      29.66643906      24.01744080
H        6.63561964      30.34747696      19.21356964
H        9.16826057      30.44456482      25.92325020
H        8.67231369      29.30636215      20.14663887
H        7.06345415      31.38953400      25.01998138
H       10.19752884      28.96663857      22.03280067
H        5.62401342      31.91566658      23.08898354
H        5.13193846      31.66648483      20.67029762
H       10.75821781      29.29144859      24.41714668
C       15.25618172      36.93370438      24.33540535
C       11.28201008      38.68456268      26.85254097
C       14.33152008      36.33235931      25.13613319
C       12.10002136      39.21108246      25.89819527
C       13.26022243      37.07405472      25.68143272
C       13.13117218      38.43791580      25.32087517
C       12.35457420      36.53715897      26.63454247
C       14.08284855      39.02505493      24.45195961
C       15.13839149      38.29372406      23.98441696
C       11.41209030      37.32561874      27.21639252
H       16.08802223      36.35637665      23.97235489
H       10.54933071      39.29391861      27.35014725
H       14.41572475      35.28395081      25.37841988
H       12.02557564      40.25654984      25.60988998
H       12.45563316      35.51567841      26.93711853
H       13.97137547      40.08463287      24.19734383
H       15.89011669      38.74315643      23.33910561
H       10.76138592      36.92954254      27.98744202
C       17.58715820      30.51552200      13.14626598
C       20.37265587      34.14334869      11.08878040
C       18.75839806      31.09549522      13.52194500
C       19.34414864      33.37591553      10.63695431
C       19.32892609      32.10379028      12.70989704
C       18.76977158      32.37868118      11.44402695
C       20.34597206      32.95547867      13.18948746
C       17.55197525      31.74683952      11.08082199
C       16.94850540      30.88976860      11.94587708
C       20.83389473      33.96279907      12.41567707
H       17.10248566      29.79209137      13.78705597
H       20.78269577      34.92481613      10.46317863
H       19.22683716      30.84571648      14.46004868
H       18.89837456      33.59599304       9.68492031
H       20.68562126      32.81348419      14.20956516
H       17.06653976      32.03238678      10.14920807
H       15.97021770      30.50140953      11.71214676
H       21.57110786      34.62577438      12.82714748
C       -2.76832247      58.16206360       8.78866673
C       -5.20854092      57.63834381      13.15444183
C       -2.89252877       0.02125225       9.88663578
C       -4.87643862      56.77701569      12.14704132
C       -3.67841363      58.53690338      10.98495770
C       -4.19164324      57.22968674      10.99511147
C       -4.03650951       0.48555258      12.03893757
C       -4.06045198      56.42173767       9.83147049
C       -3.40738249      56.90171814       8.73550034
C       -4.82178211       0.06613589      13.06763077
H       -2.18159628      58.51379776       7.94861174
H       -5.76129770      57.27244568      14.00948143
H       -2.43063760       1.00531316       9.90645123
H       -5.15283108      55.75613022      12.21472073
H       -3.69794917       1.50675237      11.99560928
H       -4.50782537      55.43519592       9.83218098
H       -3.33970594      56.28670502       7.83277559
H       -5.14044571       0.76254624      13.83927250
C       11.42864895      36.72020340      22.25410080
C       13.23551559      34.01578903      18.47826195
C       12.69462872      36.35558319      21.90136719
C       12.07748508      34.70917892      18.62752151
C       12.93967247      35.70052338      20.67793465
C       11.87144852      35.51707077      19.77020454
C       14.19536114      35.10179520      20.39178658
C       10.57901192      35.97376633      20.12773132
C       10.35623074      36.51106262      21.36051559
C       14.32485390      34.23688889      19.34711838
H       11.24452305      37.13088608      23.24292374
H       13.33830643      33.26775742      17.69659424
H       13.52568436      36.47428894      22.60604286
H       11.25005722      34.57662201      17.92620277
H       15.04681683      35.29072189      21.04294395
H        9.74398518      35.80642700      19.43738556
H        9.35138321      36.75577927      21.68784904
H       15.26226330      33.72495270      19.16207314
C        8.32534218      57.81348419       7.51111603
C        5.43351746      58.22454834      11.60729599
C        8.50238991      57.48091507       8.82362652
C        5.27217245      58.60346985      10.30627823
C        7.49182701      57.74092865       9.78249550
C        6.29909277      58.36827469       9.35995960
C        7.63272381      57.37728119      11.14761162
C        6.13731718      58.68069839       7.98817730
C        7.11351109      58.40211487       7.08458281
C        6.62924433      57.60720444      12.03723717
H        9.10241222      57.63201904       6.78695822
H        4.63760662      58.39099884      12.31557178
H        9.41713333      57.00531769       9.15700626
H        4.34740639       0.12864476       9.97380829
H        8.55703259      56.89785385      11.47586632
H        5.19974661       0.17321579       7.66955709
H        6.94643593      58.59804535       6.03389645
H        6.76728010      57.32941818      13.07830143
C       -7.99645472      49.65913010      22.19964790
C       -9.88073635      47.25664520      18.25128937
C       -9.25077629      49.21238327      21.90778160
C       -8.62636185      47.65371323      18.59466362
C       -9.49488258      48.55855179      20.67561722
C       -8.40105629      48.30307007      19.82284737
C      -10.79915905      48.18867111      20.26050949
C       -7.11366367      48.75145721      20.17112541
C       -6.93551111      49.45020294      21.31567192
C      -10.98256397      47.53231812      19.08100319
H       -7.81556511      50.25888062      23.06793976
H      -10.02350712      46.73143005      17.32733345
H      -10.07593441      49.41594696      22.57387924
H       -7.78694201      47.49015045      17.92611313
H      -11.65243053      48.42790985      20.88222313
H       -6.30187941      48.60322952      19.44546127
H       -5.98216772      49.90231705      21.53692627
H      -11.97454929      47.22379303      18.76967430
C       -3.29749441      55.28544998      23.25459290
C       -5.60086060      57.60451889      19.46534538
C       -2.97720170      56.36853790      22.49937248
C       -6.03321552      56.75273132      20.43184853
C       -3.84610081      56.82813263      21.48771286
C       -5.12403679      56.24698639      21.39370155
C       -3.44316125      57.77640152      20.51987076
C       -5.43200922      55.11307526      22.17863274
C       -4.51349211      54.59207153      23.03616714
C       -4.28278255      58.10087967      19.49552727
H       -2.61722732      54.92969513      24.00882721
H       -6.28761578      57.91861725      18.67129707
H       -2.00936627      56.85406494      22.61447144
H       -7.04714537      56.41434097      20.45164680
H       -2.44934654      58.18759537      20.56186676
H       -6.39639378      54.65125275      22.05837822
H       -4.73633623      53.68836975      23.60855103
H       -3.94825077      58.78709030      18.74430084
C        3.53310180      35.01668549      25.94747162
C        8.13861847      36.02159882      27.67152596
C        4.73213291      34.34806824      25.86768532
C        7.18746519      37.00039291      27.09005356
C        5.93687058      34.95238495      26.29576111
C        5.90822411      36.31219101      26.69647026
C        7.11995745      34.19261932      26.46041679
C        4.68383455      36.96233368      26.76379204
C        3.50186300      36.32734680      26.42959976
C        8.15089512      34.72422791      27.25860977
H        2.60611534      34.51574707      25.68492699
H        8.85741043      36.36864090      28.40215302
H        4.74535799      33.31345367      25.54461670
H        6.94527149      37.78844452      27.83206749
H        7.16778374      33.16873169      26.09815788
H        4.64729452      37.98891067      27.10123634
H        2.55665827      36.84212494      26.55456734
H        8.94323349      34.05262375      27.59652519
C       20.26513481      44.33001328       4.77197170
C       15.59500217      43.91278458       2.94607449
C       19.21796227      45.19326019       4.64914751
C       16.60727882      43.01596069       3.13618135
C       18.01064682      44.77672958       4.05064535
C       17.84166718      43.42512894       3.66820216
C       16.95038605      45.67725372       3.86294150
C       18.93596649      42.54234695       3.84443927
C       20.12152290      42.99578476       4.32659006
C       15.77396202      45.25863647       3.31750131
H       21.21513176      44.67341614       5.17299032
H       14.64890194      43.57188797       2.53250003
H       19.30199051      46.23001480       4.94734716
H       16.44964790      41.96208191       2.91066861
H       17.09928322      46.72440720       4.13970518
H       18.82648468      41.49456024       3.57234454
H       20.97294617      42.33295822       4.36161566
H       14.97602654      45.97758484       3.19334340
C       -1.83540142      52.55912781      23.99526024
C       -4.60927057      48.54070282      22.83650589
C       -1.97750878      51.80223084      22.86817741
C       -4.59779739      49.38166046      23.90509605
C       -2.94711137      50.78703308      22.79274559
C       -3.77010441      50.53721619      23.90924454
C       -3.08517146      49.97061920      21.64019585
C       -3.70476222      51.42827225      25.00988960
C       -2.74664950      52.40321350      25.06064987
C       -3.89060426      48.87643814      21.66278076
H       -1.05627382      53.29966354      24.04269409
H       -5.23102427      47.65726089      22.85083389
H       -1.34688687      51.97220230      22.01644135
H       -5.19525099      49.17036057      24.78863335
H       -2.50266051      50.22232437      20.75269699
H       -4.41257811      51.29309845      25.81897354
H       -2.66580987      53.04713440      25.91310883
H       -4.00675678      48.28562927      20.76970482
C       -9.92012787      41.16050339      19.52072525
C       -8.46296310      43.78823853      15.48857594
C       -9.57621956      42.46001434      19.31521034
C       -8.79536152      42.48028183      15.67547417
C       -9.25719261      42.93192291      18.02174568
C       -9.24897099      42.02649307      16.94157410
C       -8.94103432      44.29247665      17.79151344
C       -9.67111301      40.69287109      17.16604042
C      -10.00922871      40.27644348      18.42358589
C       -8.56798077      44.71483994      16.55563354
H      -10.13792229      40.80750275      20.51900101
H       -8.11680031      44.14433289      14.52231503
H       -9.56027794      43.16624069      20.12576675
H       -8.74148846      41.78593826      14.86122990
H       -8.99840355      44.97177124      18.63149643
H       -9.70698166      40.00340652      16.32880020
H      -10.30531979      39.24896240      18.60239792
H       -8.33411121      45.74774551      16.37589836
C       17.26427650      34.16296387      23.42716789
C       15.77817822      29.45626640      24.33221626
C       16.13150978      33.46730423      23.12801743
C       16.97510910      30.08978844      24.44939232
C       16.01162720      32.11825180      23.50101852
C       17.10142899      31.46123695      24.10918808
C       14.77959347      31.43064880      23.37555313
C       18.25537300      32.20991135      24.42834282
C       18.31888199      33.54219055      24.12485123
C       14.65445805      30.16851616      23.85617828
H       17.34099960      35.19262695      23.12160683
H       15.66238022      28.43178749      24.65456963
H       15.29055500      33.95014191      22.63896179
H       17.83443260      29.57905960      24.86841202
H       13.92447186      31.93701172      22.98165131
H       19.07205963      31.72935486      24.94365311
H       19.18312263      34.13840485      24.41488457
H       13.67835045      29.74034500      23.90695763
C        3.30972838      30.00362015      17.08018303
C        6.29038382      28.33527946      13.38774586
C        3.32025504      30.17624664      15.72217846
C        6.28353834      28.15700722      14.73786354
C        4.31269073      29.57383347      14.92890739
C        5.29713678      28.77737236      15.54770756
C        4.36537933      29.77148056      13.52636528
C        5.26921511      28.60513496      16.95130348
C        4.28712511      29.20071602      17.70097351
C        5.33810282      29.18002510      12.77014637
H        2.56344819      30.51394844      17.66044426
H        7.02385139      27.81183434      12.77530193
H        2.57475352      30.79730415      15.25175858
H        7.03922653      27.54008102      15.22278213
H        3.60856390      30.40176010      13.06467342
H        6.01311016      27.99936104      17.42665672
H        4.25330353      29.06498337      18.78422165
H        5.36329985      29.33583641      11.69552803
C       23.20858002      55.43383026       6.44812155
C       22.17190170      57.61154175      10.86274147
C       23.44072151      55.07886505       7.74619484
C       21.84353638      57.90601349       9.57080078
C       22.96037292      55.86453629       8.82257462
C       22.23744965      57.03470612       8.52162266
C       23.21498871      55.55321884      10.17521763
C       21.96605682      57.35136032       7.17047691
C       22.43639946      56.57166672       6.15542650
C       22.84409142      56.40870285      11.17417431
H       23.65295029      54.86399460       5.64052963
H       21.90217400      58.30944061      11.65233040
H       24.02403450      54.20447159       7.97325182
H       21.29982185      58.82991791       9.32684994
H       23.73642921      54.61771774      10.42363071
H       21.43054199      58.26856232       6.95939493
H       22.25559616      56.85978699       5.12177706
H       23.06694222      56.16215897      12.19916534
C       26.66627502      36.12921524       5.06550121
C       23.40385628      35.49554443       1.30551934
C       25.38891411      36.54955673       4.86479902
C       24.72916985      35.20612335       1.44438529
C       24.70049286      36.15750122       3.68425727
C       25.39517021      35.48966599       2.65797234
C       23.30723572      36.37726593       3.53850913
C       26.71510506      35.03681946       2.91926026
C       27.30397415      35.29836273       4.12653351
C       22.67471123      36.03645706       2.38782597
H       27.21023369      36.38203812       5.98614597
H       22.89737511      35.27025604       0.37837055
H       24.85801888      37.12773132       5.60083532
H       25.26123810      34.70314026       0.64305288
H       22.74505043      36.76160431       4.39951706
H       27.21519661      34.45172119       2.16343808
H       28.26841927      34.89237213       4.38048887
H       21.61064148      36.18182755       2.29452562
C      -10.69196224      52.02019119      20.91704178
C       -6.30560064      51.50148773      18.50902557
C       -9.39682579      52.23395538      21.27294159
C       -7.60112906      51.29562378      18.14352608
C       -8.35252857      52.03225708      20.34159470
C       -8.65990734      51.55464935      19.04997253
C       -6.99805164      52.22931290      20.69533157
C      -10.01811600      51.33322525      18.70574951
C      -11.00734138      51.57640076      19.61700249
C       -6.00625849      51.96078491      19.80892372
H      -11.48348522      52.19475555      21.62844086
H       -5.50047874      51.28099060      17.81261253
H       -9.12883186      52.56051254      22.27178383
H       -7.83245134      50.88826752      17.16508293
H       -6.74653149      52.56888580      21.70003128
H      -10.26009941      50.95199203      17.72333717
H      -12.03690720      51.40645599      19.35922623
H       -4.97867441      52.06963730      20.11877441
C       21.07810020      35.77959824      15.71477318
C       18.21288490      39.23476791      18.02195358
C       20.59964561      35.90014267      16.98939896
C       18.76276016      39.14346313      16.78445816
C       19.78034973      36.99876785      17.36428452
C       19.52276039      38.00930023      16.40777206
C       19.17124367      37.11673355      18.64058876
C       19.98073196      37.82623291      15.08534908
C       20.73306847      36.73601532      14.74670219
C       18.40260887      38.19694138      18.95622635
H       21.70105934      34.94596100      15.44361973
H       17.64557648      40.10764694      18.29734802
H       20.84265137      35.11479950      17.72132301
H       18.64272308      39.94377518      16.06651115
H       19.31581306      36.32256699      19.35936356
H       19.69183350      38.57497025      14.35665798
H       21.08808136      36.61135483      13.72618389
H       17.94461250      38.26090622      19.93615532
C       10.15397930      55.71599579      19.91681480
C        5.62782717      54.85507965      21.91530228
C        9.73294163      55.22162628      21.11391830
C        6.03024817      55.21754074      20.66281128
C        8.36017132      54.98549271      21.35773087
C        7.41574860      55.32062149      20.36458588
C        7.90516138      54.49121475      22.59409523
C        7.89376545      55.72966385      19.10264587
C        9.22053623      55.92861176      18.87940216
C        6.57694435      54.50074005      22.89253616
H       11.19978237      55.92511368      19.76801682
H        4.57480907      54.78067398      22.14650726
H       10.44517517      55.01565552      21.91661263
H        5.30825281      55.41046906      19.87914658
H        8.63274956      54.15683365      23.33030510
H        7.20469093      55.80500031      18.27111053
H        9.55605125      56.21559906      17.89990044
H        6.23385000      54.23599625      23.87242699
C       20.64136696      43.43819809      11.87237740
C       17.51316452      46.38377380       9.24161148
C       19.78367424      44.43599319      12.22116661
C       18.47061348      45.48235321       8.89407158
C       18.99649239      45.10509109      11.24549389
C       19.18851280      44.76861191       9.89101791
C       17.99689865      46.05572510      11.58139515
C       20.03986168      43.69270706       9.56664085
C       20.73940659      43.02954864      10.52931976
C       17.25291252      46.64787674      10.60160065
H       21.21866035      42.92088318      12.64130974
H       16.95324326      46.92137909       8.47345638
H       19.68450546      44.73313141      13.25389290
H       18.69494629      45.28987885       7.85693693
H       17.80969429      46.27061844      12.62209988
H       20.07151794      43.36618805       8.54346275
H       21.30720711      42.13573074      10.26061726
H       16.47776985      47.36091995      10.85732651
C       25.51388931      58.00827789       4.79214764
C       26.07317543      56.37023544       9.51968575
C       25.10607910      58.49342346       6.00892401
C       26.40002060      55.86135101       8.30417633
C       25.37541008      57.77045059       7.19428873
C       26.06879425      56.54438019       7.11059904
C       25.01392174      58.26187897       8.47127724
C       26.38214302      56.02541351       5.83258247
C       26.13361359      56.74411774       4.70435572
C       25.37348557      57.59952927       9.60694599
H       25.36332512      58.58212280       3.88925767
H       26.31866074      55.82804108      10.42521191
H       24.58552551       0.51222575       6.07458639
H       26.92093849      54.90407944       8.21560287
H       24.45615196       0.25465360       8.53687954
H       26.81111145      55.04364014       5.75944042
H       26.40326500      56.36365891       3.74040961
H       25.08911705      57.96384048      10.57389259
C       14.39962769      36.03741837       3.68757272
C       18.89007378      38.26012802       3.66141105
C       15.65569592      35.59052658       3.97899199
C       17.63854599      38.65950394       3.30965328
C       16.76744461      36.43965149       3.78942657
C       16.56002045      37.74784088       3.29818416
C       18.08409309      36.04053497       4.12768507
C       15.25863934      38.14300537       2.91242814
C       14.19365501      37.31838608       3.13247919
C       19.12724113      36.91732407       4.03017235
H       13.54475117      35.40345001       3.82385659
H       19.69384384      38.97199631       3.62788439
H       15.80208778      34.57952499       4.37803984
H       17.44890594      39.69035339       3.02843332
H       18.24459267      35.02997589       4.48767471
H       15.10592461      39.14717865       2.54342294
H       13.17728615      37.63785553       2.93131161
H       20.12893867      36.59110641       4.29254150
C       19.70337677      55.26924515       9.36635208
C       22.73493767      51.42108917      10.41396999
C       20.08842659      54.65952683      10.52732468
C       22.27489853      51.95359802       9.24063492
C       20.90893555      53.51361465      10.49934959
C       21.34803009      53.01672745       9.25707150
C       21.29333305      52.86199188      11.68931484
C       20.91131020      53.64527130       8.06545639
C       20.11672592      54.74580002       8.12450504
C       22.19465828      51.83889771      11.64440632
H       19.11034203      56.17117691       9.39095593
H       23.49656105      50.66224289      10.40137863
H       19.81378555      55.08098602      11.49218178
H       22.64096260      51.58511353       8.28866863
H       20.86130524      53.17542267      12.63846779
H       21.26971054      53.28078461       7.11360216
H       19.87075043      55.26323318       7.22063351
H       22.49766731      51.33977890      12.54932404
C       26.31131363      44.97497559       2.87171936
C       21.34285355      45.14875412       2.12583947
C       25.43671036      45.99221802       2.60186172
C       22.23462105      44.13508606       2.31196880
C       24.07019997      45.72489929       2.36797905
C       23.61162567      44.39229965       2.43196630
C       23.13521767      46.75246048       2.12388206
C       24.55007744      43.35084915       2.62753487
C       25.85857582      43.63738632       2.87772226
C       21.80035591      46.47692490       2.02854633
H       27.36198998      45.18328857       3.04711533
H       20.28155899      44.93988800       2.07843041
H       25.77751541      47.02129745       2.57755327
H       21.88960838      43.12531662       2.40710545
H       23.49283791      47.77287674       2.06109238
H       24.19326973      42.33681870       2.58720160
H       26.55146408      42.84798050       3.09794950
H       21.07676125      47.27391052       1.92496216
C       -1.25570714      46.68706512      16.06536102
C        0.64443010      49.44606781      19.72041130
C       -0.37180543      47.73086548      16.05046844
C       -0.48449546      48.69203186      19.62492561
C       -0.11364036      48.45917892      17.22846603
C       -0.87848669      48.16436386      18.37454796
C        0.98877829      49.33998108      17.33945847
C       -1.94706357      47.23892212      18.28265381
C       -2.10162735      46.47134399      17.16980362
C        1.38310981      49.79383469      18.56747818
H       -1.27256680      46.00049210      15.23276806
H        1.00312650      49.75295639      20.69453430
H        0.21100846      47.93808365      15.17709827
H       -1.05367088      48.39799118      20.49907303
H        1.54797316      49.56418991      16.45720291
H       -2.58034015      47.10296249      19.14518547
H       -2.86117935      45.69701004      17.13555527
H        2.25819778      50.42583466      18.67132950
C       32.26314545      51.49321747       4.22205782
C       28.92198753      47.78723145       4.21363926
C       32.35609436      50.17116928       3.92238617
C       28.91001892      49.05485153       4.71334648
C       31.25949287      49.31288528       4.16583776
C       30.06704903      49.86111832       4.67734814
C       31.28072929      47.95158005       3.78663921
C       30.04888725      51.20694733       5.10658598
C       31.14379501      51.99924088       4.91019011
C       30.13005257      47.22466278       3.76282310
H       33.05130005      52.16860580       3.96204996
H       28.00929451      47.19206619       4.19764137
H       33.23522949      49.77426910       3.44327474
H       28.01092529      49.48547363       5.14985943
H       32.21651840      47.51321793       3.45442057
H       29.14360237      51.60957718       5.54577684
H       31.16239166      53.02316284       5.23912859
H       30.13108826      46.18819427       3.40436888
C       21.28368950      46.69469452      13.34995937
C       17.83907700      48.15256500      16.69338608
C       20.18111610      47.48617554      13.26573086
C       18.88300133      47.28020859      16.73600960
C       19.29373169      47.62269211      14.36233330
C       19.62191772      46.97432709      15.57128906
C       18.13036537      48.43259048      14.32163334
C       20.72156906      46.08060837      15.60892391
C       21.54609108      45.95425415      14.52609730
C       17.42382812      48.70373154      15.46302223
H       21.94734383      46.59516907      12.50008297
H       17.33178902      48.41889572      17.62082291
H       19.96852684      48.01188278      12.35278988
H       19.19515038      46.84440231      17.67401123
H       17.84607887      48.90279388      13.37547207
H       20.90282440      45.52295685      16.53304863
H       22.41157150      45.30229568      14.57449818
H       16.58707237      49.39752579      15.42265129
C        8.79221916      42.75343323       1.35581303
C       12.14299583      46.40700531       0.73253667
C       10.01338100      43.00654221       1.89422524
C       10.87964725      46.22465134       0.25783443
C       10.71296597      44.19170761       1.59524083
C       10.12187672      45.10303116       0.68777144
C       12.01940441      44.41233444       2.07335258
C        8.82333660      44.84909058       0.20601226
C        8.15865135      43.70036697       0.53416741
C       12.72575855      45.48487091       1.63123202
H        8.28978920      41.81960297       1.55829144
H       12.71870136      47.26319885       0.46409696
H       10.51144600      42.29629517       2.52092218
H       -8.36933517      46.91020203      28.07010078
H       12.45680809      43.70528793       2.76264811
H      -10.42322445      45.55974197      28.07582283
H        7.16468573      43.51533890       0.15302914
H       13.74862862      45.66413498       1.96167672
C       18.95295525      50.12990570      10.82430744
C       18.83570671      50.40280533       5.80987978
C       19.16435051      49.20295715       9.84452152
C       18.76375771      51.32682419       6.81113720
C       19.05424118      49.56703186       8.47674465
C       18.79213524      50.92011261       8.15913868
C       19.11357117      48.63133240       7.41867447
C       18.52619553      51.84279251       9.19292927
C       18.58722305      51.45413971      10.49613571
C       18.95628357      49.03811264       6.11823750
H       19.04771996      49.83728790      11.87005997
H       18.80818558      50.69866943       4.78436184
H       19.37975883      48.16980743      10.10699272
H       18.66182137      52.37688828       6.59938335
H       19.28831673      47.58191681       7.64192533
H       18.31292725      52.86527252       8.92747498
H       18.39793015      52.17699814      11.27941227
H       18.95285034      48.31772614       5.30194664
C       35.22258759      40.66837692       5.74867535
C       37.02104568      38.44960785       1.65573084
C       35.89344406      41.12720108       4.66208792
C       36.23784256      38.00875854       2.67616701
C       36.19472885      40.27053070       3.57909060
C       35.79372025      38.91764069       3.65664029
C       36.93102264      40.71516037       2.45296574
C       35.00405121      38.48991776       4.75276804
C       34.75173950      39.34400177       5.78261995
C       37.32464218      39.82168961       1.50718415
H       35.01671219      41.33538818       6.57715893
H       37.43968201      37.74453735       0.97068220
H       36.18108749      42.16852570       4.59121132
H       35.99279785      36.94921875       2.76075244
H       37.19437027      41.76819611       2.37949896
H       34.62572861      37.46856308       4.76295280
H       34.19178391      39.00925064       6.64358664
H       37.90882492      40.13924026       0.63949353
C       11.03688908      38.46637344       0.77609670
C       -6.58500814      43.09457779      27.71541786
C       12.16939163      39.22774124       0.84352756
C       -7.73217916      42.35965729      27.69381714
C       12.19027519      40.55060196       0.34934393
C       -7.77946615      41.07100677      28.28057861
C       13.36586475      41.34531403       0.38757738
C       -8.95243359      40.28000259      28.26097870
C        9.85826015      39.00838089       0.22755283
C       -5.42602539      42.58496475      28.34137726
H       11.04081440      37.45528793       1.12862289
H       -6.57228804      44.09567261      27.29720116
H       13.09704971      38.81842422       1.24581432
H       -8.64387131      42.76443481      27.24894714
H       14.26154518      40.94288254       0.85441554
H       -9.86495686      40.70499420      27.82873344
H        8.95999527      38.41403198       0.18314058
H       -4.54109240      43.19139862      28.37532997
C        3.93575406      40.63537216       6.91368723
C        3.33003402      38.65612030       2.25671983
C        4.63233709      39.48252869       6.20669031
C        3.18517661      39.93441010       2.77535701
C        3.94904041      39.15409851       4.90783787
C        3.53165412      40.20117188       4.09262848
C        3.96408796      37.85081482       4.41468000
C        3.82446551      41.60796356       4.52482843
C        4.07757998      41.85461044       6.03465462
C        3.69943523      37.60844040       3.08003497
H        4.44272709      40.79888916       7.86216545
H        3.12124538      38.48193741       1.21604359
H        4.61540747      38.60923386       6.84716082
H        2.89262056      40.75057220       2.13007712
H        4.29519463      37.04803085       5.04825592
H        3.13318443      42.31310654       4.07426453
H        3.53078508      42.70766067       6.42127228
H        3.77705622      36.60344696       2.68725228
C       25.32353401      34.07332611       7.09640455
C       23.65266609      35.37628555      11.64369392
C       25.32806396      35.23168182       7.81208181
C       23.58266449      34.21846390      10.92603683
C       24.75942802      35.28923416       9.09941673
C       24.14759064      34.14038086       9.63543701
C       24.83550262      36.46306610       9.87296677
C       24.14932632      32.94477081       8.87396431
C       24.72938156      32.91354370       7.63929892
C       24.32703781      36.49858856      11.13264179
H       25.79080200      34.02300644       6.11482000
H       23.24382210      35.44718170      12.62765789
H       25.78148270      36.14572144       7.42950201
H       23.09493065      33.34262085      11.34660816
H       25.25669670      37.34257507       9.42103577
H       23.69265556      32.05738831       9.28942299
H       24.74434090      32.00375748       7.05392027
H       24.34719467      37.42014313      11.71142101
7200
Lattice="39.763004303 0.0 0.0 0.0 58.9316482544 0.0 -18.8008785248 0.0 28.526468277" Properties=species:S:1:pos:R:3 step=1000 time_fs=500.0 pbc="T T T"
C       32.09314728      24.14760017       3.20469546
C       32.84740829      26.99936104       5.32303286
C       -3.26760840       1.84312153       5.30693817
C       36.24841309      27.33176804       3.26501274
C       32.78454971      24.99546242       2.41542840
C       32.00661087      27.89381218       5.99528503
C       35.67221832       1.01247609       6.06171131
C       36.39951324      26.41508293       2.26370049
C       33.03927612      24.66290474       1.06585574
C       31.66690636      27.68908119       7.33869696
C       -4.48176193       1.39588428       7.38231850
C       37.29174805      26.64969444       1.20662367
C       28.92323685      25.55185318       7.47798204
C       37.78403091      28.82968140       2.06401300
C       38.78277969       0.17239214       0.95879793
C       32.81215668      25.57035255       7.21558857
C       -1.24666440       0.63106167       2.20201993
C       33.26132202      25.79604340       5.95063353
C       29.32871056      25.20402718       6.21707535
C       36.94868088      28.56653023       3.12536311
H       31.89382172      24.49201393       4.19149733
H       33.12273788      27.26458740       4.26491070
H       36.80487061       1.54343152       4.33294106
H       35.57947159      27.22351456       4.09519196
H       33.04829788      25.94013596       2.84343815
H       31.70155525      28.76401138       5.50384760
H       35.39346313       0.00969631       5.67981386
H       35.92386246      25.44729805       2.28664112
H       29.26511955      26.52858734       7.83131838
H       38.31689835      29.72193146       1.89409518
H       38.25798798      58.23617935       0.54362899
H       33.09709167      24.61487961       7.62526798
H       -1.91239738       0.12335546       2.91029334
H       33.93009186      25.09620857       5.49272728
H       29.90372086      25.87090302       5.59457827
H       36.76958084      29.29149246       3.87593102
C       27.26597595      24.07497215      10.41942787
C       28.28869438      27.46378708      12.62173176
C       -7.40319490       1.62607121      12.75664997
C       30.79151344      27.03388596       9.93445492
C       27.92822075      25.02142143       9.61894321
C       27.60617828      28.39700127      13.32350540
C       -7.82665062       0.66459948      13.63122845
C       31.60609436      26.12431526       9.30040741
C       28.30130196      24.64603233       8.33308220
C       27.27817535      28.19453239      14.71805382
C       -8.18903732       0.99063450      14.99545383
C       32.05273819      26.48400688       8.00496006
C       24.62810516      25.25450706      14.63289833
C       30.90918541      28.59417343       8.07802200
C       -5.33233070       0.61961609       8.18472576
C       28.26405907      25.91020584      14.49305344
C       -5.54403400       0.89901012       9.46981239
C       28.60695267      26.17589760      13.19292068
C       24.99311447      24.85397530      13.37648106
C       30.50439262      28.32387352       9.34830856
H       26.96902657      24.23940277      11.48766994
H       28.65906334      27.64964104      11.61052990
H       -7.03032112       1.32831001      11.77858925
H       30.42744446      26.76720810      10.93022346
H       28.18581581      25.99403191      10.04409122
H       27.39831162      29.33167267      12.87326145
H       -7.87653446      58.59122467      13.29474068
H       31.89633751      25.14800072       9.71019840
H       24.92912483      26.23738670      14.98764420
H       30.60404015      29.51697731       7.61317635
H       34.01454926      58.61393738       7.81672049
H       28.37141609      24.93593788      14.97288609
H       -6.12654209       0.25153083      10.09484482
H       29.03404236      25.38280869      12.61182690
H       25.58916855      25.55802155      12.72317696
H       29.87753868      29.02686310       9.83347607
C       22.56987572      23.98675346      17.45612335
C       24.01802063      26.99879837      19.80712128
C      -11.67307758       1.52958345      19.52785492
C       26.80455780      27.62464714      17.39716911
C       23.41288757      24.73054886      16.67581558
C       23.33493996      27.89056587      20.58729172
C      -12.45519543       0.60067338      20.15896988
C       27.42027855      26.65694046      16.63746643
C       23.78256798      24.38673019      15.39407825
C       22.83199501      27.54737854      21.84405518
C      -13.10305309       0.91309541      21.38934898
C       27.64241028      26.94923782      15.30423546
C       19.89990997      25.55035400      21.66377831
C       26.59240723      29.08136177      15.51534081
C       -8.66316128      58.91959763      15.87200928
C       23.85178566      25.35877800      21.58039856
C       -8.89634705       0.35243759      17.16323280
C       24.15985870      25.66780281      20.28334236
C       20.10352707      25.20067978      20.38345146
C       26.31822586      28.76746368      16.81002808
H       22.32190704      24.47342873      18.41027641
H       24.47046280      27.24843597      18.85619736
H      -11.17820930       1.24634540      18.66382599
H       26.59145927      27.44645500      18.45618820
H       23.88979912      25.58573914      17.11989784
H       23.07534027      28.90328789      20.22158241
H      -12.38693142      58.54492188      19.68638802
H       27.59943008      25.66877556      17.00041389
H       20.23314857      26.46901321      22.17257309
H       26.31065369      30.07469559      15.11853600
H       -8.83806133      57.91785812      15.47094250
H       24.02337456      24.36544228      21.92884445
H       -9.19468403      58.48665237      17.83979797
H       24.74274254      25.00047302      19.65337753
H       20.66156006      25.88262558      19.72182274
H       25.76737595      29.39446449      17.50460052
C       18.18619728      24.13197899      24.66474915
C       20.21609116      27.09609795      27.57581902
C       22.09338188       1.14338994      26.46695900
C       21.95050812      26.88067436      24.39897728
C       19.02188110      24.92229462      23.90324020
C       38.88506699      28.02099800       0.04124398
C       21.15715027       0.49847335      27.25784874
C       22.72888756      25.99696541      23.70187187
C       19.24654579      24.62069511      22.57094383
C       37.98830795      27.82040024       1.10149610
C       39.68574905       0.84179962       0.08035082
C       23.14531326      26.26697350      22.37656021
C       33.77013397      25.46550560       0.21253540
C       22.09385490      28.44195557      22.61529160
C      -13.96270657       0.02440182      22.06756783
C       37.46846390      25.67378426       0.18565156
C      -14.63419342       0.39083561      23.19158745
C       19.47445869      25.91577721      27.62999725
C       15.34496880      25.06537437      27.48653412
C       21.63929367      28.11723328      23.83944511
H       17.99929047      24.41191292      25.71351624
H       20.74704552      27.43253517      26.75529480
H       22.20675659       0.83331245      25.46056366
H       21.54914665      26.56907654      25.34362602
H       19.29381752      25.92954254      24.27809143
H       20.56325150      29.01015282      28.45477676
H       20.47490120      58.69998932      26.83706093
H       23.09790611      25.06475830      24.11092567
H       34.18847275      26.43555260       0.49148753
H       21.89118958      29.41431236      22.27692032
H      -14.16849899      57.98222351      21.65714455
H       36.95853424      24.73746490       0.19595745
H      -15.21648693      58.56236267      23.69717216
H       19.61830902      25.14386368      26.91789246
H       16.03570938      25.71076012      26.93689537
H       21.06052589      28.76956177      24.47782898
C       31.82186317       1.70914483       3.26817846
C       32.42186737       4.90216303       5.58358288
C       -2.96172547       7.26772881       5.22381115
C       35.70426559       4.60412598       3.11091757
C       32.69103622       2.54659224       2.66676760
C       31.70405579       5.80517721       6.34413719
C       -3.73443055       6.49478197       6.04231405
C       36.51562119       3.81442142       2.35625648
C       32.83552933       2.42943978       1.23202395
C       31.51570511       5.48168707       7.68410397
C       -3.95865655       6.83526325       7.40802288
C       36.82662582       4.16328096       0.98466039
C       29.18792534       3.39741969       6.09943914
C       35.59338760       6.24428320       1.32713914
C       -0.01976470       5.74723911       0.87898225
C       32.64757538       3.29582191       7.40187359
C       -0.42595336       6.06751299       2.14731669
C       32.84342575       3.67424679       6.08950233
C       29.11104774       2.78755164       4.88453484
C       35.27232742       5.81387568       2.59589291
H       31.80222702       1.70678544       4.40310097
H       32.80713272       5.20371675       4.58617449
H       36.90806961       6.99859715       4.18058300
H       35.34610748       4.22775316       4.11992121
H       33.31037521       3.31638145       3.15890193
H       31.32682037       6.68444014       5.95264101
H       35.57147217       5.58744669       5.70192099
H       36.79955673       2.81372118       2.71369767
H       29.66448975       4.37872219       6.10013247
H       35.33575058       7.21936417       1.01604319
H       -0.18973428       4.77235556       0.40422189
H       32.88940048       2.35319972       7.80091429
H       -1.05506551       5.44724274       2.79197788
H       33.29351044       2.99344802       5.39155340
H       29.58096886       3.32760215       4.10724545
H       34.62152863       6.44721556       3.10380793
C       28.13930893       2.74926162       9.60806465
C       28.09374809       4.63097715      12.56616116
C       -7.70653915       7.39500141      12.81273174
C       31.26344109       4.91704845      10.43791866
C       28.70214081       3.41490006       8.51250267
C       27.23276520       5.44070816      13.29418945
C       -8.48328972       6.56691504      13.52365589
C       31.85983276       4.02374077       9.62258053
C       28.71394539       2.76572847       7.27458858
C       26.86535645       5.09428549      14.63025951
C       -8.93041229       6.99489498      14.79053783
C       31.99111176       4.25858974       8.22640228
C       24.54181480       2.72654700      14.62775040
C       30.90052414       6.45944357       8.55644608
C       -4.73090649       6.03604841       8.28205490
C       28.50162888       3.29532194      14.50480938
C       -5.07575274       6.44952106       9.53117085
C       28.74993706       3.60364103      13.20337582
C       24.50066185       2.77558970      13.25974655
C       30.83054733       6.17223406       9.90374470
H       28.04741287       3.20932722      10.53905010
H       28.24835396       4.91863489      11.52840614
H       -7.44632196       7.12603521      11.78106594
H       31.10846329       4.60455227      11.48226643
H       29.22156143       4.39566898       8.68308735
H       26.80168533       6.31992722      12.86259270
H       31.00206757       5.62690496      13.16867542
H       32.18213272       3.02113819       9.98242188
H       24.70119095       3.64935493      15.12520981
H       30.53338623       7.42058516       8.19615269
H       34.51190186       5.07962322       7.88501406
H       29.08087540       2.55371618      15.07806683
H       -5.81622076       5.90362024      10.11334133
H       29.49641609       2.96840501      12.74831200
H       24.60953140       3.74683189      12.76832390
H       30.37635040       6.89848042      10.52043724
C       24.81822395       0.25941545      17.33333778
C       23.52261543       4.74224138      19.57104874
C      -12.29108715       7.47703028      19.62146950
C       26.35674667       4.46821308      17.31908417
C       24.68813133       1.45164466      16.66337776
C       22.87146568       5.54812336      20.44068909
C      -13.01375294       6.55690670      20.36801338
C       27.22818947       3.74478412      16.58185577
C       24.59499359       1.47404385      15.29992199
C       22.44814110       5.13895702      21.74023628
C      -13.40905285       6.84122562      21.67347717
C       27.47244644       3.98704123      15.24131870
C       19.67011833       3.43930793      21.50459862
C       26.01353645       5.92762136      15.41812706
C       -9.67544746       6.05828094      15.65702438
C       23.49641991       3.03223348      21.28157616
C       -9.82167149       6.33584118      16.97925949
C       23.88968468       3.46721554      20.05882263
C       20.10979271       3.15542793      20.22001839
C       25.77757072       5.64460945      16.72869682
H       24.96410751       0.25798592      18.37628746
H       23.80347061       4.98717928      18.53345680
H      -11.99856472       7.27539825      18.62229347
H       26.26166916       4.36908627      18.41832733
H       24.68535995       2.41788435      17.19676971
H       22.57897758       6.59223509      20.22233391
H       26.49464417       5.65523195      19.85199165
H       27.85303307       3.02038717      17.11555099
H       19.96658707       4.34370708      21.95712852
H       25.65829086       6.81494570      14.96875954
H      -10.00070190       5.10967827      15.22847652
H       23.64244080       1.97358441      21.61904335
H      -10.32833576       5.60470295      17.59382439
H       24.41901016       2.75610757      19.45262909
H       20.69915581       3.84538937      19.67314911
H       25.17793083       6.32167673      17.28682518
C       17.68869781       1.79168260      24.27622032
C       18.50930214       4.83331203      26.88973045
C      -16.93967819       7.20143175      26.66439819
C       21.53739929       4.24318838      24.22682381
C       18.44016266       2.71318507      23.60564423
C       17.91978455       5.75084591      27.67378616
C      -17.59789848       6.30667305      27.41279411
C       22.26577187       3.39543152      23.41948509
C       18.96024323       2.52157068      22.27115440
C       36.37953186       5.41316557       0.51465958
C        0.74234903       6.66601706       0.16293316
C       22.76380539       3.84036684      22.18031883
C       33.70665741       3.27981877       0.55343390
C       21.72820663       5.98840189      22.58504677
C      -14.20225143       5.95108557      22.44461060
C       37.42798996       3.22524738       0.09870922
C      -14.61514091       6.22183561      23.69803429
C       18.83701897       3.57705665      27.34182358
C       15.14214706       3.07508445      27.75138474
C       21.30281639       5.59409952      23.85689926
H       17.23105240       1.97440279      25.20322037
H       18.69991684       5.11917210      25.84481812
H      -16.60597420       6.86129665      25.70323944
H       21.30109596       3.94279122      25.26736641
H       18.63052750       3.67496228      24.09413338
H       17.67232323       6.76288605      27.35663033
H       21.85983086       5.30788660      27.07655334
H       22.43866730       2.36410761      23.70847702
H       34.17096329       4.09734488       1.09639943
H       21.35668373       6.90323973      22.11208344
H       25.29570389       5.05009413      21.88328362
H       37.59792709       2.18103719       0.45455456
H      -15.24776268       5.54881287      24.27744675
H       19.28660202       2.84226155      26.71573067
H       15.76106739       3.72049928      27.10285568
H       20.76824760       6.24811459      24.55826569
C       31.86644363       7.37751293       2.94958591
C       32.72823715      10.62827683       5.49656200
C       -3.24699593      12.80726242       5.35938883
C       35.74293137      10.01882172       3.16061783
C       32.58652878       8.23060322       2.17271328
C       31.97644615      11.41796780       6.34130526
C       -3.92214394      11.91968727       6.17027473
C       36.59942627       9.29370308       2.41045332
C       32.86036682       8.01364613       0.79948527
C       31.69787025      10.99584293       7.65041494
C       -4.13550806      12.25156784       7.55475616
C       36.86575699       9.57864761       1.07705259
C       28.91757393       8.79719353       7.16064548
C       35.49593353      11.55340385       1.36903250
C       -0.03636798      11.45039463       1.31896746
C       32.84189224       8.88419437       7.17144108
C       -0.35217378      11.90771103       2.56903362
C       33.11735916       9.35405064       5.92949343
C       29.13293648       8.60665035       5.81617403
C       35.17377472      11.21903801       2.64520860
H       31.50619507       7.73607922       3.93300533
H       33.00170517      10.92835331       4.48547602
H       36.74843979      12.47594547       4.37169886
H       35.58609772       9.74697208       4.20074844
H       32.87659073       9.17245293       2.58698964
H       31.61406136      12.38397408       6.07614517
H       35.51229858      10.93783093       5.77717113
H       37.16526413       8.45361996       2.82315660
H       29.33064461       9.68715382       7.62221527
H       35.08461761      12.37249565       0.87695736
H       -0.37795463      10.42616940       0.95970714
H       33.11499023       7.93036270       7.52429104
H       -0.98296756      11.32994652       3.23318505
H       33.70854187       8.64649296       5.33058977
H       29.81063080       9.29454803       5.40046549
H       34.60037613      11.87456608       3.31212831
C       26.98066330       7.28702402      10.02631950
C       28.22880554      10.19249344      12.27613831
C       -7.64960241      12.76076508      12.70325184
C       31.26397705      10.07625294      10.28541470
C       27.83131790       8.16983032       9.37219715
C       27.54380798      11.07008934      13.01009560
C       -8.51509380      12.03066730      13.40918541
C       31.98663330       9.34157372       9.41635036
C       28.07179070       7.97395754       7.93746042
C       27.07334137      10.71545315      14.27998066
C       -8.92150784      12.42165661      14.74550533
C       32.21146774       9.76140022       8.09533024
C       24.18358231       8.85671520      14.39119244
C       30.90402794      11.68063831       8.59332466
C       -4.86965895      11.40520000       8.47395134
C       28.07056808       8.51638126      13.95631313
C       -5.17692757      11.77226353       9.75441933
C       28.46095657       8.86486530      12.72207165
C       24.47255325       8.66425323      13.09127235
C       30.64804840      11.25437450       9.87217712
H       26.73153496       7.49421263      11.06287384
H       28.65169144      10.48992920      11.32153988
H       -7.31623220      12.39657974      11.73294163
H       31.18605995       9.70705986      11.31277180
H       28.25539398       9.06366730       9.84474182
H       27.59884453      12.09838581      12.64122581
H       30.82143593      11.08805656      13.05418015
H       32.45335007       8.42159843       9.68573093
H       24.43266869       9.79428291      14.79984474
H       30.47336769      12.65755272       8.32106781
H       -5.17629814      10.42804813       8.18312454
H       28.31254196       7.54368258      14.26984978
H       -5.83417988      11.13573456      10.38501072
H       29.00178528       8.16273594      12.08518696
H       24.95737648       9.54250622      12.51865864
H       29.86887741      11.90279007      10.43728542
C       22.65654564       6.91311646      17.23046494
C       23.31771660       9.94910145      20.03238869
C      -12.27177429      12.86183071      19.73616219
C       26.41904831       9.97371674      16.91804886
C       23.23069000       7.98804379      16.50317574
C       22.67410278      10.92067909      20.77275276
C      -13.17064667      12.11634636      20.51884270
C       27.14191246       9.09464645      16.14373779
C       23.49158859       7.84145164      15.12665653
C       22.32054901      10.67598343      22.14205360
C      -13.39373016      12.43256283      21.88634109
C       27.36890602       9.41069889      14.78056717
C       19.53902245       8.90528202      21.44960213
C       26.33923912      11.61708546      15.11763000
C       -9.76598167      11.60304928      15.46756744
C       23.50737190       8.51930332      21.98433495
C      -10.04650497      11.89315319      16.77745628
C       23.71256256       8.74571323      20.66769028
C       19.87682915       8.53775883      20.17930603
C       25.99489975      11.22838497      16.40469742
H       22.52391434       7.04203939      18.28665543
H       23.64313889      10.17252350      19.00531387
H      -11.99061680      12.58861446      18.74442863
H       26.33652878       9.76392269      17.97755051
H       23.54216576       8.94775486      16.97328758
H       22.26863670      11.83611584      20.33466148
H       26.17535210      11.21627331      20.04254532
H       27.41084671       8.07947159      16.41051483
H       19.70364380       9.92071724      21.72262573
H       26.08377457      12.65098190      14.82155514
H       29.49934578      10.72510815      15.02748775
H       23.62685013       7.52190161      22.37453842
H      -10.73009586      11.23204994      17.24744415
H       24.23483467       8.06270885      19.99155235
H       20.27873611       9.30632591      19.53458595
H       25.54545403      11.94240761      17.09572601
C       17.65645218       7.66241646      24.36507607
C       18.60680199      10.28645802      26.92718506
C      -17.05915833      12.63030434      26.76841354
C       21.41573906      10.04262066      24.68579864
C       18.45028496       8.44872093      23.61468506
C       17.78157806      11.07927322      27.73696327
C      -17.90680695      11.87182999      27.57198715
C       22.27704811       9.17265224      24.04145432
C       18.80843925       8.04701042      22.29892540
C       36.24785614      10.72509289       0.50560814
C        0.60492712      12.33891106       0.34303188
C       22.73330879       9.47019100      22.72827339
C       33.62852097       8.88970566       0.04369136
C       21.50187683      11.60750008      22.81784058
C      -14.06596279      11.53271389      22.72245026
C       37.66944885       8.74456215       0.24428569
C      -14.40975475      11.92076683      23.98341370
C       19.09080315       9.07656288      27.47182274
C       15.16422844       8.67432213      27.29525757
C       21.05883980      11.30139732      24.10542870
H       17.35675430       7.83324814      25.37050056
H       18.94063950      10.71897984      25.97278023
H      -16.75329590      12.36176777      25.76499176
H       20.87988091       9.69974041      25.58687973
H       18.77044868       9.37732124      24.04609108
H       17.29201698      11.95965576      27.27260399
H       21.52216148      10.92632771      27.28369331
H       22.46424484       8.20778370      24.46579552
H       33.83242416       9.82521820       0.57633352
H       21.21317291      12.50597858      22.25166130
H      -14.51636028      10.65940094      22.29335022
H       37.97178650       7.79761791       0.71132433
H      -15.05935192      11.35270691      24.60803795
H       19.69412613       8.44178200      26.82910538
H       15.64694500       9.39628220      26.67708588
H       20.43312836      11.96595764      24.65093040
C       31.97397804      12.94005966       3.02187061
C       32.84323883      16.01300240       5.43372536
C       -3.09988689      18.19593239       5.53388262
C       35.61257172      15.67062664       3.12528300
C       32.71690369      13.77515125       2.23383141
C       32.04540253      16.76850128       6.22015476
C       -3.95175838      17.43995285       6.32233000
C       36.53895187      14.88932133       2.45051742
C       32.96812058      13.50679016       0.85170311
C       31.74669647      16.35799217       7.56259203
C       -4.22495174      17.79757118       7.64523649
C       36.81177902      15.17165375       1.07797229
C       28.98151398      14.43335533       7.28094006
C       35.50061798      17.17378235       1.22024655
C       -0.17510165      16.83264542       1.15064466
C       33.02928925      14.27056694       7.18777132
C       -0.51036394      17.18374634       2.42240763
C       33.26808929      14.76207542       5.89373827
C       29.29898834      14.06632423       6.00607538
C       35.13993454      16.82697678       2.47572994
H       31.65954590      13.19482899       4.03701735
H       33.12066650      16.31078339       4.46978283
H       -2.86489272      17.86325455       4.52852964
H       35.37040710      15.41826820       4.17042112
H       33.05091095      14.72672844       2.61715412
H       31.64365959      17.71281624       5.81371546
H       35.36276627      16.53530312       5.89801693
H       36.97279358      14.00266743       2.94840002
H       29.16022110      15.44142818       7.56457615
H       35.14493561      18.07412720       0.76953065
H       -0.45849940      15.84132481       0.82066083
H       33.29296112      13.25534630       7.57446432
H       -1.17085779      16.62145805       3.04873586
H       33.86872101      14.18246746       5.21832609
H       29.94265556      14.74373245       5.46073341
H       34.45079422      17.46249771       3.06580400
C       27.05379868      13.24862099      10.20608234
C       28.06290054      15.85900402      12.60515499
C       -7.83886528      18.31023026      12.56676769
C       31.02238846      15.44324398      10.09760284
C       27.70078850      14.08326054       9.38596344
C       27.37846947      16.72276688      13.40752792
C       -8.50470543      17.44589424      13.37425041
C       31.77376366      14.67023563       9.31059265
C       28.15795708      13.66624069       8.08190537
C       27.12399483      16.33939552      14.76206112
C       -8.80431080      17.76553154      14.69965935
C       32.21326065      15.10256767       8.02255726
C       24.39097023      14.40070534      14.42570210
C       30.92964363      17.16697502       8.38983536
C       -5.03094864      16.99070168       8.47866440
C       28.07217216      14.15695381      14.29948807
C       -5.33894825      17.38743019       9.76027584
C       28.32566452      14.52987671      13.02104664
C       24.71707916      14.07601166      13.14418411
C       30.67695427      16.79716873       9.72139645
H       26.69637108      13.59895229      11.20175838
H       28.38776398      16.23106384      11.62501049
H       -7.53327465      17.95414352      11.58560944
H       30.66519928      15.11237335      11.06865406
H       27.97039413      15.10338593       9.70451069
H       27.19464493      17.74196434      13.08461475
H       30.95425415      16.46751213      12.99466896
H       31.98927498      13.69956398       9.65251255
H       24.70838737      15.29462242      14.95175076
H       30.71272850      18.21679878       8.11571884
H       -5.29740715      15.96208286       8.20466518
H       28.41351509      13.14678955      14.62931252
H       -5.98027945      16.76954651      10.39732933
H       28.82570839      13.85921383      12.39735603
H       25.33490753      14.72379017      12.56005955
H       30.11916351      17.46861458      10.40479755
C       22.53605270      12.99438095      17.27504349
C       23.53951645      15.90307140      19.70868874
C      -12.26213074      18.37077332      19.87880135
C       26.69729805      15.62393570      17.43024635
C       23.22294426      13.90117741      16.55637169
C       22.80003929      16.74941063      20.53675652
C      -13.12627602      17.60281181      20.64716530
C       27.25774956      14.73774147      16.58743286
C       23.57119560      13.54530811      15.18942738
C       22.45912933      16.32204628      21.80463791
C      -13.46870232      17.94074821      22.00078011
C       27.50430489      15.08317661      15.22088242
C       19.69952011      14.35886955      21.63559341
C       26.48648643      17.25098038      15.68312073
C       -9.57264328      16.86097336      15.52776337
C       23.54959869      14.14617157      21.35478973
C       -9.87099171      17.21107674      16.81531334
C       23.82024193      14.56496811      20.12221909
C       20.01978874      13.93243694      20.34092903
C       26.29502296      16.91431236      17.01019096
H       22.31627846      13.25817299      18.33248138
H       23.78317642      16.27505112      18.71867371
H      -11.99663067      18.02758980      18.92155075
H       26.55706406      15.36514664      18.47380447
H       23.50933456      14.82787323      17.01473618
H       22.50447464      17.75422096      20.29377747
H       26.28686142      16.66784859      20.27077866
H       27.50789261      13.75621510      16.92774582
H       20.14793777      15.29620266      22.08265877
H       26.10414886      18.15921402      15.21403885
H       -9.89385605      15.90282726      15.15933990
H       23.73041725      13.11720276      21.63401985
H      -10.43698120      16.56008339      17.46933937
H       24.29261780      13.90016460      19.37953758
H       20.73758125      14.49645042      19.76544380
H       25.79516602      17.55863762      17.71734619
C       17.98177528      13.01467228      24.62204552
C       18.77242661      15.88357830      26.91287994
C      -16.92020607      18.23929787      26.74153328
C       21.76778221      15.32208061      24.35032654
C       18.81605721      13.79744720      23.84965515
C       17.92922020      16.69247055      27.64698029
C      -17.75688362      17.38779259      27.47423744
C       22.53957748      14.57836723      23.56792259
C       18.91030884      13.52103424      22.49222374
C       36.37392807      16.38628387       0.43608090
C        0.67875475      17.64356232       0.33876869
C       22.83668518      15.04922676      22.24620247
C       33.78108597      14.35729122       0.08690787
C       21.68802452      17.09934998      22.65709114
C      -14.19053841      17.03019905      22.81229210
C       37.55789948      14.30552959       0.25777161
C      -14.51729202      17.44690514      24.05852509
C       19.08797073      14.60085678      27.51544952
C       15.30613708      13.98532867      27.31722641
C       21.33399391      16.59532928      23.87342834
H       17.79862595      13.30147934      25.66192245
H       19.11026573      16.18946266      25.88164520
H      -16.55440903      17.84545326      25.80216789
H       21.46355057      15.02737522      25.34138107
H       19.15668297      14.72129345      24.30553627
H       17.66688919      17.67591476      27.22491455
H       21.70260048      16.52629471      26.91263008
H       22.81332397      13.60339642      23.86578369
H       34.06741333      15.24903393       0.57921362
H       21.26589203      18.07617760      22.42657089
H      -14.49193287      16.08263588      22.44792366
H       37.85643005      13.28917027       0.58605951
H      -15.01361465      16.71880531      24.70293045
H       19.62116432      13.92195606      26.86977005
H       16.01327515      14.65225315      26.77470970
H       20.72959518      17.15634346      24.52961731
C       31.83024788      18.55147362       3.19247794
C       32.81161499      21.13205147       5.65870237
C       -3.37348104      23.50872040       5.50769138
C       35.83011246      20.97323990       3.20042944
C       32.62049866      19.40784836       2.48169184
C       32.11139297      22.08147812       6.32345915
C       -4.05534935      22.69787025       6.38378906
C       36.58319092      20.18252373       2.35921621
C       32.91852951      19.13407516       1.11998522
C       31.68618202      21.83324051       7.66468287
C       -4.39648342      23.17622757       7.68245649
C       36.84567261      20.54323196       1.03608263
C       29.08242798      19.78501129       7.11053991
C       35.68857193      22.63164139       1.38318968
C       -0.26061180      22.54657364       1.15072787
C       32.73201752      19.61516380       7.46960449
C       -0.69891703      22.98715973       2.32556844
C       33.11233902      19.83653641       6.18449450
C       29.33432770      19.44414139       5.82624865
C       35.36787415      22.23495102       2.61163378
H       31.56855392      18.73876572       4.30072403
H       33.05622101      21.36305046       4.62077045
H       36.64258194      23.18080521       4.50682211
H       35.56577683      20.77128792       4.22769165
H       33.06092834      20.27261543       2.89019918
H       32.05928802      23.08465576       5.91719723
H       35.25357437      21.76758957       6.03412628
H       37.01914597      19.29327393       2.72971392
H       29.39084244      20.79366302       7.44176722
H       35.30300522      23.55200768       0.97760141
H       -0.50538743      21.56738853       0.78133827
H       32.97936630      18.65333366       7.93574047
H       -1.32936668      22.43608284       2.98090029
H       33.54246521      19.14077950       5.47625065
H       29.92945862      20.10570526       5.20745659
H       34.74760056      22.98142624       3.15130138
C       27.23050499      18.57779121      10.14124870
C       28.23163986      21.48579407      12.92248058
C       -7.74476337      23.92273140      12.74576664
C       30.86069489      21.30787659      10.26257324
C       27.99315071      19.36726761       9.32167721
C       27.62456512      22.33206558      13.80199909
C       -8.51223755      23.10714149      13.57541561
C       31.50821877      20.33332443       9.57776260
C       28.27644730      18.96927261       8.00116539
C       27.27785873      21.97178078      15.13723087
C       -8.95979214      23.61318207      14.82688522
C       31.92060471      20.53324699       8.22699165
C       24.36482620      19.96871567      14.71326065
C       31.00438690      22.85188103       8.43992043
C       -5.06882286      22.36787796       8.60978699
C       28.30190849      19.83721352      14.73022747
C       -5.30600023      22.74853134       9.87906075
C       28.61951828      20.20450592      13.44701004
C       24.77417374      19.64259720      13.47578716
C       30.57324791      22.58007050       9.66739559
H       27.06695747      18.82622147      11.21642685
H       28.50740433      21.84473610      11.89078903
H       -7.31043339      23.53435707      11.83075237
H       30.54142952      21.14834976      11.25999069
H       28.31288528      20.31667137       9.68081474
H       27.32338905      23.34993744      13.49714661
H       -8.83603573      22.08166695      13.44741821
H       31.67678452      19.36049271      10.07836437
H       24.65554810      20.99612427      15.09057426
H       30.89987183      23.80935860       7.93538094
H       -5.32954311      21.34465408       8.36402416
H       28.57854843      18.84744835      15.13542652
H       -5.74206829      22.00911140      10.56904411
H       29.19727325      19.48844147      12.89233685
H       25.49020195      20.29910660      12.95095634
H       30.18053246      23.36083984      10.24857998
C       22.40959930      18.42663383      17.51984215
C       23.53333282      21.19088936      19.77152634
C      -12.41586113      24.06801605      19.62291336
C       26.37463570      21.08343506      17.66174316
C       23.20613289      19.29486084      16.82419968
C       22.90354347      22.14104462      20.53808212
C      -13.10858727      23.21720886      20.43811989
C       27.10094643      20.23933601      16.86939812
C       23.59007835      19.02863121      15.47817898
C       22.60162354      21.83120728      21.89426422
C      -13.40865612      23.50927925      21.80228806
C       27.58894920      20.72028542      15.63052464
C       19.79179955      19.96773148      21.67145157
C       26.52710533      22.81176758      15.94429302
C       -9.61190796      22.79030800      15.75365257
C       23.61141205      19.67682076      21.64267540
C       -9.88456726      23.23668671      16.97302055
C       23.91916466      19.98687172      20.35650635
C       20.09027100      19.61228180      20.38701057
C       26.10039711      22.42026901      17.14915085
H       22.07210732      18.69377708      18.53425789
H       23.87454033      21.43120956      18.71362877
H       27.50482750      23.87442589      18.58452797
H       25.85904884      20.75136185      18.56000710
H       23.43358231      20.27480316      17.27034378
H       22.64657402      23.15396118      20.26699448
H       26.26464462      22.27564239      20.03760147
H       27.29855728      19.23339844      17.09523201
H       20.23161316      20.89120674      22.07094383
H       26.34724617      23.80958366      15.57326317
H       -9.73500919      21.76607513      15.54035091
H       23.89223480      18.66447639      22.05784416
H      -10.39947700      22.59531021      17.70514297
H       24.58289337      19.32202911      19.78994370
H       20.68113518      20.24011993      19.79526520
H       25.49940872      23.10954666      17.76086998
C       17.97879028      18.60154915      24.69820023
C       18.83566856      21.35788536      26.97810936
C      -16.93083000      23.88938904      26.84875488
C       21.88393021      21.20656204      24.50600243
C       18.76560974      19.44208908      23.96570969
C       18.09770584      22.18765450      27.76850319
C      -17.76842690      23.06788445      27.59062195
C       22.56918907      20.32983208      23.76815414
C       19.07322121      19.11585808      22.57236099
C       36.47356033      21.80882454       0.56168103
C        0.56514198      23.37912941       0.34266070
C       22.91837311      20.60293770      22.45580101
C       33.80662155      19.98088646       0.45686007
C       22.02067184      22.85516739      22.73808670
C      -14.08347321      22.60358238      22.60643768
C       37.64005280      19.68674469       0.21995007
C      -14.47303486      22.96977997      23.87185860
C       19.28877640      20.12403870      27.49413109
C       15.39649296      19.70809937      27.70252228
C       21.59309769      22.49109077      23.96400642
H       17.64267349      18.87071228      25.70459175
H       19.18398285      21.67008972      26.00605011
H      -16.65134430      23.51982117      25.88936996
H       21.64118958      20.81591415      25.50042915
H       19.23418999      20.31844711      24.41401672
H       17.82429695      23.09588623      27.30780220
H       21.63157845      22.16439056      27.17481995
H       22.75836563      19.35116386      24.21488762
H       34.16681290      20.78784943       1.07016170
H       21.71646881      23.84016800      22.36174965
H      -14.43073177      21.66504478      22.27887344
H       37.96577835      18.71236801       0.57238734
H      -15.19586372      22.30235481      24.37118912
H       19.86326027      19.47026062      26.84510231
H       16.12591743      20.34547806      27.16711044
H       21.12723923      23.30438232      24.54732895
C       -0.34719279      24.31523323       2.77369356
C        0.28242540      26.52103806       5.32191324
C        4.07028389       1.43433833       5.20894098
C        3.49779749      26.98349380       2.65247417
C        0.44324306      25.12871552       2.06622982
C       -0.55630857      27.38172150       5.98944569
C        3.28516531       0.67444599       6.04771662
C        4.33751965      26.06833076       2.08166671
C        0.97295648      24.67134666       0.81784552
C       -0.75827599      27.06050682       7.34926605
C        3.07891297       1.09470332       7.38015985
C        4.93024349      26.36482811       0.81230819
C       -3.34654760      25.27808952       7.14748430
C        3.82147837      28.58375168       0.87752432
C        6.72449827       1.06944096       0.74753028
C        0.61263007      25.10488319       7.20274878
C        6.43818140       1.36006367       2.04188943
C        0.93637556      25.42643166       5.95385456
C       -2.98684764      24.76487160       5.93543100
C        3.23589540      28.27446556       2.08240485
H       -0.72991854      24.65668488       3.76138282
H        0.45387486      26.77921486       4.28948832
H        4.21748257       1.13760233       4.19691801
H        3.06218147      26.79507446       3.61929822
H        0.71189225      26.12009621       2.45399547
H       -1.02098835      28.19834328       5.41809797
H        2.84024119      58.60025024       5.80863667
H        4.40749788      25.07974243       2.47521424
H       -3.04867554      26.27228737       7.31427383
H        3.56478429      29.56335831       0.40768188
H        6.15771484       0.29322845       0.17935055
H        1.01041925      24.22952843       7.72602081
H        5.54722309       0.90720797       2.49778128
H        1.61169231      24.82241631       5.42581224
H       -2.46108699      25.50323486       5.29778147
H        2.69276214      29.00938416       2.63843036
C       -4.93526316      24.06613159      10.34312058
C       -3.65844965      26.73361015      12.75456047
C       -0.11268703       1.95519125      12.30809212
C       -1.25039148      26.54283714      10.06481934
C       -4.31196737      24.82480812       9.43189812
C       -4.35652685      27.68427849      13.48348999
C       -1.02245700       1.22212815      13.02612114
C       -0.50212365      25.70678520       9.36074162
C       -4.00229740      24.44560242       8.07962704
C       -4.86859417      27.38017082      14.75548077
C       -1.19315934       1.52408564      14.40980625
C       -0.23714736      25.94605827       7.94494581
C       -7.80175495      25.76109123      14.23938751
C       -1.59479988      27.86276817       8.14006710
C        2.24625540       0.39495343       8.24005604
C       -3.85359597      25.09642029      14.55130577
C        2.03012586       0.84566158       9.51867008
C       -3.43180346      25.44083405      13.27524471
C       -7.46733665      25.26565170      13.01966381
C       -1.90670621      27.62512970       9.42062187
H       -5.17100430      24.47637558      11.29919720
H       -3.32008123      27.05891991      11.75285816
H       -0.02101222       1.71877337      11.29235363
H       -1.30899000      26.42757988      11.16327381
H       -3.96518397      25.84422874       9.69232464
H       -4.48547173      28.69758224      13.09330940
H       -1.52005482       0.37053898      12.58712769
H       -0.07887720      24.78131676       9.77322292
H       -7.62145853      26.74058342      14.62628460
H       -2.01437449      28.72466087       7.63437510
H        1.77698231      58.36117554       7.93735981
H       -3.67185926      24.11633492      14.93381596
H        1.31070697       0.36477512      10.16870117
H       -2.84511685      24.75060844      12.76109505
H       -6.92744637      25.85932922      12.26088810
H       -2.58625674      28.28315353       9.94172096
C       -9.55428600      24.53871727      17.32488823
C       -8.74806023      27.30604553      19.52096939
C       -5.26914072       1.82492805      19.55942917
C       -5.76239395      26.62868881      17.32562065
C       -8.88574409      25.33721924      16.47369576
C       -9.56315136      28.17365456      20.27672195
C       -6.06829882       0.98814857      20.31884384
C       -4.97206545      25.78473282      16.63239479
C       -8.60484886      24.94129372      15.13570213
C       -9.83785915      27.86282349      21.66159821
C       -6.13014364       1.22418356      21.75878716
C       -4.60817862      26.07778549      15.26182270
C      -12.29737568      25.61054993      21.45259476
C       -5.70109797      28.26298332      15.54992199
C       -2.04974532       0.67172402      15.15306568
C       -8.50256634      25.78557587      21.42815590
C       -2.36531138       0.95291269      16.44755363
C       -8.24735832      26.13441658      20.11280632
C      -11.95791245      25.29292297      20.15401840
C       -6.17711878      27.91192055      16.79402924
H       -9.87253952      24.91187859      18.31033516
H       -8.52142239      27.47066307      18.43111992
H       -5.15913630       1.61492431      18.47229385
H       -5.97247553      26.44840431      18.34327698
H       -8.59213829      26.37078667      16.70309830
H       -9.92036533      29.08802795      19.83055687
H       -6.65648890       0.14220096      19.98211288
H       -4.77800512      24.75571060      17.03888130
H      -12.02563381      26.61649704      21.87825203
H       -6.02059031      29.24699783      15.14234924
H       -2.40240431      58.73888397      14.60312080
H       -8.13151932      24.83519173      21.80731010
H       -2.95386696       0.23874220      17.08863258
H       -7.68578005      25.36042595      19.53644943
H      -11.37612629      26.01771164      19.61709595
H       -6.84371758      28.57715225      17.31476974
C      -14.26705837      24.28043938      24.34554291
C      -12.84312630      26.95141792      26.82100868
C       -9.31653690       1.69563293      26.79468918
C      -10.31963730      27.17161751      24.36089897
C      -13.43477249      25.12736702      23.63215828
C      -13.58196735      27.87392616      27.50407982
C      -10.34603786       1.09425139      27.39464760
C       -9.58250809      26.35702515      23.60774231
C      -13.02186775      24.77638054      22.32285118
C        4.65106106      27.60090256       0.19618689
C        7.89697886       1.54468989       0.09987834
C       -9.29494858      26.64413452      22.22459030
C        1.81257594      25.55765915       0.04695434
C      -10.63309860      28.69522095      22.49777603
C       -6.91651726       0.39087886      22.60758018
C        5.75883627      25.44908524       0.10052831
C       -7.10441875       0.77393639      23.89617157
C      -12.56410217      25.70737457      27.38522339
C      -16.52691078      25.15378380      27.36997986
C      -10.85546684      28.38048363      23.84349060
H      -14.64111996      24.62360191      25.29739761
H      -12.55731106      27.09070778      25.76239204
H       -8.96674824       1.38744342      25.81277466
H      -10.58306122      26.86808586      25.33132553
H      -13.23036194      26.07830811      24.05501747
H      -13.82319736      28.74992371      26.92652512
H      -10.86827850       0.33543566      26.81908798
H       -9.24026489      25.33938980      23.97437668
H        2.10835838      26.58359337       0.30189621
H      -11.03793144      29.60685539      22.08273125
H       -7.43109179      58.50653076      22.14355659
H        5.96179104      24.50575066       0.57237422
H       -7.80241251       0.15473051      24.47825432
H      -11.94030666      24.97138405      26.96702766
H      -15.97282410      25.90656662      26.79678917
H      -11.49604702      29.03324509      24.43123627
C       -0.53757662       1.73183835       2.73834896
C        0.77561873       4.68702841       5.23880720
C        4.81794214       7.12707567       5.43926001
C        3.41500378       4.12803173       2.65098429
C        0.35966194       2.39123154       1.98444331
C        0.12306793       5.52030516       6.07230806
C        3.98146915       6.27350092       6.04221487
C        3.87820745       3.28677726       1.68734038
C        0.62969637       1.98583782       0.58942062
C       -0.32332000       5.13063669       7.35038424
C        3.65863061       6.56062937       7.40274429
C        4.39860725       3.79076314       0.46451992
C       -3.14690852       3.39587951       7.15030003
C        3.86609650       6.08538103       1.32040703
C        7.49001980       5.94449759       1.24546003
C        0.54394662       2.92631602       6.87754059
C        7.15189362       6.31066704       2.51707506
C        1.00893867       3.35571432       5.65252590
C       -2.83265853       3.09103131       5.83882952
C        3.37746310       5.49819612       2.44914865
H       -0.67452532       2.03990817       3.77334785
H        1.07194579       5.08588266       4.26273251
H        5.06103182       6.99091768       4.40093422
H        2.97306800       3.77092743       3.57375622
H        0.89359987       3.23402452       2.38542509
H       -0.15963252       6.53425455       5.71530581
H        3.59199071       5.37954903       5.57500362
H        3.76541066       2.17982984       1.80683589
H       -2.72112894       4.31170988       7.61326456
H        3.86705637       7.17092419       1.20649874
H        7.04200649       5.08536291       0.76318449
H        0.55016369       1.85011756       7.13084316
H        6.53474474       5.61170530       3.11121440
H        1.57292831       2.67423964       5.05766201
H       -2.19396234       3.73315525       5.30688858
H        3.01097512       6.12427473       3.24522471
C       -5.04904842       2.07223916      10.08326340
C       -3.95072269       5.10713530      12.52584839
C        0.26557663       7.43005705      12.54712200
C       -1.18685460       4.25763321       9.92965031
C       -4.26692104       2.90541816       9.32475185
C       -4.62614679       5.93914318      13.29096317
C       -0.51881939       6.55550432      13.26783657
C       -0.49987492       3.40657663       9.12023735
C       -3.99388528       2.59495497       7.94325066
C       -4.98168039       5.52742910      14.62021255
C       -0.81407064       6.78252935      14.68142700
C       -0.09756760       3.78094769       7.81037235
C       -7.58168507       3.29428959      14.51213264
C       -0.93826383       6.00677586       8.23216820
C        2.75093222       5.70863676       8.13599014
C       -3.91626310       3.43519592      14.24368763
C        2.40428853       5.99737978       9.39887810
C       -3.47626996       3.83707237      13.01542664
C       -7.23761559       2.94178796      13.19298077
C       -1.37268806       5.62415075       9.45005608
H       -5.23839045       2.28104568      11.11118793
H       -3.69213176       5.33191013      11.48391819
H        0.41850650       7.16627216      11.51910114
H       -1.52696598       3.96849990      10.93903828
H       -3.79932165       3.75983047       9.74460220
H       -5.08563662       6.87441969      12.85023403
H       -0.90259457       5.66144609      12.75501728
H       -0.29571816       2.41957688       9.32872868
H       -7.49572277       4.27818775      14.95411396
H       -0.94778174       7.02692509       7.95119810
H        2.36580586       4.81486893       7.61226845
H       -3.61779261       2.43823242      14.54970932
H        1.75748825       5.33265495       9.96652889
H       -2.95914626       3.16960669      12.35582066
H       -6.83583260       3.72600937      12.56985188
H       -1.82509446       6.37369490      10.04650879
C       -8.78213501       1.67406285      17.63824081
C       -8.45273876       4.98900843      19.87939644
C       -4.47514153       7.28445911      19.80275726
C       -5.77103853       4.72331667      17.22043800
C       -8.27963352       2.65556765      16.78960419
C       -9.15661812       5.82170486      20.69646835
C       -5.23683405       6.46268368      20.52190399
C       -5.09926796       3.87413836      16.41437912
C       -8.02557182       2.31908679      15.41779041
C       -9.64445782       5.42395449      21.96714973
C       -5.59583282       6.79609060      21.85826302
C       -4.61384535       4.25453615      15.11237907
C      -12.33549118       3.21403909      21.11326981
C       -5.64065552       6.42832518      15.47085381
C       -1.63684022       5.89122868      15.37561131
C       -8.59707737       3.22504640      21.48224640
C       -2.02889490       6.18578815      16.62674522
C       -8.14302540       3.64280033      20.27004433
C      -11.72290897       2.88869596      19.89737511
C       -6.00157261       6.02608156      16.77121353
H       -8.94263840       1.88924265      18.70910263
H       -7.92243624       5.31557465      18.98046303
H       -4.23855352       6.95014477      18.75712585
H       -6.11580896       4.36164856      18.17329407
H       -8.11334801       3.64702320      17.09008217
H       -9.29956627       6.86106586      20.36413574
H       -5.59380770       5.54092503      20.07947731
H       -4.87837219       2.87543130      16.74709892
H      -12.33435154       4.19845486      21.48803329
H       -5.86252737       7.39550066      15.13900280
H       -1.97877157       5.00773954      14.91220379
H       -8.34119797       2.24727607      21.92061234
H       -2.67913079       5.52342224      17.13743401
H       -7.58374691       3.00617242      19.61041260
H      -11.17534256       3.64914894      19.39797974
H       -6.43257236       6.69600868      17.51217651
C      -14.33698559       1.64707649      23.77741051
C      -13.29207611       4.94906521      26.68177414
C       -9.17658043       7.32877159      26.95505142
C      -10.51935482       4.44522381      24.45721626
C      -13.56883812       2.56875205      23.10452652
C      -13.87313461       5.71478891      27.60308456
C      -10.03157902       6.50925779      27.64157677
C       -9.71390247       3.64357972      23.62530899
C      -13.01216698       2.25317287      21.84630203
C        4.39627647       5.23555422       0.29675254
C        8.31953526       6.82714081       0.44589710
C       -9.30976868       4.09684467      22.34729767
C      -17.26379776       2.67916012      28.24455261
C      -10.25459290       6.29405880      22.85920715
C       -6.36705112       5.90935278      22.61222649
C      -13.90560722       2.98511028      27.97163963
C       -6.69968653       6.23184299      23.92496109
C      -13.38365364       3.52740359      26.85256004
C      -16.88285255       2.20113444      26.99654388
C      -10.67781448       5.80557442      24.07773209
H      -14.77150440       1.90564454      24.76742172
H      -12.85499954       5.38727427      25.77832413
H       -8.94956017       7.17383909      25.95607948
H      -10.82160282       4.11725235      25.44836807
H      -13.42314529       3.54729342      23.51757240
H      -13.83678818       6.81534433      27.39649582
H      -10.48277664       5.57397985      27.20427513
H       -9.54850483       2.57580042      23.84526062
H        1.92026353       3.65591311       0.02960647
H      -10.48784828       7.30792952      22.59036636
H       -6.66583824       4.98990726      22.19121170
H      -13.93969345       1.87584126      27.99509048
H       -7.30994987       5.51647902      24.54858208
H      -12.77088356       2.95407343      26.17094994
H      -16.17083931       2.66575003      26.33948135
H      -11.12600136       6.52237749      24.81626701
C       -0.06238850       7.35706377       2.72599459
C        0.99495769      10.09713268       5.27315903
C        5.02622461      12.91295052       5.47340918
C        3.83973145      10.07094097       3.07205224
C        0.68812925       8.23511314       2.03573847
C        0.25917032      11.03941536       5.98731756
C        4.28623533      11.96309185       6.09615803
C        4.70931339       9.23630047       2.36995053
C        1.03370273       7.91528988       0.71960682
C       -0.11840802      10.80061531       7.35620403
C        4.01413393      12.21282196       7.46157503
C        5.09552288       9.63529396       1.05994570
C       -2.66399145       8.86249256       7.04387236
C        3.79485273      11.65444851       1.28397417
C        7.87401152      11.40790081       1.33262563
C        1.05404210       8.56719017       7.18216133
C        7.51972008      11.78401375       2.61962390
C        1.33277941       8.82061195       5.83600569
C       -2.35781670       8.49382591       5.76312256
C        3.38238502      11.26754284       2.55166531
H       -0.41297314       7.66734552       3.71675825
H        1.24219215      10.35654545       4.25249529
H        5.27931738      12.69894791       4.44266987
H        3.41858292       9.70857620       4.00384235
H        0.90212870       9.23054886       2.42783475
H       -0.01293918      11.96054268       5.47836781
H        3.90321183      11.04626465       5.61821747
H        4.94337273       8.25404072       2.68694878
H       -2.32108235       9.77632713       7.46378708
H        3.39142275      12.57813740       0.97917867
H        7.49294710      10.53130627       0.86510676
H        1.41537786       7.68945456       7.65864277
H        6.83166981      11.04114914       3.07163095
H        1.90903819       8.08341885       5.35412598
H       -1.63596070       9.09628487       5.21473742
H        2.67253566      11.86648083       3.10493159
C       -4.56244469       7.65764952      10.00629044
C       -3.91982746      10.20566940      12.70042133
C        0.18975928      12.60849667      12.48556900
C       -0.58332342      10.18658543      10.03998756
C       -3.74855971       8.46435356       9.21958923
C       -4.60371256      11.06909847      13.48165131
C       -0.45546710      11.77061176      13.36279297
C        0.07560798       9.29484940       9.27879238
C       -3.46759963       8.06122971       7.91406488
C       -4.88040733      10.87093067      14.84982586
C       -0.75965029      12.16040993      14.66845226
C        0.28092724       9.54232979       7.90595675
C       -7.63869476       9.03060150      14.55353832
C       -0.77080703      11.73615074       8.19732094
C        3.27050591      11.29258156       8.23188686
C       -3.61439133       8.76057053      14.62001228
C        2.94957995      11.50340557       9.55335999
C       -3.37730789       9.03718281      13.32251930
C       -7.22839212       8.62177467      13.30531311
C       -1.03012574      11.42224884       9.50295162
H       -4.87519979       8.00131226      11.00073624
H       -3.73522115      10.40427208      11.61977005
H        0.54194087      12.16754627      11.53324509
H       -0.91539633       9.93729305      11.00783730
H       -3.45001698       9.42902660       9.56843758
H       -4.87713575      12.01937580      13.07817554
H       -0.72153139      10.81803513      13.00250053
H        0.22441407       8.28549767       9.69958401
H       -7.41831112       9.97197056      14.95785999
H       -1.13060582      12.69015884       7.88071013
H        2.95602512      10.30139542       7.79830933
H       -3.11089945       7.89458942      15.04939651
H        2.33157516      10.75219154      10.06255817
H       -2.70015144       8.36984920      12.73751068
H       -6.62247324       9.21888733      12.66886902
H       -1.56355965      12.13090801      10.17827892
C       -9.42897224       7.58423281      17.51308060
C       -8.31587791      10.50574493      19.88474655
C       -4.51540852      13.00417519      19.75949860
C       -5.38366318      10.18452549      17.56833267
C       -8.78865623       8.51788521      16.68224907
C       -9.06454563      11.29452705      20.71313477
C       -5.27830076      12.20901775      20.55008888
C       -4.53726339       9.39199066      16.81332016
C       -8.45882320       8.19624329      15.35171318
C       -9.37948513      10.90543842      22.04537010
C       -5.52587128      12.47246170      21.93882179
C       -4.33087873       9.68695259      15.42920971
C      -12.14915085       8.95457268      21.52990723
C       -5.60162830      11.73665810      15.64119625
C       -1.42562485      11.33332062      15.59894848
C       -8.14378166       8.87576103      21.59554100
C       -1.79256880      11.77524662      16.82753372
C       -7.86326361       9.23311520      20.31187630
C      -11.83997631       8.62688065      20.24453163
C       -5.87444830      11.39004517      16.97739792
H       -9.73458481       7.96508980      18.45833588
H       -8.17702484      10.89393044      18.91331100
H       -4.22199583      12.72923088      18.74170685
H       -5.63648319       9.96868706      18.59156609
H       -8.48567772       9.54002476      17.06230164
H       -9.47189903      12.18704700      20.29129982
H       -5.70435286      11.30006981      20.10643196
H       -4.12907839       8.44311905      17.17515373
H      -11.83844852       9.89997959      21.95815849
H       -6.02533770      12.66872406      15.26575756
H       -1.79951453      10.41509628      15.15804291
H       -7.88628864       7.87237406      21.94937134
H       -2.31795788      11.17447090      17.50807762
H       -7.47358751       8.58685875      19.56393433
H      -11.29919147       9.35721397      19.69375038
H       -6.48688793      12.07728672      17.53539467
C      -14.22680855       7.47957420      24.28483200
C      -13.03363419      10.48567677      26.97395706
C       -8.94313335      12.76971149      26.94932556
C       -9.87913036      10.01239777      24.62116432
C      -13.40754890       8.33721924      23.56433296
C      -13.84915543      11.24029160      27.74524117
C       -9.62678242      11.88454437      27.72546387
C       -9.05207539       9.31417274      23.83207130
C      -12.98690319       8.03308296      22.26165962
C        4.68096638      10.87552357       0.56791931
C        8.69976425      12.23904705       0.49013200
C       -8.83018589       9.71823692      22.48900223
C      -16.95306778       8.81936169      28.48098373
C      -10.26477718      11.69645596      22.91247368
C       -6.31133556      11.60934925      22.72967529
C        5.86748695       8.85552216       0.20220770
C       -6.59235144      11.96979141      24.03058243
C      -12.54662609       9.28243256      27.50370598
C      -16.63190460       8.53041172      27.22301674
C      -10.45631790      11.22974491      24.20770645
H      -14.56137657       7.79173946      25.28333855
H      -12.76524735      10.71568203      25.96777534
H       -8.67406082      12.54922390      25.96816063
H      -10.16931725       9.63552952      25.62085342
H      -13.11595821       9.26007366      23.98906136
H      -14.37056923      12.08583641      27.28770256
H       -9.83075714      10.85806942      27.33154106
H       -8.73336411       8.34136581      24.15481758
H        2.12754679       9.77194023       0.42950773
H      -10.59324837      12.60785866      22.46797562
H       -6.59442234      10.64638996      22.36909103
H        6.24178123       7.93317461       0.68908066
H       -7.15144968      11.30576515      24.72832680
H      -12.00346279       8.56119919      26.85127640
H      -15.97670174       9.22616005      26.73368454
H      -11.06043148      11.81448841      24.90224457
C        0.17885372      13.18185997       3.00691128
C        1.06006336      15.53398132       5.48038340
C        4.91180515      18.14210129       5.37960339
C        3.96131372      15.61719131       2.88662171
C        0.88359129      13.95948029       2.11613727
C        0.23153634      16.43223763       6.13005352
C        4.27483845      17.28273964       6.21407223
C        4.81962919      14.80744743       2.17401266
C        1.11340725      13.58196449       0.78508312
C       -0.02501106      16.24924088       7.49066830
C        3.98171401      17.69529533       7.50531721
C        5.11081934      15.10529137       0.85650516
C       -2.85740566      14.28113461       7.22152090
C        3.74535036      17.13294792       0.99266541
C        7.87117720      16.89517975       1.34836292
C        1.28018630      14.16863441       7.45437002
C        7.54216433      17.20102310       2.62963390
C        1.62832212      14.40876675       6.12652683
C       -2.68610263      14.01868820       5.89674091
C        3.48769879      16.80974007       2.30147886
H        0.07882318      13.59958553       4.02588844
H        1.48611808      15.80301857       4.50181532
H        5.12224722      17.91669655       4.32987404
H        3.76070070      15.28748512       3.89383101
H        1.39707756      14.82636166       2.41126227
H        0.00029593      17.39311790       5.65934277
H        3.98585820      16.27909660       5.96378040
H        5.25936651      13.95414352       2.63053632
H       -2.33172870      15.11533546       7.63981438
H        3.39741182      18.10239792       0.51419711
H        7.61160660      15.95482922       0.93318760
H        1.64343083      13.27779198       7.98017359
H        6.84456301      16.64819717       3.21771932
H        2.30597043      13.76640701       5.63973427
H       -2.06470585      14.64676189       5.31815004
H        2.87181997      17.52632904       2.84746099
C       -4.70357418      13.02039719      10.22059631
C       -3.78652096      15.80860710      12.49779320
C        0.23773266      18.33905411      12.63008118
C       -0.74029821      15.66338062      10.16134644
C       -3.90890622      13.74573135       9.41494465
C       -4.45225143      16.69246292      13.28498173
C       -0.57663000      17.48846817      13.38439465
C        0.00619728      14.79019737       9.46130371
C       -3.64692521      13.41888809       8.07165432
C       -4.70108747      16.39585114      14.63339996
C       -0.93157482      17.73912621      14.73009014
C        0.42652500      15.03470802       8.10837841
C       -7.44502306      14.41034889      14.58069420
C       -0.84010434      17.14513779       8.19218254
C        3.31004763      16.85204506       8.38304138
C       -3.54384828      14.23108387      14.26650524
C        3.07169223      17.17039680       9.69514084
C       -3.41749549      14.55818272      12.91380405
C       -7.12034988      13.94598770      13.29608727
C       -1.20767343      16.83247566       9.46805668
H       -4.91238070      13.38711548      11.25044632
H       -3.46420670      16.11669922      11.52635956
H        0.44079527      17.96536446      11.63469601
H       -0.93164313      15.42917824      11.16175461
H       -3.40055275      14.66140366       9.69735622
H       -4.75961590      17.65464211      12.93553257
H       -1.02731383      16.55222511      12.92989731
H        0.23457251      13.81909466       9.93228912
H       -7.03449631      15.33192635      15.12555790
H       -1.13059545      18.10190582       7.78254938
H        3.01890826      15.90271664       7.96597099
H       -3.15114760      13.34864712      14.69107437
H        2.42934990      16.48419380      10.25976372
H       -2.90037942      13.82943916      12.29612446
H       -6.46554089      14.53895664      12.69022465
H       -1.95237100      17.43637085       9.97777081
C       -9.54282665      13.05756855      17.42029381
C       -8.41079521      16.02699852      19.68391228
C       -4.43765497      18.40732193      19.75736237
C       -5.19334555      15.64508820      17.26025772
C       -8.70189667      13.83470726      16.70336723
C       -9.32141304      16.75868225      20.46725464
C       -5.19247818      17.53396034      20.51318550
C       -4.47937012      14.74493885      16.52999306
C       -8.37252140      13.58616829      15.33927727
C       -9.51342106      16.35807037      21.76550484
C       -5.56092787      17.98237801      21.80704117
C       -4.27816248      15.10677910      15.12148094
C      -12.17741013      14.43025970      21.59498596
C       -5.50322628      17.22367096      15.48389339
C       -1.61994100      16.85614014      15.58458424
C       -8.26679516      14.31417179      21.39291573
C       -1.98247278      17.14581299      16.90880966
C       -7.99001694      14.75529099      20.12702751
C      -11.76797009      14.04056454      20.34019279
C       -5.74931765      16.81950760      16.73024940
H       -9.83989334      13.23131847      18.48897362
H       -8.25290871      16.43772316      18.72469711
H       -4.13055611      18.09917831      18.75078011
H       -5.29482889      15.48040199      18.30230331
H       -8.18833733      14.70116138      17.16843224
H       -9.74803829      17.69471169      20.15572739
H       -5.50564051      16.53506470      20.15597153
H       -4.21962309      13.76202011      16.86589813
H      -11.76570320      15.33599758      21.98717690
H       -5.98494005      18.10822296      15.11189938
H       -1.85514307      15.86769390      15.20544910
H       -7.87862778      13.38580132      21.81138992
H       -2.45026684      16.34952164      17.45005226
H       -7.44732141      14.15797234      19.42498016
H      -11.03423214      14.64680672      19.79611015
H       -6.41233492      17.39165115      17.34708214
C      -13.93122482      13.13702011      24.57754517
C      -13.10116291      15.75475883      26.68602753
C       -9.18396378      18.25424385      26.91425896
C       -9.91328144      15.61090374      24.49251938
C      -13.18124962      13.94402790      23.79921532
C      -13.89004898      16.57802010      27.41470528
C       -9.91538715      17.41425323      27.72389793
C       -9.16228962      14.82243633      23.66075325
C      -12.94830322      13.64906979      22.42651176
C        4.62878895      16.29071999       0.25377965
C        8.62522125      17.80235863       0.50631940
C       -9.00724411      15.15399933      22.28916550
C      -16.90485382      14.43665504      28.44632339
C      -10.25906086      17.15341187      22.70722580
C       -6.34130287      17.18160629      22.64854431
C        5.94598579      14.25733185       0.06130339
C       -6.67423344      17.60264778      23.92789459
C      -12.54086876      14.61003113      27.29816818
C      -16.56645966      13.90353775      27.21756744
C      -10.41401386      16.83809280      23.99075317
H      -14.21620655      13.41234016      25.59490013
H      -12.76883125      16.09225655      25.70007133
H       -8.95386124      17.92975235      25.91418457
H       -9.95779800      15.43418121      25.53061104
H      -12.69309330      14.80348587      24.17727852
H      -14.23935795      17.55534744      27.11189461
H      -10.26022148      16.45720291      27.39885521
H       -8.54185772      14.00607681      24.01705170
H        2.15779138      15.40852165       0.31223121
H      -10.66487789      18.04703522      22.26150513
H       -6.73873043      16.33158684      22.11393547
H        6.36723852      13.39113426       0.48307401
H       -7.36395884      16.94955063      24.48755264
H      -11.86810684      13.97803211      26.71654511
H      -15.98652744      14.50332165      26.50497055
H      -10.97252941      17.52612305      24.65559387
C       -0.04607136      18.44511604       2.93751240
C        0.90883887      21.24105835       5.56324911
C        4.33564234      23.75230789       5.20065928
C        3.77434635      20.99750900       2.99922132
C        0.69886011      19.30488014       2.18154383
C        0.02593611      22.03631020       6.22416735
C        3.80737567      22.79933929       6.04137039
C        4.57053185      20.19710350       2.26961136
C        1.09394789      18.89367676       0.87482327
C       -0.31316963      21.83933830       7.60409307
C        3.41683125      23.26873589       7.34494638
C        5.00243998      20.55804634       0.93938130
C       -2.85893416      19.76187325       7.34244967
C        3.71647334      22.63338852       1.27746618
C        7.66278982      22.52976418       1.12410605
C        1.02551901      19.79849815       7.43739653
C        7.10904789      22.93740654       2.30755448
C        1.43333638      20.05357933       6.18685293
C       -2.54355955      19.39572334       6.06553268
C        3.34172153      22.25069237       2.52522731
H       -0.39752850      18.72517395       3.93364596
H        1.13221264      21.46144295       4.52835798
H        4.83108711      23.36387062       4.29519796
H        3.36977029      20.55243111       3.89904499
H        0.94339567      20.27052689       2.57358503
H       -0.36623755      22.86276817       5.64765549
H        3.76047969      21.70804787       5.72179651
H        4.85726976      19.16772461       2.60505486
H       -2.52610111      20.68053436       7.79645777
H        3.50042057      23.64006805       0.98674208
H        7.54316425      21.51680565       0.82008988
H        1.32315731      18.84495926       7.84545469
H        6.47556305      22.25072098       2.90889597
H        2.07013965      19.39585495       5.61049318
H       -2.04204106      20.07016563       5.34757614
H        2.71575928      22.85593224       3.21787739
C       -4.89079571      18.61640167      10.25839520
C       -3.77800512      21.19963264      12.88076687
C        0.02287037      23.38426208      12.38093185
C       -1.06768346      21.21529388      10.19691372
C       -4.03782082      19.36812019       9.50512695
C       -4.61189365      22.08129120      13.54153061
C       -0.72352898      22.68892479      13.31998539
C       -0.13360095      20.40002441       9.55207729
C       -3.71254849      18.99422646       8.15799999
C       -5.00265884      21.82204628      14.87959957
C       -1.02313185      23.28591156      14.58717728
C        0.24468885      20.67917061       8.20991802
C       -7.68355608      19.92045975      14.38453102
C       -1.23372960      22.67236519       8.28880310
C        2.96736336      22.31388474       8.31981850
C       -3.64193034      19.75885582      14.78404427
C        2.63904643      22.67365456       9.56647301
C       -3.31158543      20.02533150      13.48901558
C       -7.42094707      19.58419800      13.05800629
C       -1.64407456      22.33845901       9.53678799
H       -5.10141420      18.87525558      11.28750706
H       -3.54078126      21.32986450      11.79473972
H        0.32428238      22.86373520      11.51398373
H       -1.49032128      20.92194939      11.15054607
H       -3.52417660      20.25076866       9.90639400
H       -5.02153635      22.91240311      12.96756935
H       -1.13790333      21.71714211      13.07743740
H        0.34163782      19.54491997      10.02644157
H       -7.39467001      20.88075256      14.81356621
H       -1.62398040      23.52029800       7.73856211
H        2.76519012      21.26457405       8.08190727
H       -3.36055708      18.86707497      15.32046986
H        2.39043713      21.88292694      10.21297264
H       -2.60346341      19.37269974      12.94074726
H       -6.86040306      20.25198174      12.39745235
H       -2.44759750      22.93566895       9.99460506
C       -9.44377613      18.43800545      17.35406303
C       -8.58878040      21.31060791      19.84308243
C       -4.50881386      23.81403351      19.80719948
C       -5.85669613      21.08114433      17.42385483
C       -8.77882481      19.36329079      16.56874847
C       -9.30120182      22.21824837      20.53512764
C       -5.32552576      23.04688072      20.60369492
C       -4.95261431      20.28427887      16.77437019
C       -8.37754536      19.01298523      15.25093937
C       -9.64924431      22.00222015      21.86449051
C       -5.66644192      23.48033905      21.91451263
C       -4.51516867      20.60722733      15.47536850
C      -12.12325859      19.96673393      21.67832756
C       -5.90983534      22.65201950      15.58485126
C       -1.84700084      22.64251709      15.53036118
C       -8.38935852      19.92282677      21.80377388
C       -2.07463145      23.16958237      16.74359512
C       -8.10604858      20.14222717      20.50022888
C      -11.74446011      19.58663940      20.39891815
C       -6.32973194      22.27504539      16.80917549
H       -9.77870178      18.74186325      18.32436180
H       -8.31162548      21.45029449      18.84142685
H       -4.25282192      23.50536728      18.82741547
H       -6.10463524      20.78928375      18.44189644
H       -8.47067928      20.34004021      16.98581314
H       -9.70347309      23.15665054      20.12464714
H       -5.57168150      22.01797104      20.34500885
H       -4.61053801      19.34761429      17.25766373
H      -11.77475262      20.96254921      21.92292404
H       -6.22202969      23.59532738      15.06824207
H       -2.17663455      21.66276550      15.30081940
H       -8.13171959      18.99772263      22.26953125
H       -2.57245064      22.55975151      17.48162079
H       -7.51417351      19.42741013      19.91312027
H      -11.14171982      20.21343803      19.76828384
H       -7.13637400      22.85435104      17.26919746
C      -14.11887836      18.71879196      24.54466629
C      -13.07994270      21.35314178      26.91999817
C       -9.12711811      24.02751160      26.86636543
C      -10.40257454      21.46042252      24.47798347
C      -13.35248947      19.54817963      23.77702713
C      -13.92769146      22.13004494      27.62068176
C       -9.84559441      23.11996841      27.57340622
C       -9.59521389      20.57590485      23.82846832
C      -12.93273926      19.17537117      22.50114250
C        4.51718426      21.74596405       0.45317328
C        8.46713161      23.39269447       0.38119453
C       -9.23829651      20.82109833      22.51063728
C        1.84482861      19.78121948       0.05002452
C      -10.35695934      22.95952797      22.64394569
C       -6.51974964      22.68226051      22.69974899
C        5.83264637      19.73008919       0.18584521
C       -6.86748075      23.02343369      23.96000671
C      -12.61253166      20.12369347      27.48111153
C      -16.49262810      19.44036293      27.34380341
C      -10.77950478      22.69789886      23.91970444
H      -14.46303749      19.05212784      25.55232620
H      -12.76110458      21.54644775      25.93347740
H       -8.73424721      23.79091072      25.86471367
H      -10.80907631      21.14272881      25.44035721
H      -13.16913033      20.56834602      24.13778496
H      -14.31832504      23.07827377      27.19949913
H       -9.91424656      22.15921783      27.15277863
H       -9.27412319      19.70119667      24.29171753
H        2.05470657      20.77147865       0.51613843
H      -10.57886505      23.92651749      22.18722534
H       -6.86974907      21.75820351      22.29625702
H        6.15145350      18.74123001       0.67045355
H       -7.52900171      22.33530045      24.49999428
H      -11.92850208      19.53634453      26.84027863
H      -15.77455330      20.10409737      26.83367348
H      -11.40581703      23.37071991      24.43296433
C        7.44535446      24.26417732       2.80749297
C        6.95618629      27.13607025       5.16752720
C       13.03723240       2.15596080       5.41814232
C       11.48544693      27.15130043       3.32984924
C        8.24609661      25.13498116       2.11928320
C        6.12479544      27.63186264       6.18132162
C       12.48683071       1.06745684       6.08224010
C       12.27466583      26.24965477       2.67550349
C        8.73697853      24.73002052       0.84710228
C        6.31346989      27.13149834       7.48347998
C       12.23964787       1.25680578       7.47309208
C       12.61343765      26.48671913       1.33262825
C        3.83181477      25.51230621       6.79202890
C       11.24118042      28.57502747       1.41091740
C       15.77294254       0.64979327       1.27535689
C        8.17466545      25.75210953       6.72177219
C       15.27147484       1.15972519       2.42227745
C        8.01471138      26.23313713       5.43723202
C        4.32617426      25.12846184       5.55795527
C       10.97954655      28.33648682       2.71914506
H        6.92697191      24.52262497       3.77015853
H        6.82180929      27.50585175       4.14990187
H       13.28164101       2.12785721       4.34957790
H       11.25311661      26.99124718       4.40407276
H        8.40381050      26.11520958       2.42321205
H        5.46324587      28.48716736       5.99269104
H       12.29412174       0.14971673       5.58356047
H       12.72074032      25.40940475       3.22133136
H        3.76797366      26.58049583       7.07853031
H       10.88866520      29.49409676       0.87537187
H       15.43266296      58.62602615       0.86799771
H        8.88335419      24.98498535       6.93376112
H       14.42092991       0.73058343       2.94561100
H        8.59524250      25.84791374       4.64208651
H        4.63957167      25.90733910       4.87849188
H       10.49579430      28.99857140       3.38229084
C        2.91322064      24.00635147      10.03012276
C        3.71540952      26.30411148      12.75755882
C        8.65651131       2.63306451      12.10058594
C        6.83898592      26.29197121      10.12775421
C        3.37911987      24.94845963       9.14432144
C        3.00585818      27.18435097      13.50710201
C        7.77679968       1.72004974      12.58169842
C        7.51899528      25.70064163       9.09930706
C        3.55366683      24.60663986       7.75983238
C        2.74207187      27.00579643      14.88865757
C        7.20698595       1.88134563      13.87063122
C        7.33824015      26.17891693       7.76286125
C        0.10339891      25.30502701      13.90111732
C        5.59098196      27.69997025       8.61089897
C       11.71131229       0.14837699       8.27739525
C        4.13552952      25.03726006      14.73871422
C       11.55313683       0.28426859       9.62271786
C        4.26666117      25.20183754      13.39657021
C        0.40410623      24.73626518      12.64844036
C        5.88076210      27.26277733       9.85539722
H        2.68792963      24.28796577      11.07835293
H        3.84790754      26.48200989      11.71214676
H        9.25133324       2.34884500      11.18965817
H        6.84108162      25.80008698      11.11546421
H        3.48790836      25.99426079       9.45285225
H        2.46046209      27.99488640      13.02042007
H        7.60713625       0.75651956      12.06414032
H        8.27426147      24.92255783       9.27526474
H        0.42116439      26.33096123      14.03221130
H        4.79403496      28.41042900       8.36575031
H       11.63596344      58.15008545       7.76524115
H        4.54057264      24.16664124      15.19124794
H       11.34678078      58.37745285      10.26922417
H        4.74686623      24.44161224      12.80166245
H        0.91998124      25.36580658      11.85958195
H        5.40456152      27.69465065      10.73626328
C       -1.64470851      24.45927811      17.03124619
C       -0.74061698      26.97766113      19.51449776
C        3.14728332       1.11644351      20.19470024
C        2.34204674      26.49802399      17.61677551
C       -0.91787660      25.19165421      16.11664581
C       -1.28611100      27.83993149      20.44799423
C        3.07403851       0.17514224      21.18661880
C        3.12833118      25.66337967      16.86928177
C       -0.50897872      24.55255508      14.89995956
C       -1.38907170      27.48792076      21.75217056
C        2.70663261       0.58916003      22.48799515
C        3.34662628      25.88322639      15.50452709
C       -4.34044123      25.50516319      21.52460861
C        1.80994594      27.74456978      15.65594482
C        6.51828337       0.86298430      14.58369827
C       -0.28789225      25.34517670      21.21398926
C        6.17719889       0.99757874      15.86794567
C       -0.23040342      25.72082520      19.89621162
C       -3.95913458      25.04229546      20.30197144
C        1.65214157      27.56449318      17.00716972
H       -1.90604198      24.87821770      17.97538948
H       -0.57729471      27.28054428      18.47612953
H        3.35868716       0.85221052      19.15626144
H        2.03156614      26.23723221      18.66028786
H       -0.65797508      26.19186020      16.42306709
H       -1.62971103      28.82275391      20.08692932
H        3.17089891      58.04781723      20.93926239
H        3.36956835      24.63081551      17.25726318
H       -3.93256831      26.38113403      21.97570038
H        1.22561979      28.52749252      15.12799835
H        6.18038368      58.84220123      14.08033085
H        0.06070037      24.38759232      21.55583954
H        5.56772423       0.31904742      16.32577324
H        0.19839539      25.01150322      19.13378716
H       -3.28366470      25.58287811      19.70406342
H        1.03655827      28.32503891      17.51021385
C       -6.34889746      24.25496101      24.48299599
C       -5.47541094      26.91802216      27.23327255
C       -0.66289318       1.56677127      27.12705612
C       -1.70121491      26.53858757      24.42229652
C       -5.60398531      25.10762978      23.71554184
C       -6.34014368      27.83213997      27.78200722
C       -1.44567335       0.77303034      27.95736694
C       -1.10998809      25.76401711      23.48380280
C       -5.19240475      24.74517632      22.38688660
C       12.02865219      27.57721329       0.65053344
C       16.68395996       1.36005485       0.48792708
C       -0.92708391      26.18949318      22.12246704
C        9.40104198      25.66760826       0.03893301
C       -1.99335635      28.26888657      22.80440521
C        2.45918536      58.49193573      23.45539474
C       13.37347412      25.51585197       0.62745285
C        2.32613897      58.85546875      24.76563454
C       -4.99404907      25.75698471      27.90992355
C       -8.83061504      25.33412361      27.37578392
C       -2.17369890      27.81073380      24.04884529
H       -6.56794357      24.48074150      25.53565788
H       -5.12676096      27.05617332      26.21608734
H       -0.16490760       1.18079889      26.20202065
H       -1.89675498      26.14142036      25.42713165
H       -5.24024057      26.06839561      24.14167023
H       -6.81212521      28.64513588      27.21582603
H       -1.63920295      58.71262741      27.61017036
H       -0.77891862      24.76426125      23.62018776
H        9.48518753      26.67753983       0.38033724
H       -2.57502627      29.19416428      22.50716782
H        2.59355807      57.47426605      23.18318748
H       13.66495895      24.63291168       1.15840483
H        2.30477095      58.08049011      25.56078911
H       -4.38445950      25.02358055      27.36241150
H       -8.20395756      25.97405243      26.81432533
H       -2.71759486      28.34251785      24.73288536
C        7.25903606       2.26686311       2.75132608
C        8.92690468       4.54418564       5.23416138
C       12.93287754       7.50023508       5.49197769
C       11.83170795       4.37598467       2.88920355
C        8.29628658       2.86545420       2.13639235
C        8.05753422       5.31194878       5.96057320
C       12.06694031       6.61829042       6.04105663
C       12.54337978       3.53103328       2.11380196
C        8.65235138       2.54414034       0.75321627
C        7.57740545       4.86412239       7.20224810
C       11.55773163       6.82402802       7.32850027
C       12.89400673       3.87177348       0.79666090
C        4.61516380       2.98737168       6.91562748
C       11.72770500       5.99819803       1.09326625
C       15.66955376       5.89302921       1.10312676
C        9.02410603       2.92170906       7.00555706
C       15.30249119       6.19101000       2.35724473
C        9.41750717       3.31593585       5.73913479
C        4.68784142       2.57808137       5.64739418
C       11.42037392       5.63550043       2.37327552
H        7.14722633       2.40003920       3.84584618
H        9.19102955       4.87910557       4.21517611
H       13.18172073       7.39681911       4.45251799
H       11.45113182       4.06631041       3.87645054
H        8.95825577       3.54964709       2.64353132
H        7.67458296       6.23634624       5.52061272
H       11.69957066       5.77501965       5.50573874
H       12.89026928       2.53047442       2.39097142
H        4.98997784       3.94855833       7.29593086
H       11.27236843       6.88067961       0.67249125
H       15.37043190       4.99876928       0.57808322
H        9.44518852       1.97741175       7.37847662
H       14.70248222       5.58500051       2.97189069
H       10.06339359       2.61887169       5.21157026
H        5.25272322       3.21218228       4.93620539
H       10.72205162       6.24203777       2.98091316
C        2.57449770       2.05079985       9.96473694
C        4.14116812       4.35951519      12.41553402
C        7.71545982       7.47727251      12.41670227
C        6.83590603       4.02558899       9.79943180
C        3.46248317       2.67854595       9.14380550
C        3.46145201       5.22949934      13.25316906
C        6.86605692       6.76512384      13.22667980
C        7.63615608       3.19409060       9.00468445
C        3.83547807       2.23881531       7.82698441
C        3.11861205       4.77687645      14.58833218
C        6.78704739       7.02239895      14.60869503
C        8.06835365       3.64133453       7.71995163
C        0.22191128       3.41963887      14.18010712
C        6.79530573       5.68573284       8.05697346
C       10.75224876       5.82231665       7.99614811
C        3.99836993       2.59219432      14.02498055
C       10.32768059       6.00827551       9.27784729
C        4.41878653       3.03729296      12.82816887
C        0.48090103       3.09113550      12.89499378
C        6.47055864       5.31786299       9.33518791
H        2.36840677       2.40135312      10.93847084
H        4.33025074       4.76093483      11.41211987
H        7.80719090       7.13872576      11.42267990
H        6.52389145       3.64203024      10.75024796
H        3.89054656       3.59024692       9.46380901
H        3.08587861       6.23668289      12.97164059
H        6.32756090       5.92809963      12.85237885
H        7.89921713       2.15468073       9.31910801
H        0.67888629       4.29254484      14.68745136
H        6.59520292       6.68627691       7.72083473
H       10.47206879       4.90894032       7.47194338
H        4.21766424       1.59635794      14.31643486
H        9.63124275       5.31933689       9.74290943
H        4.93893099       2.36324883      12.16597271
H        1.25129581       3.65090895      12.32071781
H        5.98415947       6.02521706       9.98408127
C       -1.83895254       2.13576674      16.98964119
C       -0.80739254       4.60850382      19.59975052
C        3.37427425       6.73401260      19.81787109
C        2.24790597       3.80309248      17.08434677
C       -0.92526472       2.92388940      16.31177902
C       -1.41883790       5.49972820      20.49068642
C        2.55345702       6.13476992      20.67483330
C        2.90246344       2.98867869      16.19809914
C       -0.60432452       2.64967775      14.97918224
C       -1.72828472       5.06102943      21.78823090
C        2.30830908       6.67604303      21.97303581
C        3.39809895       3.45523977      14.96069622
C       -4.59705400       3.10411787      21.54599762
C        2.43626237       5.59229231      15.51200294
C        6.04074764       6.23047829      15.50107193
C       -0.80020607       2.87115645      21.33245850
C        6.04513836       6.42523384      16.83478546
C       -0.43180227       3.30173063      20.04556847
C       -4.50371742       2.90300918      20.18205833
C        2.01735258       5.15823746      16.74770164
H       -2.00495195       2.29468560      18.05704498
H       -0.59193313       4.96628332      18.58930016
H        3.59741855       6.25097752      18.88027573
H        1.89447033       3.38417387      18.00834465
H       -0.40681115       3.76517749      16.80134392
H       -1.74625432       6.47839022      20.16933060
H        2.11296749       5.15952921      20.39807892
H        3.10325766       1.95436227      16.51935768
H       -3.96684408       3.89867783      21.95853615
H        2.24640942       6.62494707      15.24295616
H        5.59177113       5.31429052      15.14361191
H       -0.58426124       1.85152805      21.60079384
H        5.42880249       5.77855110      17.41347122
H       -0.05280028       2.55587578      19.43640327
H       -3.85608697       3.44788146      19.54205322
H        1.44775486       5.87407255      17.37195969
C       -6.45442677       1.84467220      24.43697357
C       -5.06438017       4.62526512      26.80647469
C       -1.21458232       7.52307129      26.88576508
C       -2.28128791       4.25935459      24.48062897
C       -5.57315636       2.58232045      23.69520569
C       -5.98018599       5.39429045      27.45006752
C       -2.03034234       6.63354826      27.53211021
C       -1.65936399       3.37210774      23.61285210
C       -5.46557188       2.33032298      22.36420059
C       12.44994354       5.07109642       0.27050394
C       16.39856148       6.85028982       0.36505610
C       -1.42576826       3.77655244      22.25873375
C        9.79477692       3.12451315       0.15647464
C       -2.37583017       5.92773962      22.69388008
C        1.43848705       5.93962479      22.82837868
C       -5.14486408       3.02340460      28.47171783
C        1.16871166       6.42773008      24.06892586
C       -4.68200684       3.36755538      27.28376579
C       -8.63547325       2.72188926      27.42308998
C       -2.65433383       5.55326939      23.99078178
H       -6.67269993       2.09918904      25.45726585
H       -4.76306963       4.88551617      25.78938484
H       -0.85038930       7.27513504      25.92901421
H       -2.53408003       3.90932608      25.48525047
H       -5.06670141       3.40766025      24.15344238
H       -6.30919218       6.38165665      27.10791588
H       -2.36674690       5.70652580      27.09118652
H       -1.23025584       2.49071097      24.05956078
H       10.33673000       3.93710589       0.68327194
H       -2.79523182       6.89961243      22.28597641
H        1.03297865       5.05835819      22.45009041
H       14.01182556       2.11516476       0.38063058
H        0.52430791       5.84189224      24.77435493
H       -4.00678015       2.74637604      26.69407272
H       -7.73301744       3.16374183      26.97848320
H       -3.13739562       6.19538975      24.70545578
C        7.66072750       7.51079130       3.11009479
C        8.84727383      10.09808826       5.33341503
C       12.85514355      12.90122509       5.61689138
C       11.79636574      10.14667606       3.05175662
C        8.49662018       8.30885506       2.42856169
C        8.18669796      11.00637054       6.09238529
C       12.05478859      12.03444195       6.32443237
C       12.48405361       9.22900486       2.33970189
C        8.86290455       7.98854017       1.08704388
C        7.73274946      10.62143230       7.42258787
C       11.75762272      12.31154060       7.69039774
C       12.94017029       9.60021687       0.99163365
C        4.91134405       8.63564491       7.26542473
C       11.75363064      11.69727898       1.18865931
C       15.80204105      11.51483727       1.38967347
C        8.78988266       8.44867229       7.05780935
C       15.37378597      11.92589569       2.68425536
C        9.21833515       8.78941154       5.81050158
C        5.32147837       8.26315975       6.05489826
C       11.46974850      11.39867687       2.50039697
H        7.29492664       7.83489561       4.08691311
H        9.22592926      10.43621254       4.35070515
H       13.10767555      12.67831612       4.61752748
H       11.54912663       9.88821125       4.04950333
H        8.93894672       9.23845863       2.86096787
H        8.00209999      12.01910686       5.80167341
H       11.69644547      11.15027142       5.89030266
H       12.85121918       8.30691719       2.79466152
H        5.33657408       9.51949692       7.76127243
H       11.54936314      12.69148827       0.88170981
H       15.46418095      10.57496738       1.06273627
H        8.95415401       7.42893267       7.39737368
H       14.77024841      11.28417301       3.27569127
H        9.73616219       8.04752350       5.19764709
H        6.12089109       8.76399899       5.53397751
H       10.95360470      12.19975090       3.09878492
C        2.91057563       7.13162184      10.04359913
C        3.82760096      10.32022762      12.77946663
C        8.00775814      12.47538471      12.69960594
C        7.16587591       9.87767124      10.05370426
C        3.67785907       8.01806831       9.34995461
C        3.36529469      11.22627068      13.65692139
C        7.41578436      11.65604877      13.60806179
C        7.79585505       8.97007656       9.21249199
C        4.04910898       7.77104950       8.00949860
C        3.05870390      10.84152031      15.00449657
C        7.14945936      12.10512257      14.91744709
C        8.06820488       9.33072567       7.89074516
C        0.34455949       8.85697842      14.45594215
C        7.03073883      11.49339294       8.24365139
C       10.82795334      11.45999622       8.37067986
C        4.05716848       8.74595642      14.56841469
C       10.47507763      11.73009777       9.66237164
C        4.24541807       9.05574512      13.22576141
C        0.69530147       8.64551735      13.16245937
C        6.76732492      11.11485767       9.55712318
H        2.57167029       7.28933239      11.04808521
H        4.03535652      10.64177608      11.76801300
H        8.23760700      12.14819908      11.73798466
H        7.05181503       9.62593174      11.14089489
H        3.86646295       8.92478752       9.84800434
H        3.14990687      12.26557732      13.36906052
H        7.10192156      10.69712448      13.30123043
H        8.07370281       7.97619677       9.57894897
H        0.67701119       9.78840160      14.88228607
H        6.76234770      12.44227791       7.79987717
H       10.33911514      10.69126225       7.75956535
H        4.32881117       7.79950333      14.96035290
H        9.83034611      11.03272724      10.18564796
H        4.81113672       8.27664375      12.69559193
H        1.32948101       9.30552483      12.59293842
H        6.06904507      11.71117687      10.15568352
C       -1.65648746       7.37739229      17.21153069
C       -0.35064188      10.15349579      19.71411324
C        3.43513823      12.83758259      19.83828163
C        2.32927442       9.91285229      17.59250069
C       -0.77912772       8.23939037      16.61036873
C       -1.02343893      11.08241272      20.46862793
C        2.74652290      11.97143936      20.62391472
C        3.11855388       9.10989761      16.81828117
C       -0.37089047       7.96763849      15.25667953
C       -1.42959654      10.75983906      21.76666641
C        2.38932872      12.26024342      21.94020462
C        3.40851283       9.58554649      15.48481369
C       -4.35433578       8.86449242      21.62248993
C        2.39341617      11.66967106      15.91788769
C        6.37514162      11.32360458      15.77103996
C       -0.30882046       8.60269547      21.55374908
C        5.97397375      11.78664875      17.02252197
C        0.00836945       8.88647175      20.23276329
C       -3.96826887       8.49976254      20.37231445
C        1.99874437      11.20782661      17.12709236
H       -2.00066638       7.72800255      18.18641472
H       -0.10851774      10.34664154      18.71451378
H        3.94268370      12.49173641      18.89430618
H        2.02920794       9.56362438      18.56067085
H       -0.33279437       9.06919479      17.19578743
H       -1.14196575      12.12392139      20.14861679
H        2.50604582      10.99757767      20.17880058
H        3.36431313       8.14932632      17.08421326
H       -4.03039408       9.79195976      22.11423492
H        2.12077498      12.68201828      15.59926987
H        6.14105368      10.37879658      15.36630821
H       -0.08898791       7.64122725      22.00827789
H        5.41193151      10.99154854      17.53350067
H        0.53282899       8.17578888      19.61050224
H       -3.28557515       9.14901829      19.87847328
H        1.39567113      11.83220768      17.77327156
C       -6.23922253       7.39977121      24.51482201
C       -5.04471779      10.32253742      26.95329285
C       -1.12185729      13.00947666      26.98241615
C       -2.32381845       9.97510052      24.30258369
C       -5.45223618       8.26654720      23.80622673
C       -5.86747026      11.17300129      27.66287041
C       -1.90016377      12.14489460      27.70537949
C       -1.58030164       9.06020451      23.57079697
C       -5.12149429       7.98890638      22.46562767
C       12.52337933      10.80964756       0.41224208
C       16.52546501      12.44540405       0.53249204
C       -1.10011744       9.50850010      22.32223320
C        9.78591919       8.76450539       0.36129698
C       -2.25468993      11.60726166      22.53699684
C        1.61316168      11.38658524      22.73071861
C       13.85129261       8.81116867       0.27389362
C        1.27937710      11.68290043      24.00956726
C       -4.55137348       9.20600319      27.52807617
C       -8.65054417       8.48638439      27.60440636
C       -2.60027432      11.29244518      23.78155899
H       -6.39250422       7.57449675      25.57846642
H       -4.66608477      10.58742619      25.97074509
H       -0.76482147      12.77621365      26.01156998
H       -2.65029693       9.76537895      25.31675339
H       -5.09442949       9.23237801      24.19635582
H       -6.39458847      12.07724571      27.22216797
H       -2.32430005      11.20768356      27.30940247
H       -1.24721503       8.14647388      24.06728172
H       10.09313869       9.67682552       0.89173800
H       -2.53300858      12.50340462      22.02384949
H        1.22188628      10.52135181      22.27542114
H       14.20925045       7.88250637       0.73214841
H        0.76504409      10.95878410      24.61901283
H       -3.79146981       8.55464268      27.04218864
H       -7.95549488       9.12017918      27.06852722
H       -2.98950768      12.03736496      24.46603012
C        7.92433739      13.04437065       3.14588261
C        8.87564850      15.81730461       5.42177153
C       13.13745785      18.12210274       5.41983843
C       11.82702541      15.51020622       2.95518041
C        8.62967873      13.89719677       2.29621863
C        8.15711403      16.63139153       6.32860470
C       12.25479889      17.31581879       6.08411312
C       12.58411217      14.73093128       2.11547017
C        9.04066086      13.55482101       0.99946070
C        7.85989761      16.23478889       7.67666435
C       11.79327011      17.56155586       7.43637228
C       13.04286385      15.22764587       0.88241416
C        5.28188562      14.31566238       7.39269018
C       11.80671215      17.27816772       1.35088348
C       15.83478355      17.03482628       1.34470212
C        9.04524899      14.23173046       7.18475771
C       15.40620327      17.40756989       2.57198048
C        9.32941341      14.56958961       5.93686914
C        5.56772184      14.07174110       6.10173941
C       11.42287636      16.84845924       2.57532597
H        7.64710760      13.36307144       4.13279676
H        9.04043579      16.15493965       4.46036100
H       13.57266712      17.92290497       4.48602819
H       11.51763153      15.04461479       3.91292047
H        8.84512138      14.89964771       2.60003734
H        7.69590807      17.50817680       5.90289259
H       11.88372707      16.41979027       5.65734053
H       12.90631390      13.71981907       2.51329637
H        5.63974571      15.18223667       7.91577721
H       11.49440765      18.22310829       0.94691670
H       15.54923534      16.06619453       0.91378742
H        9.37937737      13.28807163       7.60442638
H       14.81793022      16.72613716       3.16709137
H        9.92741966      13.91038990       5.26102495
H        6.11508083      14.68488216       5.42641401
H       10.76995277      17.43162918       3.17968893
C        3.37970281      12.69831371      10.13972473
C        4.28178835      15.71532154      12.52950001
C        8.31445122      18.24217606      12.60162354
C        7.09946775      15.28662109      10.15377998
C        4.09479189      13.60582924       9.44935417
C        3.43286300      16.58847618      13.22241592
C        7.47919559      17.42550468      13.37068081
C        8.03984737      14.59329605       9.39320183
C        4.40362644      13.39088535       8.09215927
C        3.12899256      16.31890678      14.59101295
C        7.18168879      17.76126289      14.66373348
C        8.27117920      14.98373413       8.09468460
C        0.34573406      14.28525734      14.19811440
C        6.99695730      17.01153564       8.45404625
C       10.89877796      16.78566933       8.13066006
C        4.35807943      14.15135956      14.35538769
C       10.51530552      17.04992294       9.45712566
C        4.70214891      14.49893188      13.10313511
C        0.58336043      13.88767529      12.90989876
C        6.64290667      16.51232529       9.70179939
H        3.26865101      12.83451462      11.22481060
H        4.55736828      16.01659966      11.51977539
H        8.64112473      18.04127502      11.58349037
H        6.82529163      14.88522339      11.10117054
H        4.34393406      14.56563663       9.82018757
H        3.03349328      17.50381088      12.76001167
H        7.19344664      16.48314857      13.00153351
H        8.52913570      13.70791149       9.76810455
H        0.75222164      15.20225906      14.57163620
H        6.60760784      17.94091034       8.07134438
H       10.37975216      15.97003174       7.67425156
H        4.71200848      13.24672508      14.82612991
H        9.78240108      16.44631004      10.02447987
H        5.37161684      13.87585163      12.54863834
H        1.21200359      14.46482658      12.30198479
H        5.96390867      17.03943825      10.37594414
C       -1.32811904      13.06540394      17.24949646
C       -0.46246883      15.86855984      19.74223328
C        3.53041196      18.50872231      19.82056808
C        2.58000278      15.69085217      17.26276588
C       -0.63750935      13.85478497      16.41947365
C       -1.26333845      16.68132591      20.43995285
C        2.66809750      17.66111755      20.50366783
C        3.31669927      14.81021690      16.49136734
C       -0.36065301      13.43531418      15.09355164
C       -1.58879185      16.36970329      21.80907822
C        2.31592202      17.94730568      21.83215141
C        3.66431594      15.09871769      15.15015984
C       -4.28283358      14.52076912      21.61641693
C        2.28867865      17.10083771      15.36000252
C        6.35469341      16.92462158      15.47029114
C       -0.41297337      14.28993320      21.57930565
C        6.03526831      17.27174568      16.72894669
C       -0.03476704      14.62222958      20.30723000
C       -3.90229201      14.14272785      20.35745621
C        1.99043632      16.80823708      16.65390968
H       -1.60869467      13.34589481      18.23732758
H       -0.15442030      16.10235214      18.73552513
H        3.83620000      18.33077431      18.75286674
H        2.37701035      15.47861576      18.28286552
H       -0.28626069      14.83084011      16.77077484
H       -1.65066075      17.60422897      20.02869415
H        2.30446267      16.76295090      19.99556923
H        3.74818635      13.88825417      16.95321083
H       -3.78808808      15.41492939      21.94429398
H        1.80443072      17.94154549      14.90456772
H        6.00306225      16.01778030      14.94336700
H        0.02795188      13.42149162      22.07619858
H        5.47738647      16.59387016      17.39893532
H        0.57796782      13.89878654      19.73904800
H       -3.15665698      14.69288921      19.78735924
H        1.34591711      17.47990227      17.17885208
C       -6.19136143      13.22450352      24.56110382
C       -5.23037529      16.08564758      26.81640434
C       -1.13445771      18.36210442      26.93491554
C       -2.09425831      15.83978844      24.52522278
C       -5.45541477      14.07805157      23.78170395
C       -5.93304491      16.88338852      27.68181229
C       -1.79577982      17.48790169      27.76716995
C       -1.41971397      14.93332386      23.77074623
C       -5.09767532      13.72897530      22.43760681
C       12.59618664      16.46970558       0.46739790
C       16.72410774      17.85375977       0.62152833
C       -1.18767631      15.17274380      22.39510155
C        9.82917023      14.41905689       0.20180684
C       -2.28765965      17.32839394      22.62475586
C        1.48542917      17.06492805      22.64286613
C       13.84484959      14.44108200       0.00512862
C        1.30569577      17.30216599      23.96558571
C       -4.74046087      14.84545040      27.24389076
C       -8.60912323      14.04565239      27.46376228
C       -2.46813440      17.05576324      23.95449066
H       -6.59263229      13.60635948      25.51748657
H       -5.02059078      16.53428078      25.84772682
H       -0.90629762      18.00255966      25.94457436
H       -2.33604002      15.70099354      25.58903694
H       -5.07387495      15.01553249      24.20356369
H       -6.38820267      17.85369492      27.37521362
H       -2.17675519      16.50399208      27.34301758
H       -1.19283962      13.93633842      24.19746780
H       10.27885437      15.27442837       0.65427077
H       -2.68072605      18.18487167      22.11510658
H        1.21576786      16.10462570      22.22505569
H       14.08441067      13.42741489       0.34188297
H        0.73437107      16.62748146      24.54039574
H       -4.17743063      14.25179482      26.51441574
H       -8.07194519      14.73019600      26.81296921
H       -3.08595109      17.73379707      24.56086159
C        7.87154245      18.48867416       3.14464402
C        8.92178249      21.40447426       5.46776915
C       12.25408268      23.19469261       5.73066950
C       11.57793999      21.14259529       3.05260754
C        8.58761311      19.36858940       2.39726210
C        8.08537769      22.18188286       6.22131443
C       11.79368782      22.37540436       6.68688965
C       12.49379921      20.42699051       2.33354306
C        9.01954556      19.02405357       1.07832873
C        7.67527294      21.76297188       7.49611521
C       11.38437557      22.85565376       7.93650961
C       12.90644264      20.82319832       1.01359320
C        5.03797627      19.85169983       7.09604502
C       11.51908398      22.80765915       1.31658888
C       16.04740906      22.52003860       1.03994238
C        8.93580437      19.70698166       7.16044426
C       15.50307369      22.78884697       2.29167843
C        9.37216663      20.13784790       5.91263866
C        5.33317328      19.39610672       5.83754158
C       11.05727386      22.39997673       2.52774858
H        7.49450874      18.82397461       4.13799810
H        9.24003887      21.69152641       4.48380232
H       12.57637215      22.73832893       4.80028296
H       11.19637394      20.77740097       3.98246431
H        8.84309006      20.31086731       2.78777361
H        7.72913122      23.11866760       5.74153328
H       11.91215706      21.29399300       6.58682013
H       12.70459175      19.44920158       2.74416137
H        5.26739073      20.83480072       7.38051510
H       11.01181030      23.72199249       0.93307668
H       15.84533405      21.53429604       0.58312964
H        9.26790428      18.71120453       7.51282835
H       15.04860020      21.95099068       2.83305788
H       10.00981426      19.44548035       5.37650728
H        5.95105362      20.07604980       5.24541664
H       10.29240799      22.84393692       3.01087570
C        3.30544782      18.49592209      10.12696648
C        4.01558685      21.11114883      12.36141300
C        7.82327986      23.56605911      12.38215446
C        7.03696966      20.83145905      10.11982727
C        3.98430061      19.34320259       9.28500080
C        3.29702544      21.98211861      13.10489750
C        7.11906052      22.70534897      13.21112442
C        7.75584745      20.06906319       9.23904514
C        4.30324030      18.95169640       7.98421288
C        2.99352407      21.72316170      14.46570683
C        6.93650246      23.05700111      14.56354141
C        8.10268593      20.52250290       7.95942926
C        0.15690908      19.89754677      14.50024033
C        6.84439945      22.49564743       8.43554974
C       10.92084312      22.01313400       9.00340462
C        4.27076721      19.66205025      14.26932621
C       10.53667641      22.57327652      10.21624374
C        4.57249928      19.95871162      12.96866798
C        0.67727596      19.52354622      13.30955887
C        6.59831810      22.08117485       9.66934204
H        3.01085925      18.83798027      11.11670208
H        4.23383808      21.31851196      11.32013512
H        8.02104473      23.31793976      11.35672474
H        6.73192406      20.38375854      11.10386467
H        4.25217152      20.33347130       9.60610676
H        2.77745581      22.87242508      12.70378017
H        6.79293156      21.74291229      12.91491604
H        8.18028450      19.12763596       9.52870560
H        0.52316338      20.82018471      14.89761448
H        6.37431145      23.41095543       8.08859444
H       10.97232437      20.90445328       8.93179893
H        4.73969603      18.81770134      14.75771999
H       10.32733154      21.96600914      11.05666924
H        5.20983982      19.29039192      12.45044899
H        1.51591516      20.16190529      12.92653751
H        6.04843998      22.75266457      10.34977913
C       -1.66831911      18.40948105      17.42393875
C       -0.63560671      21.37313080      19.73867035
C        3.48879194      23.75687599      19.74186325
C        2.33521032      21.09738159      17.16839027
C       -1.05483222      19.33880043      16.57856941
C       -1.32551742      22.23888016      20.52901649
C        2.72356296      22.92101097      20.52554321
C        3.03101206      20.16307831      16.37763596
C       -0.66052914      19.00834656      15.26140118
C       -1.56490719      21.93673325      21.86908531
C        2.39049697      23.35226631      21.83555603
C        3.42349005      20.51407433      15.05090618
C       -4.24463654      20.05665398      21.53580093
C        2.18352127      22.60279655      15.24808407
C        6.18129635      22.25027657      15.41903496
C       -0.38923186      19.80406952      21.57312965
C        5.84214735      22.65926170      16.66252708
C       -0.18410048      20.13612938      20.23708725
C       -3.98575830      19.69338226      20.23063087
C        1.91403604      22.29786873      16.57705498
H       -1.90706575      18.85923195      18.43801498
H       -0.54526240      21.49097443      18.64042282
H        3.70831442      23.35358810      18.78023529
H        2.11852789      20.80992508      18.23159599
H       -0.74573714      20.33950424      16.93286514
H       -1.71495140      23.17689705      20.14487839
H        2.29843354      21.98524857      20.15902901
H        3.26429629      19.17518425      16.78271294
H       -3.90148807      20.96769142      21.90686607
H        1.85781407      23.54928780      14.86467075
H        5.87375259      21.25677872      15.08232117
H        0.14171396      18.97615623      21.98528290
H        5.32241249      21.96692276      17.29300308
H        0.40682098      19.52283859      19.59465027
H       -3.25593972      20.26351738      19.65278244
H        1.33738804      23.02060318      17.17520332
C       -6.14884090      18.82000923      24.46380615
C       -5.21268177      21.69798088      26.98351669
C       -0.84103227      24.28187752      26.94784355
C       -2.13595772      21.17247009      24.55832481
C       -5.29495335      19.57637787      23.72290039
C       -5.98219728      22.51244354      27.79962921
C       -1.46527839      23.28599358      27.60264206
C       -1.36231887      20.40266418      23.76747131
C       -5.06111717      19.23087311      22.35184097
C       12.47193718      22.06524086       0.51891059
C       16.71398163      23.51869583       0.35084653
C       -1.11994755      20.71710587      22.40166855
C        9.71696091      19.88385391       0.20782462
C       -2.18549180      22.79837036      22.77504730
C        1.73054850      22.46742249      22.73069954
C       13.77222824      20.00749207       0.20600262
C        1.31467676      22.94909859      23.96283531
C       -4.72455120      20.45436096      27.48541641
C       -8.77583408      19.48657036      27.42723083
C       -2.50129938      22.43639374      24.04880333
H       -6.42185497      19.11231995      25.42817116
H       -4.93872595      22.07147217      25.98417091
H       -0.38678885      24.03342819      25.97590446
H       -2.38892245      20.89782524      25.60290909
H       -4.84492445      20.43714905      24.15687180
H       -6.33359575      23.46452522      27.44897079
H       -1.50369346      22.24471092      27.22154236
H       -0.93049759      19.46817589      24.15273285
H        9.87329006      20.86859512       0.66753596
H       -2.58130598      23.78629684      22.47204399
H        1.38637328      21.48900795      22.31205750
H       14.07588291      19.06328011       0.63523340
H        0.72831619      22.40668869      24.73074150
H       -4.07349205      19.83684540      26.86334991
H       -8.32299900      20.15169716      26.72523880
H       -3.04610062      23.15883064      24.67738724
C       15.52726364      24.07198906       2.83590913
C       15.40208435      26.84601974       4.70152330
C       21.03726959       1.61335897       5.69029474
C       20.12678528      26.96701050       2.58308434
C       16.13217163      25.05787468       2.08767986
C       14.72409439      26.66640472       5.87870836
C       20.03732681       0.94304121       6.30036974
C       20.89598846      26.20054626       1.76850450
C       16.75823784      24.82372665       0.87935573
C       15.23396969      26.00911331       7.02309752
C       19.57419777       1.30872142       7.56579971
C       21.30548477      26.60938644       0.44893387
C       11.60636616      25.12233543       7.00934410
C       20.03565025      28.65547371       0.84687388
C       23.10802269       0.08158212       1.08538902
C       17.35087013      25.74580574       5.71164227
C       22.98250198       0.31369486       2.44435501
C       16.79374695      26.42723274       4.66375589
C       12.21280575      24.62933350       5.89835739
C       19.67423248      28.23837090       2.09140778
H       15.05549622      24.30742645       3.77588391
H       14.81869698      27.22890663       3.84469724
H       21.42618561       1.24464166       4.70737982
H       19.85601044      26.69549751       3.60396433
H       16.16617203      26.08827209       2.39208889
H       13.69546032      26.98016548       5.95451307
H       19.66398811       0.05189361       5.85026789
H       21.29547501      25.29501343       2.18131208
H       11.55662537      26.16369057       7.14193439
H       19.71353340      29.53819466       0.35463902
H       22.45041656      58.40855026       0.54125881
H       18.39492416      25.46299744       5.66378069
H       22.29340744      58.58278656       3.02653790
H       17.37526512      26.59071922       3.77561069
H       12.60688686      25.21298218       5.09431744
H       19.03995514      28.85523796       2.70265174
C       10.70097542      24.02093124      10.40870953
C       11.49138165      26.70458412      12.77138996
C       15.42809963       2.10584640      12.41848278
C       16.54892731      25.00352669       9.29891205
C       10.94069958      24.84673882       9.33493042
C       10.64269161      27.46589851      13.52200603
C       14.51290035       1.52079487      13.26420784
C       17.23626900      25.06854630       8.12061691
C       11.28348351      24.25628471       8.10184383
C       10.47833538      27.19334221      14.92900085
C       14.49720192       1.81928158      14.63750267
C       16.59454536      25.56768608       6.94205952
C        8.08919430      25.18987656      14.18270206
C       14.53218651      25.80325508       8.24814320
C       18.57578468       0.54052883       8.22787285
C       12.15688705      25.37156487      14.71093082
C       18.27847481       0.86219728       9.50730610
C       12.23850536      25.64734840      13.33413219
C        8.31944942      24.82457542      12.90151310
C       15.18229675      25.30142021       9.33343506
H       10.55495358      24.44135666      11.37949944
H       11.61791325      26.93542290      11.69620419
H       15.46232414       1.80632365      11.38195324
H       17.12837982      24.72310638      10.15758514
H       10.87720680      25.92436981       9.42308044
H       10.04485512      28.22798920      13.09605026
H       13.83827972       0.81070167      12.81536198
H       18.28191757      24.68089104       8.07886696
H        8.53017521      26.06766891      14.58351517
H       13.49188805      25.99693298       8.30286598
H       18.02687454      58.76536179       7.65403461
H       12.63297653      24.47562790      15.11644077
H       17.63691139       0.23923169      10.05211163
H       12.91157436      24.99963951      12.71842575
H        8.67365551      25.56250191      12.22897625
H       14.64940739      25.12864113      10.26942062
C        6.30998421      23.88600159      17.16844559
C        7.29598665      26.23258018      19.66727638
C       11.04178715       2.47693992      19.64382172
C       10.13830566      26.71974373      17.60182571
C        7.07279015      24.66324043      16.40156364
C        6.53519201      27.16214752      20.32003021
C        9.97414017       2.04100132      20.30405045
C       11.03249741      25.95119858      16.89360428
C        7.37279654      24.29155731      15.04975033
C        6.46182251      27.17841911      21.73955345
C        9.82657242       2.35972238      21.66423225
C       11.23678780      26.14587593      15.51392746
C        3.61487627      25.45593071      21.43728828
C        9.58943939      27.95740128      15.70596600
C       13.60319233       1.14602244      15.50101089
C        7.75924444      25.15874100      21.73740005
C       13.50424099       1.49068224      16.78430748
C        7.97301435      25.25586128      20.38774681
C        3.95900798      25.03941917      20.17779922
C        9.50850773      27.82479095      17.04152298
H        6.11945724      24.13052368      18.20796776
H        7.17682219      26.12950706      18.59010124
H       11.03639984       2.24078512      18.58949089
H       10.03652382      26.54173088      18.65507126
H        7.44689178      25.61832809      16.79171371
H        5.97349405      27.93042183      19.76311493
H        9.16528416       1.49523675      19.82325935
H       11.62826061      25.23069572      17.36194801
H        3.93242788      26.38652229      21.96902466
H        9.07990074      28.73211861      15.17631626
H       12.97997189       0.35915178      15.04050732
H        8.19373417      24.36372757      22.26009178
H       12.77158070       0.98838550      17.37907219
H        8.62223625      24.52127838      19.90300941
H        4.45729923      25.71870232      19.47205734
H        8.82563782      28.44785690      17.60281372
C        1.80694795      24.23085785      24.39640617
C        3.16077042      27.45101738      26.41696739
C        5.77444553       1.52317929      26.49589348
C        6.29806900      27.15246010      24.53449821
C        2.61959815      25.01788902      23.61160088
C        2.44265485      28.27515984      27.20199966
C        5.01623726       0.76103085      27.28837967
C        6.90203571      26.16251183      23.87380791
C        2.83944035      24.58688736      22.27590370
C        2.07420921      27.89361382      28.52024269
C       23.85702896       0.83454829       0.21129958
C        7.06077433      26.16528511      22.47878265
C       17.45791054      25.85129356       0.22330503
C        5.71701574      28.18170166      22.43118095
C        8.71023178       1.92223370      22.41176796
C        3.21405721      25.73069954      28.12677383
C        8.57024765       2.23234463      23.70742798
C        3.56831574      26.16251564      26.86202431
C       -0.71076936      25.56330872      27.56701469
C        5.58055830      28.11693764      23.78915787
H        1.46323001      24.61922073      25.37241173
H        3.60703874      27.80938148      25.48418617
H        5.64806747       1.42655277      25.43952942
H        6.28788471      27.18520546      25.64334869
H        2.88447595      26.04471779      23.90171433
H        2.15170622      29.19633675      26.74379730
H        4.23639107       0.15434061      26.85901833
H        7.43564272      25.45841217      24.45080757
H       17.55259132      26.85331154       0.67617428
H        5.31227779      28.99297333      21.81236649
H        7.97657347       1.33306944      21.84530830
H        3.47714162      24.76303101      28.49812317
H        7.59593391       1.97836101      24.16504478
H        4.17877769      25.63034058      26.13408661
H       -0.17730004      26.39526176      27.10388756
H        5.00480270      28.90418816      24.29034424
C       15.70381927       2.45566106       2.86588478
C       16.71442413       5.13709497       5.43601084
C       21.04821777       7.04930162       5.61076307
C       20.07406235       4.47639227       3.24314857
C       16.60636711       3.14758658       2.12269855
C       15.88513374       5.87605190       6.23507071
C       20.22457314       6.27590513       6.39077711
C       20.75581169       3.66763258       2.39621544
C       17.04677391       2.66160584       0.87428010
C       15.69329643       5.48276186       7.55162764
C       19.92740250       6.66694450       7.72529411
C       21.01409721       4.07863235       1.05959427
C       13.09487629       3.58542252       7.34513617
C       19.82041931       6.12753820       1.50051248
C       23.77067757       5.93317604       1.14406300
C       17.01724625       3.49117589       7.16554594
C       23.43028641       6.38235283       2.38044047
C       17.28124046       3.93957281       5.91225910
C       13.33070087       3.38925600       6.01605082
C       19.65776443       5.73104191       2.79403639
H       15.30873585       2.92748427       3.73909020
H       16.94215965       5.54009581       4.45867014
H       21.35304451       6.65197182       4.62870359
H       19.85002327       4.09448004       4.23792744
H       16.92094421       4.12627363       2.33614635
H       15.44875145       6.82714653       5.87947845
H       19.93639946       5.25940657       6.07623625
H       21.10269547       2.63196278       2.71660876
H       13.32197762       4.52320147       7.84197617
H       19.40542412       7.09195232       1.23267639
H       23.35683060       5.02353477       0.70762199
H       17.32924271       2.47449350       7.48930359
H       22.78592300       5.81704092       3.01260257
H       17.88879967       3.31931067       5.20593309
H       13.75761795       4.19811916       5.44656944
H       19.28488159       6.47797155       3.51703787
C       11.80671787       1.55840802      10.20703697
C       12.07712078       5.30651426      12.44441891
C       16.31222534       7.31199884      12.57627964
C       15.14276028       4.54000139      10.08332634
C       12.29404831       2.56609011       9.47767544
C       11.43803501       6.07027531      13.35934162
C       15.43542767       6.55719233      13.30389404
C       15.91111755       3.79521632       9.27934360
C       12.51581860       2.53852582       8.05467415
C       11.01658344       5.51214552      14.57386017
C       15.10855103       6.90278292      14.64828300
C       16.20613480       4.24634743       8.00644016
C        8.24158764       4.08567047      13.96138954
C       14.98191833       6.32464552       8.43655777
C       19.20123863       5.86977148       8.62054253
C       11.93718719       3.40114427      13.86505508
C       18.86249924       6.34824085       9.88240147
C       12.31348991       3.94169211      12.67894173
C        8.90192509       3.83563566      12.74522686
C       14.67618179       5.82267189       9.68674469
H       11.65639687       1.74806249      11.26494884
H       12.52431965       5.76768017      11.56840420
H       16.63307571       7.02869511      11.60390377
H       14.94575310       4.22671509      11.05190945
H       12.41224289       3.53598785       9.95495033
H       11.22261715       7.12112379      13.20242977
H       15.19237041       5.54733038      12.92529297
H       16.32452583       2.80106425       9.64085674
H        8.47887230       4.99415112      14.48996735
H       14.72782898       7.29763079       8.14177132
H       18.89944839       4.89246225       8.31752205
H       12.07378674       2.38767719      14.14203262
H       18.25297356       5.76723242      10.54929256
H       12.98193550       3.36389518      12.02487183
H        9.41637421       4.66487694      12.26102161
H       14.04416275       6.43924570      10.34298706
C        6.49508381       2.18023705      16.58765221
C        7.34516764       5.06642342      19.44085503
C       11.57965946       6.99993086      19.71823311
C       10.07540226       4.41380596      16.95517921
C        7.13358164       3.17630863      15.95269966
C        6.84988832       5.86978197      20.39981079
C       10.70937538       6.33052397      20.55712318
C       10.78267384       3.59683800      16.09149933
C        7.58691025       3.05806923      14.60955334
C        6.21778154       5.27554512      21.55788422
C       10.37588596       6.83435774      21.79784393
C       11.27787018       4.18417978      14.84759712
C        2.89025259       2.93137574      21.76655006
C       10.24650288       6.30414581      15.51910686
C       14.29158783       6.04327726      15.41894722
C        6.53760052       3.06866026      20.58255577
C       13.95163918       6.34923315      16.68295288
C        7.15792131       3.64200544      19.55013847
C        3.09955907       2.50203681      20.50556946
C        9.83429623       5.77678108      16.67568398
H        6.07357168       2.32923794      17.56900215
H        7.89921951       5.38894320      18.57641220
H       11.81892395       6.64694691      18.71117783
H        9.61822414       4.01615381      17.88779068
H        7.33499384       4.13740492      16.46221542
H        6.91770792       6.97183561      20.37884903
H       10.25180149       5.36823034      20.22459602
H       11.01006031       2.57104874      16.31575775
H        3.00636387       3.93383670      22.10050774
H       10.06982040       7.30853605      15.35226536
H       13.92351723       5.10514212      14.93020153
H        6.39322519       1.98290324      20.64532661
H       13.25850773       5.68439245      17.19188690
H        7.57979298       2.96336484      18.80311584
H        3.32875848       3.18834949      19.68779182
H        9.23331451       6.34203911      17.36505127
C        2.20798111       1.28657567      25.11432648
C        2.52780008       4.90680265      26.87727356
C        6.75993967       7.27653980      26.65509605
C        5.22605658       4.08650541      23.91331673
C        2.37461352       2.27507353      24.17739296
C        1.84651983       5.69473362      27.76623726
C        6.08023691       6.40240479      27.43502426
C        5.67971516       3.31703663      22.90630913
C        2.64445686       1.95504689      22.81216812
C       20.51684761       5.35867691       0.62047672
C       24.49181366       6.80859280       0.27120185
C        6.12631798       3.87167144      21.69167709
C       17.83468819       3.45172882       0.02019302
C        5.75764894       6.04742479      22.61959076
C        9.53476429       6.03317499      22.59418678
C       21.64174271       3.26652455       0.10833666
C        9.30321884       6.40993977      23.85741806
C        3.06923437       3.68994093      27.37172127
C       -0.49061775       2.91276956      27.38968658
C        5.30472183       5.49277830      23.81797791
H        2.15934181       1.60517585      26.14379883
H        2.66884589       5.18867636      25.82936096
H        7.15140486       7.02869034      25.66042709
H        4.92925739       3.61615849      24.83484459
H        2.33086824       3.33635259      24.48787117
H        1.34891236       6.60075855      27.46570015
H        5.76870823       5.40814543      27.14206314
H        5.71292019       2.23586702      22.95509720
H       17.99440765       4.50567484       0.27946639
H        5.74636745       7.10006762      22.54961586
H        9.15216064       5.13435745      22.19796753
H       22.00401497       2.30334711       0.47810203
H        8.64018250       5.78139544      24.48573685
H        3.57035923       3.06863213      26.66641808
H        0.03702712       3.57086802      26.65831947
H        4.87534189       6.18612671      24.53060722
C       15.70752048       7.43476534       3.00855064
C       16.81782913      10.34664249       5.54506445
C       20.76639175      12.75738144       5.54666471
C       20.11085510      10.19177914       3.24218655
C       16.44045448       8.34416389       2.31382465
C       16.02345085      11.09683609       6.37501001
C       20.13183975      11.87770844       6.35726118
C       20.84223938       9.38243866       2.45644522
C       16.82066727       8.05766964       0.98227906
C       15.78065109      10.69625378       7.67389965
C       19.78910255      12.22923279       7.70626640
C       20.96541786       9.65866184       1.02439344
C       12.92386818       8.88806534       7.51477337
C       19.54948044      11.59823513       1.36806130
C       23.72035027      11.57253838       0.98009962
C       17.19266891       8.71682549       7.29546499
C       23.31016350      11.98383522       2.26667428
C       17.36651039       9.10680962       5.99330807
C       13.36099625       8.65744305       6.24063063
C       19.38107109      11.30338573       2.67725277
H       15.39308262       7.61005068       4.03981352
H       17.03297997      10.79961872       4.56116199
H       21.07231712      12.54447079       4.54236364
H       20.07428932       9.96853352       4.30226612
H       16.74474907       9.29747868       2.62135649
H       15.63238716      12.08969688       5.93330717
H       19.85201263      10.84355831       6.05956030
H       21.43280220       8.56161404       2.84686828
H       13.30002403       9.70879459       8.05057240
H       19.20354462      12.56547832       1.01645625
H       23.24877548      10.66545010       0.52567977
H       17.57553482       7.76606274       7.70039272
H       22.72450066      11.33185291       2.88900852
H       17.87570381       8.43007183       5.32516670
H       14.04762459       9.43349552       5.74780893
H       18.71092606      11.92989159       3.36154532
C       10.61813927       7.24139643       9.97941494
C       12.14642906      10.39646339      12.69966793
C       16.35037613      12.88573074      12.58514977
C       15.43766212       9.91084290      10.33628178
C       11.48290730       8.13430405       9.42441750
C       11.42629528      11.21747494      13.59011841
C       15.61769104      12.04589558      13.33669758
C       16.18401718       9.10480785       9.46176243
C       11.99914455       7.95127296       8.06278896
C       11.22742271      10.83372116      14.91240597
C       15.20149517      12.35243797      14.66563988
C       16.38715172       9.51821613       8.12152958
C        8.35236740       8.82796478      14.28514290
C       15.06080151      11.52125168       8.59234142
C       18.99365044      11.40720844       8.52096844
C       12.32066631       8.71961021      14.38428783
C       18.69914818      11.77182865       9.81205845
C       12.58369637       9.13134861      13.13037014
C        8.53651237       8.50114441      12.96258640
C       14.87395763      11.13343430       9.89262009
H       10.21863747       7.40344191      10.95699787
H       12.41232681      10.65010834      11.70653534
H       16.78127670      12.64613056      11.64506531
H       15.38453388       9.53682899      11.34742737
H       11.75180340       8.99425316      10.03273869
H       11.07156563      12.18232250      13.27026653
H       15.45000648      10.98706722      12.97972298
H       16.60459518       8.18083668       9.84867573
H        8.97957706       9.50842476      14.79356956
H       14.75823212      12.46238518       8.15343571
H       18.72521973      10.41683102       8.17320728
H       12.65643120       7.75566435      14.73318291
H       18.20523262      11.03660679      10.41598225
H       13.11515999       8.44805050      12.43494892
H        9.23891735       9.00439167      12.25361347
H       14.33316898      11.83948708      10.57961082
C        6.74989414       7.54577065      17.34366798
C        7.73441696      10.21383572      19.72381210
C       11.57712173      13.12311554      19.87357330
C       10.76680374      10.13671112      17.52331734
C        7.49140596       8.38840389      16.54997444
C        6.89246702      11.08681870      20.41137123
C       10.92503643      12.20232677      20.62474251
C       11.45251369       9.24767876      16.74658966
C        7.50770187       8.12592793      15.13372135
C        6.59590912      10.87079048      21.79538918
C       10.58508682      12.48814869      21.96316528
C       11.73352909       9.59353065      15.37720203
C        3.70801067       8.54957199      21.38963127
C       10.44072056      11.62602234      15.73943329
C       14.51180458      11.42425251      15.47453976
C        7.97085237       8.86378956      21.64188194
C       14.10696983      11.85335922      16.72866821
C        8.25505543       9.07291222      20.35422134
C        3.94996071       7.96554232      20.17686272
C       10.20038605      11.34267902      17.04493523
H        6.58918095       7.90317583      18.40914536
H        7.90161085      10.36708736      18.65583801
H       11.83619404      12.92870522      18.82925606
H       10.71710682       9.80584049      18.56752586
H        8.12236023       9.20799923      16.93984604
H        6.54574394      12.03310585      20.00983047
H       10.60582638      11.29234123      20.15152931
H       11.87384987       8.34528828      17.18009567
H        4.10563898       9.58404827      21.54955292
H        9.99854279      12.51144409      15.26757526
H       14.27039242      10.40285969      15.06284904
H        8.44036007       7.99379826      22.08388901
H       13.45000839      11.15389538      17.37290955
H        8.94390965       8.38466740      19.88873672
H        4.57427883       8.48291874      19.40419197
H        9.56283855      11.99164581      17.65303612
C        1.75795448       7.65414238      24.52361298
C        2.58643198      10.44297504      26.91757202
C        6.59451342      13.04041290      26.57605362
C        5.80112362      10.17140579      24.34280205
C        2.62323165       8.30900383      23.68214607
C        1.80033851      11.21016121      27.72649765
C        5.89804554      12.16109467      27.34568787
C        6.72745228       9.39183235      23.71302032
C        2.89476061       7.82945633      22.36540604
C       20.35264397      10.81490231       0.52270198
C       24.50295830      12.46241570       0.19394206
C        7.14951849       9.70878792      22.42454529
C       17.58192825       8.99787712       0.25679392
C        5.65816355      11.69526672      22.45228577
C        9.71197987      11.66239548      22.72032738
C       21.72493172       8.87566185       0.16105412
C        9.32999992      12.05668163      23.97225571
C        3.15222621       9.26426220      27.36948586
C       -0.81101900       8.70908642      27.52266884
C        5.25635242      11.34232044      23.69559860
H        1.49933779       8.04586697      25.49162292
H        2.91510057      10.81375217      25.95376778
H        6.71765852      12.78363991      25.49699783
H        5.49935293       9.90592384      25.37133598
H        3.08373237       9.28455925      23.92837906
H        1.34388757      12.14366531      27.43472290
H        5.58112907      11.28486156      26.82528305
H        7.20047474       8.46563339      24.13096428
H       18.01815796       9.94519043       0.63290095
H        5.43053055      12.70264435      22.06036186
H        9.32155800      10.75193405      22.22531319
H       22.02625465       7.90005970       0.42616093
H        8.78381729      11.36719418      24.63880920
H        3.79803228       8.65875816      26.74386406
H       -0.27494135       9.46817207      27.01601601
H        4.51676416      11.98508167      24.17693138
C       15.83777428      13.16705322       3.21276164
C       17.07035446      15.87773323       5.65856457
C       20.97338676      18.49294281       5.48998690
C       19.92394257      15.67119122       2.99980378
C       16.60861015      13.98064232       2.38804054
C       16.29655647      16.69320297       6.43073845
C       20.16614151      17.65028954       6.17726851
C       20.59665298      14.80956268       2.14506435
C       16.95370674      13.64630699       1.08524168
C       15.87033176      16.20658684       7.70964861
C       19.79942131      17.87216568       7.52097273
C       20.91196632      15.28413391       0.84939337
C       13.05555725      14.36810017       7.53516769
C       19.89798355      17.42453575       1.36133599
C       23.74386024      17.22243118       1.24243903
C       17.10101318      14.14313889       7.34944487
C       23.29287529      17.50770569       2.48499393
C       17.44848251      14.57253933       6.12022209
C       13.40948009      14.01613426       6.25696611
C       19.62444115      16.98447227       2.62074637
H       15.42042446      13.50844765       4.15409994
H       17.33720589      16.28056717       4.68138361
H       21.07192802      18.29798317       4.41263962
H       19.55561256      15.29971218       4.01933241
H       16.95061302      14.93861485       2.76558924
H       15.96451759      17.65422630       6.10160732
H       19.72036743      16.76797485       5.65101957
H       20.89203072      13.78937912       2.39888573
H       13.33746243      15.25899982       8.03364086
H       19.63019562      18.44330215       1.08042431
H       23.31625938      16.36547852       0.75441575
H       17.42801285      13.19996262       7.68800020
H       22.65611267      16.77223778       2.95902014
H       18.07687759      13.93532467       5.51483250
H       14.09822369      14.69816208       5.76283121
H       19.04351044      17.54005814       3.36936617
C       10.94281101      12.88405705      10.26154613
C       12.10578728      15.69106483      12.79705048
C       16.11908913      18.41988564      12.79004383
C       15.16243744      15.37384892      10.28137302
C       11.76357651      13.78151798       9.60220242
C       11.35225582      16.55400085      13.56493855
C       15.32562447      17.63925743      13.53190994
C       15.91718197      14.54333210       9.49802685
C       12.16469002      13.55414963       8.29054737
C       11.15195465      16.35975838      14.94450569
C       15.00485039      17.96189308      14.85977268
C       16.35774231      14.98754025       8.20339012
C        8.25992966      14.23577309      14.39196968
C       15.07259560      17.04672432       8.53048038
C       18.96619797      16.98480988       8.27925587
C       12.37981319      14.23013687      14.64525795
C       18.69112778      17.27560806       9.57452106
C       12.66318607      14.53723145      13.36066151
C        8.42707252      13.75254345      13.13192368
C       14.70991802      16.67626762       9.79807186
H       10.71925735      13.13591099      11.31267452
H       12.32246971      16.00130272      11.76311874
H       16.34724808      18.04387856      11.77464485
H       14.77245998      15.02002144      11.20447159
H       12.13748837      14.63623810      10.09409809
H       10.96344090      17.46949959      13.18037033
H       14.86533928      16.73874283      13.09795666
H       16.08387375      13.51365280       9.73874474
H        8.56886101      15.19604301      14.76959991
H       14.63468933      17.90154648       8.05806541
H       18.62385368      16.08258247       7.75316381
H       12.77054977      13.31369209      15.09058094
H       18.14267159      16.55122757      10.13512516
H       13.28809166      13.91294384      12.72479725
H        8.85485077      14.40951157      12.40051174
H       14.06910229      17.28535080      10.47173977
C        6.41283607      13.10090637      17.46561241
C        7.82348204      15.74198341      19.81414604
C       11.86139393      18.44641876      19.92912292
C       10.72663307      15.75143242      17.61949730
C        7.19160271      13.84055901      16.60615921
C        6.98581171      16.60221672      20.43832397
C       10.96334839      17.73772240      20.64439392
C       11.36431885      14.84634113      16.85743904
C        7.53936052      13.41226387      15.30866146
C        6.53679943      16.37588310      21.79025078
C       10.62380886      18.02195740      21.94526672
C       11.60335636      15.11767197      15.47685051
C        3.61889744      14.40339470      21.72679710
C       10.52093601      17.33172989      15.81228924
C       14.24994278      17.08895111      15.68420887
C        7.58711004      14.18797493      21.66747475
C       14.09605694      17.42712593      17.02686882
C        8.09998035      14.48405838      20.42255974
C        3.81588578      14.08418942      20.40421295
C       10.35131073      17.03568268      17.13926697
H        5.96729946      13.47274876      18.42513275
H        8.31903934      15.95921135      18.90896988
H       11.97918606      18.18933678      18.86318207
H       10.62451744      15.60436344      18.71838570
H        7.51407814      14.84412289      16.80871391
H        6.74344826      17.52700806      19.89426231
H       10.55383301      16.80991173      20.24403000
H       11.77114391      13.92037010      17.27274323
H        3.96428680      15.33249569      22.13594818
H       10.27482796      18.29022789      15.38740730
H       13.81251526      16.19137192      15.28236103
H        7.75843096      13.26300240      22.15907860
H       13.63873577      16.72948647      17.67605019
H        8.68952751      13.77946854      19.88678932
H        4.38757277      14.80066681      19.78938866
H        9.91697597      17.76513481      17.83334351
C        1.81550622      12.87194347      24.58769417
C        2.90458512      16.27272987      26.83664322
C        6.83667088      18.91331291      26.94214058
C        5.64296865      15.69740391      24.35463905
C        2.49840903      13.77158165      23.86274910
C        2.18511748      17.07038498      27.71706581
C        6.11989832      17.97130775      27.64631844
C        6.45067644      14.81166458      23.69178391
C        2.84228277      13.51745319      22.50469780
C       20.55743599      16.59272766       0.44885814
C       24.50311089      18.13510132       0.48674399
C        6.82762194      15.11511421      22.40048981
C       17.79256058      14.55598354       0.33519715
C        5.65503931      17.26657104      22.51120567
C        9.80031586      17.18177795      22.74813271
C        2.87443399      14.51503944      28.46867943
C        9.48297310      17.46384621      24.00273323
C        3.22419572      14.95464993      27.23614120
C       -0.68043619      14.26475811      27.55513954
C        5.24799967      16.93197441      23.78076363
H        1.61341512      13.00548840      25.64501190
H        3.20786691      16.56385422      25.85597992
H        7.17038345      18.68822289      25.95897865
H        5.36034203      15.54496765      25.38613510
H        2.90268254      14.65058708      24.33774185
H        1.91491413      18.08312988      27.45895004
H        5.76400757      17.10687637      27.12807655
H        6.71192932      13.86936760      24.14813232
H       18.15689468      15.45679951       0.85337442
H        5.36111546      18.21538734      22.09071732
H        9.48750019      16.22815323      22.22207642
H       21.85165215      13.49162006       0.30585256
H        8.86205959      16.82143974      24.56466103
H        3.70829058      14.22967148      26.59614944
H        0.06147151      14.82632065      27.08876228
H        4.69500256      17.69048882      24.35581970
C       15.87261391      18.61058998       3.09746695
C       16.71417427      21.36630058       5.41321945
C       21.08789825      23.97422409       5.50278234
C       19.84136772      21.37586975       3.01556373
C       16.71241760      19.44366264       2.39406872
C       15.84002590      22.09718704       6.15316248
C       20.33787155      23.08144379       6.20754337
C       20.61597443      20.55340958       2.25757313
C       17.15334129      19.06222534       1.09774208
C       15.47091675      21.74818039       7.45972013
C       20.07257080      23.25384521       7.62225580
C       21.00401306      20.88879776       0.94091988
C       13.24011421      19.48394203       7.35646772
C       19.82200813      22.97901535       1.24064398
C       23.75243568      22.81425095       1.72048414
C       16.97667122      19.75720596       7.16454172
C       23.50127792      23.13063049       3.01580000
C       17.31072426      20.20894241       5.92572641
C       13.69422913      19.24643898       6.11309385
C       19.43085861      22.60915756       2.52243590
H       15.58986568      19.00753021       4.08453655
H       17.01498604      21.78979111       4.46490097
H       21.19775391      23.85428238       4.44011831
H       19.48682785      21.04249382       4.01775169
H       17.00750160      20.37336540       2.80194163
H       15.49539471      23.06234360       5.72069120
H       19.73738289      22.33691597       5.69260216
H       20.93164444      19.64441299       2.73259616
H       13.70256519      20.29263496       7.86630154
H       19.48322868      23.88138962       0.82331437
H       23.16846275      22.03023911       1.26005495
H       17.41803741      18.92647743       7.65796947
H       22.92067719      22.44673347       3.62384558
H       18.17746735      19.77010345       5.45379734
H       14.39024639      19.98798370       5.74661064
H       18.77413940      23.24865341       3.08128953
C       11.13393593      18.11817551      10.11123562
C       12.30120468      21.39771461      12.80729485
C       15.75457573      23.84437752      12.76489353
C       15.21666908      21.01271820      10.11783314
C       11.97341633      18.96140862       9.46491718
C       11.52484703      22.28544044      13.52487755
C       15.15849876      22.97636604      13.63551331
C       15.93740749      20.20312119       9.30982113
C       12.39726830      18.66679955       8.11278152
C       11.14071465      21.97239113      14.83337021
C       14.90791988      23.37600899      14.99542522
C       16.08749390      20.53770828       7.95875835
C        8.32044697      19.86676407      14.32697678
C       14.62647533      22.45690155       8.33609104
C       19.18238831      22.44811249       8.34321594
C       12.42779636      19.90118217      14.67163658
C       18.96822739      22.69922066       9.69928646
C       12.78462696      20.21117592      13.38148117
C        8.67320251      19.52230453      13.05010414
C       14.54279900      22.13989067       9.64023018
H       10.81401825      18.45750046      11.06577969
H       12.48863506      21.58464432      11.73179436
H       15.91372395      23.54216576      11.76364708
H       15.13484192      20.84845352      11.18925953
H       12.34541225      19.84961510       9.99248028
H       11.14750004      23.16753578      13.04181767
H       14.82314014      21.95991898      13.28614998
H       16.34545136      19.25089836       9.57606316
H        8.60064697      20.81285286      14.71747875
H       14.10893440      23.23466110       7.88629818
H       18.60521317      21.64557838       7.81676054
H       12.78276634      18.97009277      15.11169529
H       18.24789238      22.08096504      10.21618462
H       13.43959618      19.53587341      12.81810570
H        9.24240112      20.17877388      12.45654297
H       14.00879860      22.80433464      10.34908772
C        6.54087925      18.51298904      17.27999115
C        7.67177105      21.15572548      19.84089088
C       11.28976822      23.68273926      19.81328011
C       10.26206303      21.20594788      17.44864845
C        7.31645489      19.33999252      16.50101471
C        6.93484783      22.07226562      20.55993652
C       10.69245815      22.77945518      20.62141991
C       11.16562748      20.43204117      16.74730110
C        7.63927984      18.95001030      15.19767666
C        6.52883673      21.78015327      21.87664604
C       10.50325584      23.12625504      21.98023605
C       11.56406021      20.74063683      15.41177845
C        3.60162807      19.98590469      21.66052818
C       10.14943886      22.71984100      15.52267075
C       14.26671028      22.63146591      15.96135044
C        7.64521170      19.61864662      21.69382858
C       14.09293461      23.06958389      17.20507240
C        8.08990192      19.99334717      20.44406509
C        3.99251485      19.67232513      20.43527603
C        9.70758152      22.33550453      16.76156235
H        6.27534485      18.70998001      18.24417686
H        7.97202301      21.41640472      18.84278297
H       11.56625462      23.39056206      18.83815193
H        9.97300720      21.08218956      18.50036049
H        7.69948196      20.29988289      16.87103081
H        6.61934662      23.04528809      20.14641190
H       10.42475891      21.75064468      20.30813980
H       11.62103367      19.52259254      17.16865730
H        3.99856687      20.85841751      22.15203094
H        9.77018356      23.66955566      15.05880260
H       13.83478260      21.64289093      15.71807575
H        7.95296478      18.63894463      22.05757523
H       13.54464722      22.45100975      17.90504265
H        8.72926998      19.26972961      19.90854454
H        4.61464930      20.36218643      19.94707870
H        8.94417095      22.88280296      17.28224564
C        1.79590833      18.50131226      24.58312798
C        2.78942132      21.60760498      26.80236816
C        6.68297672      24.24258041      27.28384209
C        5.60701370      21.10024643      24.49723244
C        2.57334161      19.30322456      23.82433128
C        2.05332828      22.42892838      27.57171059
C        5.91554356      23.41632462      28.03607750
C        6.44107103      20.25596237      23.73758316
C        2.81390953      19.10040855      22.43193245
C       20.57986641      22.10622597       0.43036401
C       24.58220482      23.66403389       0.88812959
C        6.82464123      20.53217316      22.39603424
C       17.88644981      19.96465492       0.23729625
C        5.65598536      22.62293625      22.61870956
C        9.93555450      22.19607735      22.83888435
C       21.74019432      20.02614975       0.13281138
C        9.54432774      22.49857521      24.07474518
C        3.28381848      20.39602661      27.36632538
C       -0.72347176      19.59799385      27.43784523
C        5.26034021      22.34033203      23.88314819
H        1.71461010      18.68495941      25.60649490
H        3.02544332      21.83664513      25.78907776
H        6.74888277      24.08026123      26.19157982
H        5.39081430      20.87842178      25.58036041
H        3.02073383      20.13778877      24.33491707
H        1.60408771      23.30205345      27.06345749
H        5.38187027      22.53345489      27.68161201
H        6.71164608      19.28876114      24.12789345
H       18.13970566      20.92052078       0.58440483
H        5.51270723      23.61162758      22.26291466
H        9.75867653      21.18806648      22.42620659
H       22.04771042      19.11898804       0.55244142
H        9.04007912      21.74511719      24.70992279
H        3.94977546      19.73983192      26.77741814
H       -0.18328543      20.26088524      26.80189133
H        4.69103384      23.09985352      24.39247131
C       23.97846985      24.35950279       3.57554197
C       25.28255081      27.17237282       6.11291409
C       28.53286362       1.50506985       4.73499870
C       28.33839417      26.69674301       3.36106586
C       24.73901749      25.17900276       2.82322097
C       24.59248161      27.94063377       7.03708267
C       28.12337875       0.86514884       5.86293554
C       29.00736046      25.82800674       2.55984831
C       25.08004379      24.88189697       1.44373405
C       24.15198708      27.38121033       8.26662540
C       28.24499893       1.45074654       7.15883732
C       29.28314209      26.11961555       1.19522727
C       21.61255455      25.11939621       7.52892494
C       28.17159081      28.27630806       1.57142103
C       31.03031158       0.77929080       1.21457064
C       25.31986237      25.28340340       7.68674612
C       30.92605591       0.86843205       2.55735540
C       25.56622696      25.77666664       6.44405603
C       21.79697037      25.08876419       6.19328499
C       27.98513794      27.97084045       2.88176274
H       24.00182343      24.51090622       4.65959740
H       25.59245110      27.59960938       5.17040062
H       28.40303040       1.12791908       3.74638867
H       28.07822037      26.44341850       4.40398169
H       25.20361710      26.05278587       3.24278927
H       24.43309784      29.04638863       6.97424507
H       27.72457695      58.79546738       5.80835915
H       29.29437447      24.85047722       2.93938398
H       22.19094086      25.78767967       8.16404629
H       27.92760277      29.26284218       1.19412899
H       30.36876488       0.04755868       0.72610676
H       25.55563354      24.23271179       7.91176844
H       30.21045303       0.21016745       3.06768560
H       26.21761894      25.22030258       5.75465965
H       22.47402573      25.71351433       5.63231707
H       27.50657463      28.68899155       3.54451776
C       19.68213272      23.67280769      10.37314034
C       20.58315086      26.63615799      12.87365818
C       24.40301895       1.54893899      12.47974491
C       23.52169037      26.33037567      10.74483013
C       20.55435562      24.46630287       9.68095016
C       19.87788963      27.50923538      13.62608337
C       24.48166275       0.37668723      13.15675735
C       24.29162407      25.59906006       9.90448475
C       20.72947502      24.26803398       8.29023170
C       19.37715149      27.13413620      14.88399029
C       24.63931465       0.29333013      14.55986881
C       24.64495277      26.10614586       8.58967781
C       16.06808662      25.46394157      14.42798615
C       23.33708572      28.09271431       9.20667076
C       27.69064903       0.79562253       8.28956985
C       20.74250031      25.13267899      14.74555779
C       27.62095070       1.45158541       9.47953892
C       21.05785751      25.43840408      13.45938587
C       16.27743530      25.12873840      13.14684391
C       22.97230530      27.57493019      10.39851284
H       19.67246628      23.73838615      11.44335365
H       20.86999893      26.93112755      11.86208916
H       24.24930191       1.62351263      11.40028572
H       23.30680466      25.88521576      11.73449421
H       21.10778046      25.26728058      10.13854313
H       19.46371841      28.42752647      13.25190926
H       24.52743721      58.36931229      12.61201572
H       24.54484177      24.60252190      10.20342541
H       16.37768173      26.43184471      14.78155518
H       22.99875450      29.11477470       8.99649525
H       27.31437302      58.68127441       8.12646008
H       21.11655045      24.25275612      15.23301125
H       27.15383148       0.97004521      10.30854225
H       21.75705338      24.77803993      12.85697365
H       16.90083122      25.70389557      12.46971416
H       22.38919830      28.16143417      11.15334320
C       14.45660114      24.37904167      17.55702972
C       15.82896996      26.80061340      19.91041374
C       19.84654999       1.84211826      19.67463303
C       18.30431366      26.23483849      17.21886253
C       15.13629246      25.17473221      16.69384193
C       14.73592281      27.46305656      20.43869781
C       19.20339966       0.92457682      20.43075752
C       19.37848091      25.58828354      16.73222542
C       15.36353111      24.67992401      15.33399963
C       14.36745167      27.25963020      21.76336288
C       18.75331116       1.23367631      21.72953224
C       19.87999535      25.95265388      15.48193645
C       11.33567047      25.37288857      21.53487778
C       18.43925476      27.95690155      15.58479691
C       24.71348572      58.00441742      15.26074314
C       16.18219376      25.66306686      21.94359207
C       24.70736504      57.98484039      16.62072754
C       16.61357689      25.96322441      20.70146751
C       11.63134480      24.96712875      20.24844742
C       17.87969208      27.46290779      16.70896149
H       14.25150776      24.69616508      18.58084106
H       16.08477402      26.94012070      18.89465904
H       20.11038589       1.60225224      18.63244438
H       17.75622749      25.76920128      18.06502724
H       15.36983681      26.21169281      16.90490723
H       14.18004227      28.15153503      19.81340408
H       19.10330963      58.86251450      20.00728416
H       19.78492737      24.65866470      17.11767578
H       11.56491661      26.35818100      21.92220497
H       18.22650337      28.94998360      15.18240643
H       24.67905045      57.08805847      14.65130615
H       16.71301651      24.85347176      22.49120712
H       24.66861343      57.02638245      17.10876846
H       17.41397285      25.43380928      20.29472351
H       12.13683987      25.68038368      19.54348183
H       17.01441193      27.97435570      17.10549355
C        9.88763714      23.76032448      24.62287521
C       10.83714867      26.70951271      26.96499062
C       14.31603527       2.18292356      27.03494644
C       13.61286545      26.60899162      24.45017815
C       10.49455547      24.69402695      23.81574249
C       10.20769978      27.53997803      27.83062744
C       13.32211494       1.46380460      27.65733910
C       14.69066048      25.99414825      23.90069199
C       10.85117245      24.39459610      22.43092155
C       28.80618477      27.35000801       0.66815042
C       32.00743866       1.53163207       0.51769507
C       15.06406879      26.28417969      22.55245018
C       25.81702614      25.74054909       0.57892281
C       13.25232697      27.85282707      22.38805580
C       18.04697800       0.23362218      22.46944618
C       29.99592590      25.23974991       0.32401776
C       17.54829597       0.54703856      23.69261551
C       11.30920887      25.51403236      27.52636909
C        7.25616217      25.40734863      27.78078651
C       12.89619160      27.49164009      23.64727974
H        9.68358994      24.02756500      25.66741180
H       11.03114414      26.96160889      25.92124176
H       14.44373512       2.09463263      25.96460152
H       13.34485817      26.42782211      25.48877716
H       10.75860119      25.69007874      24.16452026
H        9.82635403      28.47347832      27.47201347
H       12.76155186       0.82127339      27.02893066
H       15.29372406      25.28311729      24.40507126
H       26.26984024      26.59428024       1.02349615
H       12.50381565      28.52578545      21.85209274
H       17.85623741      58.14834213      22.00232697
H       30.29607582      24.28957176       0.74252594
H       16.97141647      58.68572998      24.17943954
H       11.95705795      24.85064888      26.89789009
H        7.85460424      26.06220245      27.17789841
H       11.99064636      27.93151665      24.05901718
C       23.67436981       1.36064160       2.99534488
C       24.70648384       4.50533247       5.17474747
C       28.61808014       7.50662184       5.14183283
C       27.51454544       4.55493879       2.76589966
C       24.59687805       2.09542942       2.20478082
C       24.11470795       5.38960981       5.99534655
C       27.86759567       6.60790110       5.90666819
C       28.19476128       3.78415823       1.89454901
C       24.59686279       1.90169203       0.78750110
C       23.85980988       5.05082560       7.35246706
C       27.60655403       6.81025362       7.28657484
C       28.54405785       4.22524786       0.59701294
C       21.11195564       3.17463064       7.48219633
C       27.43577003       6.29099894       1.18579030
C       31.63778687       5.90488768       1.02649486
C       24.95627785       2.93638277       6.96811628
C       31.36385536       6.17646074       2.36167693
C       25.16847229       3.26806760       5.69077635
C       21.54437447       2.80152655       6.25233555
C       27.15228271       5.87516785       2.43614006
H       23.53909111       1.53646767       4.02646923
H       24.85981750       4.80156326       4.10353708
H       28.74165344       7.35340643       4.05396461
H       27.31157494       4.13092184       3.76486802
H       25.07312775       2.96005535       2.57875943
H       23.80128288       6.39027548       5.71859503
H       27.41865921       5.71186209       5.43918514
H       28.51380157       2.77667379       2.20659876
H       21.49920654       4.10983038       7.90579462
H       27.11747360       7.22818995       0.77441019
H       31.28502274       5.07243204       0.46968350
H       25.26384354       2.00061941       7.35528851
H       30.59808922       5.53464603       2.79896808
H       25.76857376       2.59967399       5.12163067
H       22.29170036       3.38576388       5.73561382
H       26.58773232       6.49455452       3.11108160
C       18.77910995       2.03238845      10.11130047
C       20.07690048       4.68031645      12.54905319
C       24.19942093       7.46143866      12.38460732
C       23.17003441       4.24637222      10.00730419
C       19.70027733       2.77446914       9.45305824
C       19.48014832       5.61698151      13.36823082
C       23.55102730       6.45541430      13.09985924
C       23.97147179       3.41494012       9.21657372
C       20.11191368       2.47225475       8.14155865
C       19.14025307       5.28168964      14.73430538
C       23.14550972       6.63957739      14.44501114
C       24.33029366       3.80700946       7.88523197
C       16.28178024       3.42625833      14.17349243
C       23.23253250       5.93378258       8.21762943
C       26.90472221       5.85892916       8.06834412
C       20.25916672       3.19659781      14.40891838
C       26.50741959       6.14161205       9.31727505
C       20.48814201       3.44780207      13.09142017
C       16.28487778       3.09356546      12.86506367
C       22.85605431       5.49935818       9.47316360
H       18.46791267       2.17704582      11.13630390
H       20.29936028       4.87801695      11.48321056
H       24.44608498       7.30247641      11.33790779
H       22.83112907       3.99823308      11.02220726
H       20.15709114       3.60040259       9.96704292
H       19.33084297       6.63937378      13.09445763
H       23.36419487       5.51315069      12.64640808
H       24.28828430       2.42284393       9.51948261
H       16.93668938       4.27832460      14.52523804
H       22.94096565       6.94749308       7.89893723
H       26.49803543       5.02377272       7.54378939
H       20.65517807       2.30916882      14.83950996
H       25.83297539       5.42489243       9.77333927
H       20.97314835       2.69946575      12.44215584
H       16.93275452       3.61563897      12.16620064
H       22.17818260       6.12681580       9.98620605
C       14.48670292       2.39069176      17.34963608
C       15.59716606       4.82488585      19.78140068
C       19.57980919       7.22491312      19.70774841
C       18.61232567       4.62100840      17.36491776
C       15.45773029       2.99477053      16.54514122
C       14.83067226       5.60735226      20.63320541
C       18.83328247       6.40209436      20.48640251
C       19.40594482       3.83338952      16.62316895
C       15.46189785       2.77754974      15.13545036
C       14.62632084       5.23295307      22.02338791
C       18.45387268       6.80992174      21.80405235
C       19.61476898       4.08290243      15.25109577
C       11.96336746       3.52399445      21.62887955
C       18.38733292       6.17070770      15.54804993
C       22.52237892       5.60127783      15.19562435
C       15.90820885       3.21668243      21.55424690
C       22.28009415       5.75102568      16.52838135
C       16.10905838       3.59346557      20.23027229
C       12.05236912       3.26312685      20.29113770
C       18.11631012       5.85034800      16.82402611
H       14.43564415       2.69424367      18.37593269
H       15.70652485       5.17579031      18.73152733
H       19.87148285       6.85827208      18.75705910
H       18.47229195       4.41319036      18.43287659
H       16.11973190       3.68021441      17.04892349
H       14.33640099       6.51516342      20.29420280
H       18.50568199       5.40243053      20.17557907
H       19.79692078       2.91632342      16.99515533
H       12.67820549       4.25006390      22.08222961
H       18.00591660       7.06245089      15.09359264
H       22.09492683       4.71799231      14.74306965
H       16.28579140       2.25207472      21.89647293
H       21.70128822       4.98339987      17.04263306
H       16.79539108       3.03346586      19.63123322
H       12.86784649       3.71535993      19.71125793
H       17.57361412       6.52632427      17.45955086
C        9.54736233       2.96382999      24.39747047
C       10.59635830       5.30087328      26.68591499
C       14.82758713       7.41456985      26.78520966
C       14.10236359       4.39202213      24.56583023
C       10.72140121       3.31136894      23.75622559
C        9.70527363       5.99161625      27.50634003
C       14.05721283       6.51544857      27.46038818
C       14.80580139       3.57722449      23.72720528
C       10.82282257       3.07817340      22.35161018
C       28.17955017       5.52277040       0.28535986
C       32.46105576       6.79926682       0.24818410
C       15.10075092       3.97901535      22.42129517
C        6.55583334       2.75914049      28.45121574
C       13.84087181       6.04926109      22.90108871
C       17.68059349       5.91493845      22.63011932
C       10.56110382       3.44418240      28.27698135
C       17.33987045       6.35905647      23.89299011
C       10.98671246       4.00640011      27.10491753
C        6.65787840       2.49341345      27.11131477
C       13.62521648       5.60624409      24.16962242
H        9.40906715       3.13628459      25.44245338
H       10.84555531       5.69269180      25.72509193
H       15.20917797       7.10579205      25.79352570
H       13.75528145       4.02359438      25.54470062
H       11.43094444       3.88491225      24.33774757
H        9.30191135       6.89379311      27.11291122
H       13.74801159       5.57357645      26.92962646
H       15.16764355       2.62930560      24.07152748
H       26.03359413       3.49050736       0.38929015
H       13.37473488       6.95355177      22.51898575
H       17.46011925       4.89866352      22.25529289
H       10.82137012       2.42733264      28.50523376
H       16.83072281       5.77500629      24.64157104
H       11.74853802       3.43911219      26.50846291
H        7.26126814       3.15648055      26.51417160
H       13.00848103       6.23884106      24.80228424
C       23.88803291       7.60525465       2.89163184
C       24.83147812      10.61805725       5.23971891
C       28.91195488      12.80775452       5.54742527
C       27.91550636      10.51955414       2.94268560
C       24.64981079       8.42733288       2.13310575
C       24.04499245      11.32652950       6.14167929
C       28.08930969      11.97637272       6.29744530
C       28.66601753       9.56785774       2.23667979
C       24.90803337       8.03142357       0.79464424
C       23.76016998      10.91929913       7.45884514
C       27.79889488      12.34345436       7.63991022
C       28.88024902       9.71094608       0.84615022
C       21.12723923       8.75604439       7.28477430
C       27.59481430      11.82439232       0.94052923
C       31.81715584      11.38634110       1.17530513
C       24.97826767       8.85661411       6.88126230
C       31.58338356      11.72204399       2.51194501
C       25.40733910       9.34214020       5.66228628
C       21.51052284       8.32117939       6.02349424
C       27.32512283      11.61265850       2.27115440
H       23.67298317       7.92569780       3.90344334
H       25.08679199      10.96718407       4.21489716
H       29.16558266      12.52947998       4.48093748
H       27.65609550      10.28634071       3.99196482
H       25.00666428       9.43292522       2.46007514
H       23.69095612      12.31470394       5.89150858
H       27.83369255      11.00792408       5.98530579
H       28.96231270       8.68731880       2.78903389
H       21.52730751       9.67461872       7.65791893
H       27.13975334      12.66526318       0.46886936
H       31.44060135      10.44410896       0.77274740
H       25.27456284       7.87425518       7.22612858
H       30.98096085      11.04498672       3.11982965
H       26.04865837       8.80024147       4.94277430
H       22.06187058       8.91791725       5.39205647
H       26.56660843      12.31267834       2.65346074
C       19.33854485       7.61730909      10.35009861
C       20.49768448      10.27940273      12.59146404
C       24.24713898      12.85239124      12.54174614
C       23.14095116       9.86378098       9.96250820
C       20.05357933       8.37768459       9.53049183
C       19.64576912      11.11716652      13.27281666
C       23.46698189      12.01288128      13.29922676
C       23.87136459       9.08170414       9.13854599
C       20.39812088       7.95783663       8.22246075
C       19.18747139      10.80271339      14.59537125
C       23.17583656      12.32819176      14.67970276
C       24.18961143       9.58765793       7.81701946
C       16.37517929       8.98451996      14.42470551
C       22.90226173      11.60383415       8.33573246
C       26.96411324      11.57120609       8.45640945
C       20.52512169       8.69006348      14.44809151
C       26.62159920      12.02264595       9.72031975
C       20.88696671       9.06250000      13.17471504
C       16.72474861       8.58623981      13.15741825
C       22.67362595      11.09510231       9.60233974
H       19.07215309       8.05988789      11.30540371
H       20.89364243      10.58514595      11.60418892
H       24.48421288      12.62767506      11.51101685
H       22.86175346       9.48483086      10.94804287
H       20.40562820       9.37170506       9.84859085
H       19.31777000      12.10304260      12.87289524
H       23.14088058      11.01326847      12.88461304
H       24.22072601       8.11112499       9.42304134
H       16.80704880       9.87662697      14.80558395
H       22.64059448      12.61742973       8.11242867
H       26.58110428      10.68437004       8.01553440
H       20.80877686       7.68483448      14.84575367
H       25.96178818      11.34433937      10.29473686
H       21.53524399       8.34018612      12.72944355
H       17.41281509       9.21509075      12.60253048
H       22.21481323      11.65672874      10.42844486
C       14.50547886       7.48849440      17.28529549
C       15.53929710      10.35806274      19.63700294
C       19.50325584      12.66640568      19.88079071
C       18.38392258      10.17012215      17.15724754
C       15.32693672       8.34693813      16.58958435
C       14.83603477      11.24136829      20.40707779
C       18.63829231      11.97506428      20.68639946
C       19.27719307       9.29713631      16.54095078
C       15.59187412       8.10736561      15.26365280
C       14.49354839      10.86604404      21.73373222
C       18.32877159      12.36784840      21.99611092
C       19.67988014       9.59037113      15.19583225
C       11.65894222       8.83360004      21.30942535
C       18.30676651      11.66033745      15.31496239
C       22.41740799      11.38731480      15.42775631
C       15.67268181       8.68921852      21.38581657
C       22.12687302      11.71175766      16.73738670
C       16.01555634       9.08979034      20.13809586
C       12.05733395       8.27478218      20.13667870
C       17.91828156      11.39056396      16.59020615
H       14.23751354       7.78636646      18.28881073
H       15.85344028      10.70590878      18.63153267
H       19.76822281      12.28835011      18.89583206
H       18.22800255       9.87030506      18.17020607
H       15.64385605       9.21829700      17.12375259
H       14.56093025      12.20939255      20.01189041
H       18.10694695      11.15372753      20.25301743
H       19.62728882       8.43224430      17.10197067
H       11.97729588       9.83054352      21.63021278
H       18.01507568      12.56590271      14.73199081
H       22.21566772      10.39282513      15.05702209
H       15.95488262       7.69002247      21.62945747
H       21.65766716      10.91690731      17.34495926
H       16.58663177       8.38195515      19.58996201
H       12.68345261       8.88116550      19.47400856
H       17.33280182      12.09209919      17.17978668
C        9.79624367       7.65957880      24.33083344
C       10.73718452      10.26027203      26.65973282
C       14.68956852      12.81230068      26.79115295
C       13.79084778      10.04478455      24.36712646
C       10.55433464       8.46184826      23.52181625
C        9.94473171      11.13195515      27.35264778
C       13.86153793      11.97961712      27.52624893
C       14.60781765       9.24184418      23.57246017
C       10.86301231       8.08409309      22.21470642
C       28.41687202      10.93716907       0.20182411
C       32.47741699      12.30376911       0.31058678
C       14.96849155       9.60691452      22.23977661
C        6.88831902       8.86467457      28.50550652
C       13.70708561      11.64987946      22.57888985
C       17.53977966      11.52334404      22.82018471
C       29.58210564       8.77520561       0.02854151
C       17.33416939      11.89057255      24.09520149
C       11.15718651       9.01946354      27.25571060
C        7.16647863       8.54015541      27.21418571
C       13.40388680      11.28588009      23.86440277
H        9.62605476       7.95826960      25.30940437
H       11.01432610      10.48134232      25.60236168
H       14.80598068      12.59369659      25.72243690
H       13.53659248       9.67470455      25.33111954
H       10.93674850       9.40712833      23.90848160
H        9.74367142      12.09715748      26.92738914
H       13.26505756      11.12409401      27.12888718
H       15.03285503       8.23990536      23.92834854
H       25.94298172       9.80003834       0.43743271
H       13.32549286      12.60598850      22.22588348
H       17.07056236      10.66813469      22.36495590
H       29.96309090       7.80941677       0.42950571
H       16.70685959      11.28020096      24.69859505
H       11.64261723       8.23240185      26.67185593
H        7.82136011       9.19653511      26.73076057
H       12.83927917      11.93273735      24.53863907
C       23.73937035      13.23978901       2.82591176
C       24.87895203      15.79858017       5.57993937
C       28.86734581      18.22459602       5.34981012
C       27.68468857      15.30911922       2.83210063
C       24.48843956      14.06416035       2.04495764
C       24.04038048      16.58535385       6.35193491
C       28.06835365      17.42792511       6.12960243
C       28.60258484      14.55785275       2.11533594
C       24.85005951      13.70059776       0.72045964
C       23.68390465      16.21442223       7.65347385
C       27.82065201      17.78493309       7.49988890
C       29.01782036      15.03427410       0.85193074
C       20.89193726      14.32939816       7.31028652
C       27.74652863      17.08528328       1.15428889
C       31.71894836      16.98327255       1.31345844
C       24.96738243      14.19645596       7.33111095
C       31.35049057      17.33491516       2.60506129
C       25.26784515      14.56624222       6.03663635
C       21.18725777      14.00960827       6.04239035
C       27.25366020      16.56884575       2.33544374
H       23.35659409      13.62578869       3.77985287
H       25.26198006      16.16260147       4.61026525
H       29.07549858      17.79864693       4.40074110
H       27.48194885      14.95787621       3.82057452
H       24.78639030      15.05175591       2.42690706
H       23.68258095      17.48496628       5.97287464
H       27.72712898      16.44942093       5.84288216
H       29.00721359      13.58496380       2.50849509
H       21.07261086      15.28426743       7.75941849
H       27.46203995      18.05330658       0.77887958
H       31.49160767      16.01737976       0.86461902
H       25.29774666      13.21171761       7.62431335
H       30.77663803      16.58441353       3.15515780
H       25.83737183      13.86553097       5.41570091
H       21.70897293      14.66875172       5.37718630
H       26.53210258      17.14866829       2.88071060
C       19.16250610      12.98608971      10.30684185
C       19.93592262      15.78915119      12.59384537
C       24.38504219      18.40385628      12.84949112
C       22.95875740      15.35581875      10.28099537
C       19.87645340      13.85740089       9.51368141
C       19.15174484      16.53566933      13.45688725
C       23.46482468      17.61808777      13.46514416
C       23.80884171      14.55957794       9.50314426
C       20.18757820      13.47486496       8.19560146
C       18.99002266      16.21378517      14.83880806
C       23.09959412      17.86983490      14.80213547
C       24.11968231      14.96163368       8.17100143
C       16.25811195      14.52392101      14.37249470
C       22.89653397      17.05218506       8.52416801
C       27.09201622      16.96288872       8.36647320
C       20.34321213      14.27938938      14.45123959
C       26.79359055      17.36666298       9.62661076
C       20.57245445      14.62946415      13.13563442
C       16.68317413      14.15984535      13.13254452
C       22.50101280      16.62075424       9.78656578
H       18.94833183      13.26437759      11.32729912
H       19.93106079      15.99059105      11.49360085
H       24.71733093      18.15633392      11.84284401
H       22.67759705      15.00206661      11.23859882
H       20.15294647      14.82252884       9.97839642
H       18.72318077      17.50727272      13.27940750
H       22.98625755      16.75871849      13.01411533
H       24.07975960      13.54731655       9.87561893
H       16.41918945      15.53425407      14.74580765
H       22.61100578      18.03054047       8.16428089
H       26.77039909      15.99060345       7.99866819
H       20.90885544      13.48351002      14.94382381
H       26.15062332      16.74939728      10.31395531
H       21.18879127      14.01720905      12.53460121
H       17.20022202      14.76259518      12.44643784
H       21.77056503      17.13878441      10.42331219
C       14.41334915      13.11728859      17.25932312
C       15.77165794      15.98270702      19.79066277
C       19.58381653      18.36326218      19.86084747
C       18.41844940      15.52386379      17.43301010
C       15.14279175      13.96521091      16.48867607
C       15.17337704      16.86773682      20.65433311
C       18.89850426      17.50897598      20.68894005
C       19.11624908      14.62825012      16.64194870
C       15.52471924      13.64749622      15.18593311
C       14.71323299      16.50824356      21.93962288
C       18.59827614      17.89079285      22.02729797
C       19.49149323      15.00089359      15.32352161
C       11.71559811      14.68802643      21.67124748
C       18.19583511      17.08400917      15.64268875
C       22.30266571      16.98826790      15.55281925
C       15.81364059      14.36505604      21.53118324
C       21.94874001      17.22504425      16.87246513
C       16.11904907      14.71227551      20.23928833
C       11.99884987      14.36330414      20.37165070
C       17.91207123      16.77231598      16.96946716
H       14.02298546      13.43069553      18.20500183
H       15.93403149      16.23816872      18.70984840
H       19.75304985      18.00011444      18.83666992
H       18.15483475      15.17538166      18.42947197
H       15.49969196      14.91526890      16.92357826
H       14.88764000      17.83691788      20.26301765
H       18.53299904      16.53088570      20.30162621
H       19.37598038      13.65548801      17.01479912
H       12.02015400      15.59996796      22.11689568
H       17.68053436      17.96598625      15.15506363
H       22.12873459      16.05568695      15.08761787
H       16.13960266      13.39707851      22.03564453
H       21.46372032      16.46893692      17.49314499
H       16.77462387      14.00968456      19.70520401
H       12.56875801      14.99994564      19.66665840
H       17.31962585      17.49358559      17.49709702
C        9.73732185      13.31853771      24.48254776
C       11.01331806      15.87138939      26.77972984
C       14.85334206      18.56867599      27.08034897
C       13.78501987      15.59645271      24.41396141
C       10.56478119      14.15544415      23.78510666
C       10.15287304      16.66852951      27.56602287
C       14.04228878      17.65930557      27.75874901
C       14.50980282      14.75521374      23.60270882
C       11.01269341      13.75966358      22.50740623
C       28.54798317      16.24777412       0.33475828
C       32.53255844      17.91188622       0.55034381
C       15.02712154      15.19032478      22.34341812
C        6.74937820      14.64286423      28.40578461
C       13.92230988      17.26617813      22.74654198
C       17.89898109      17.01821136      22.87422943
C       11.03582764      14.21679592      28.52004051
C       17.49746132      17.37328720      24.13541603
C       11.45784855      14.66391850      27.30572701
C        7.06925964      14.28649235      27.08527184
C       13.40330219      16.88188171      23.94965172
H        9.31837845      13.59315872      25.43071175
H       11.37929344      16.26672554      25.88578606
H       15.06445503      18.39823723      26.02657700
H       13.49522972      15.15747452      25.38697243
H       10.79598331      15.06983376      24.25059128
H        9.84696960      17.58299255      27.07790565
H       13.68695736      16.79857826      27.21599579
H       14.91734219      13.80139160      23.91676712
H       25.80543137      15.59560680       0.29276848
H       13.73204422      18.26408005      22.39744186
H       17.63219452      16.00370216      22.60483551
H       30.07902718      13.20445919       0.34221274
H       16.99567986      16.67195129      24.80613899
H       12.22391033      14.12940598      26.77059937
H        7.59055567      14.97350407      26.45838737
H       12.81093597      17.51968002      24.48176193
C       23.81905937      18.68644905       3.15928769
C       25.17096329      21.59579086       5.77831507
C       28.92899323      23.96097183       5.64612579
C       28.05254555      21.30295753       3.28410792
C       24.68234444      19.52307701       2.50517726
C       24.34562302      22.29658890       6.64338017
C       28.20611954      23.08040619       6.44616365
C       28.73580742      20.42756271       2.45705271
C       25.00165367      19.32106400       1.13117528
C       24.01397896      21.85462761       7.93984175
C       27.94853401      23.38132477       7.81222057
C       28.90056419      20.79337692       1.09602427
C       21.13474655      19.90199471       7.42507458
C       27.79672050      22.95757484       1.45899451
C       31.95337868      22.51510811       1.45823610
C       25.15552902      19.75934029       7.33772087
C       31.64939880      22.90237045       2.71859884
C       25.59141541      20.32175636       6.15700054
C       21.45935440      19.64572906       6.12483597
C       27.63413048      22.57555008       2.79316401
H       23.59775734      18.90825653       4.20306635
H       25.33115959      22.03566742       4.87516308
H       29.31169891      23.64932442       4.66485977
H       27.85320473      21.14446449       4.28284645
H       25.21777916      20.33432770       3.03509021
H       23.97482491      23.24671364       6.36999369
H       27.82263947      22.15825081       5.99015760
H       28.99081802      19.44291878       2.83869982
H       21.44534492      20.77313614       7.93123960
H       27.29343987      23.82363319       1.08061635
H       31.69137764      21.53288460       1.17504036
H       25.44801712      18.72186852       7.61120415
H       31.11176109      22.22239876       3.36888385
H       26.27137184      19.76050949       5.54717636
H       22.21536446      20.29321289       5.65444803
H       27.11396790      23.22029304       3.48575974
C       19.15751648      18.45182800      10.20131111
C       20.12329102      21.24005699      12.81597137
C       24.47594833      23.62785912      12.82975292
C       23.27026749      20.76454926      10.40289688
C       19.91341019      19.33360863       9.50457382
C       19.33310127      22.08371353      13.52205944
C       23.73163986      22.79071999      13.56948376
C       24.01652527      19.98862457       9.53335476
C       20.27552986      19.03007889       8.16949368
C       19.04918671      21.76183510      14.84815407
C       23.35659981      23.15750885      14.88978004
C       24.38059235      20.49854469       8.24038124
C       16.41763115      19.96429253      14.66714096
C       23.24971199      22.63220596       8.87932014
C       27.34178162      22.47016144       8.66220951
C       20.21267319      19.65546417      14.66776371
C       26.96283913      22.78737068       9.92493820
C       20.53332329      20.00565529      13.37897873
C       16.73002434      19.61126518      13.34279251
C       22.90035820      22.07371712      10.07877064
H       18.81391716      18.62289810      11.22795868
H       20.40100670      21.45770454      11.77687073
H       24.75597954      23.38722229      11.84128761
H       23.03527832      20.33545494      11.41026402
H       20.35561371      20.20920563      10.00567532
H       18.94145584      22.94738770      13.09574318
H       23.26567459      21.90322495      13.20925045
H       24.15118027      18.95939446       9.80109406
H       16.87237930      20.88090897      15.09390163
H       23.10331154      23.69499016       8.66481018
H       27.03582954      21.52766800       8.26793766
H       20.43321419      18.70505333      15.14871311
H       26.46760559      22.06659126      10.54435253
H       21.15700912      19.30774879      12.74504852
H       17.26295280      20.27815056      12.71821499
H       22.45128250      22.68758774      10.86125183
C       14.54728031      18.66523170      17.50737762
C       15.85480690      21.61354065      19.95355225
C       19.66312408      23.94528580      19.88227844
C       18.47651100      21.20221901      17.55520630
C       15.28692532      19.48858070      16.74231148
C       15.25947189      22.48004913      20.87399101
C       18.98290825      23.04821396      20.60774803
C       19.22681808      20.31266022      16.81375122
C       15.58705521      19.14620781      15.40985680
C       14.82335567      21.98397255      22.12829781
C       18.72296524      23.40126228      21.98154068
C       19.55140305      20.57423782      15.44861889
C       12.00984764      19.98335457      21.73678017
C       18.27274513      22.66516113      15.65833187
C       22.50068855      22.36893654      15.70034122
C       15.95685196      19.89109802      21.62281990
C       22.08201027      22.78921700      16.93792343
C       16.16357422      20.30600739      20.34966087
C       12.27030182      19.68741226      20.44599915
C       17.96131516      22.40457153      16.95022964
H       14.41845036      18.88438034      18.55668068
H       15.98207569      21.86748314      18.89807129
H       19.88795471      23.69436646      18.86869812
H       18.09965706      20.94573212      18.55693626
H       15.63733482      20.47892189      17.12277985
H       15.01145267      23.42459297      20.53764343
H       18.59817123      22.11075592      20.24531364
H       19.50033951      19.38228416      17.30385208
H       12.46147823      20.88655090      22.11766434
H       17.87762070      23.57511330      15.20153332
H       22.13928032      21.40251160      15.31644821
H       16.19307137      18.88453674      21.96078491
H       21.41889381      22.12014389      17.47003746
H       16.65403366      19.60186386      19.67730331
H       12.81764030      20.41286469      19.84067345
H       17.40105629      23.12650299      17.53270149
C       10.03758240      18.66743851      24.64164543
C       10.83431339      21.60364532      27.03225517
C       14.95946598      23.85663986      26.92223930
C       14.05040932      21.05465126      24.64646530
C       10.88039303      19.44893456      23.90079498
C        9.96773815      22.40055084      27.78141785
C       14.29666233      23.01584053      27.82277489
C       14.83030510      20.22412109      23.85754776
C       11.18538380      19.15309906      22.55856514
C       28.44820786      22.02710724       0.56102222
C       32.69151306      23.40332031       0.55965894
C       15.21904755      20.68758202      22.56923676
C       25.72872734      20.25672340       0.39210314
C       14.05724525      22.82194328      22.96793556
C       17.92652893      22.61160851      22.81146049
C       29.59851265      19.93399048       0.25380927
C       17.64015007      22.93630219      24.10763931
C       11.21041203      20.34167290      27.52468300
C        7.25620270      20.09052086      27.60634804
C       13.68868732      22.40971184      24.23956490
H        9.83725548      19.12486649      25.58494759
H       11.20609951      21.92528152      26.03376198
H       15.35169601      23.40480995      25.98502159
H       13.79342270      20.80140495      25.65938950
H       11.31120014      20.36473274      24.24538612
H        9.72759628      23.34576797      27.39849091
H       14.02144241      22.05256653      27.48168182
H       15.15724373      19.25692177      24.17364120
H       25.96141434      21.15444946       0.95805454
H       13.71176052      23.71862602      22.43439484
H       17.48019409      21.69028473      22.39272881
H       29.88731384      18.98762703       0.67982215
H       17.01105309      22.30736923      24.69607735
H       11.74159431      19.67091179      26.87727356
H        7.72083044      20.83870316      27.01624870
H       13.17122936      23.10291672      24.89765739
C       31.17257118      51.82243729       9.51924038
C       -8.52459526      49.79265213      14.10278225
C       30.77135277      52.30830765      10.75829315
C       -8.09242058      49.37911224      12.86118889
C       31.00514221      51.45380402      11.92191792
C       31.60280418      50.19591904      11.71886635
C       30.48834419      51.85109329      13.17101574
C       31.94369888      49.77101135      10.41804504
C       31.75556564      50.56667328       9.34921837
C       -9.16376019      51.06417465      14.25259209
H       31.10213852      52.49332809       8.61758518
H       -8.45136166      49.04886627      14.92610359
H       30.33453178      53.27714539      10.88556480
H       -7.79923344      48.37042999      12.71408653
H       29.85228729      52.70747375      13.14246559
H       32.42464066      48.77289200      10.26079750
H       32.03925323      50.29826355       8.34851646
H       -9.51379967      51.20036316      15.26311302
C        3.72813082      55.31533432       3.49948931
C        4.65152121      50.71097946       1.57907510
C        2.94923329      54.24008179       3.12127852
C        5.42259598      51.75587082       1.98267710
C        3.48519731      53.02112579       2.68719459
C        4.91230154      52.95145035       2.59735203
C        2.67775965      51.94044113       2.27328610
C        5.70606327      54.06642151       2.91352940
C        5.13085127      55.21354675       3.37971687
C        3.21694994      50.80815125       1.74992716
H        3.24562097      56.19949722       3.84568667
H        4.97881126      49.84272003       1.02143753
H        1.82089221      54.32709122       3.16229057
H        6.48375559      51.67574310       1.90680182
H        1.61196494      52.05982590       2.19326401
H        6.79019833      53.87461472       2.89311552
H        5.77146530      56.02213669       3.72407341
H        2.64485431      50.02943802       1.26378310
C       28.70654297      49.15874100      11.02995682
C       28.64251518      45.86986542      14.91813564
C       28.32518005      49.23027420      12.31525421
C       29.13236427      45.80128098      13.65473175
C       28.48789978      48.10601044      13.22006798
C       29.03178787      46.91063690      12.75787640
C       27.95112228      48.13442993      14.56008148
C       29.52411652      46.89999771      11.42506790
C       29.34172058      47.95149612      10.62933731
C       28.07063103      47.05382156      15.38017464
H       28.63594055      50.02212906      10.32845879
H       28.78628922      45.07703018      15.66598511
H       27.90535927      50.13238907      12.74363899
H       29.54536629      44.82454300      13.30646706
H       27.68599701      49.13047028      14.81095505
H       29.92857361      46.02796173      10.97871590
H       29.72632980      47.95092773       9.59602642
H       27.86738205      47.14357376      16.44823647
C       15.36141682      37.11478424      12.64930344
C       15.62485123      34.74765015      17.01473999
C       14.49998760      36.30122757      13.33093452
C       16.50728989      35.48983002      16.31885529
C       14.89327526      35.81866837      14.55265236
C       16.15881538      36.08634949      15.10032082
C       14.03056049      34.92839050      15.27192402
C       16.90424347      37.08766174      14.45804405
C       16.52727318      37.55310059      13.24091148
C       14.36556149      34.44087982      16.46855736
H       15.18269825      37.49614716      11.63794231
H       15.92510033      34.28200531      17.93409729
H       13.61355972      35.89949799      12.95969009
H       17.60236359      35.58852005      16.60208702
H       13.10960388      34.62654114      14.82801628
H       17.91112328      37.37473679      14.85093784
H       17.23488617      38.18059921      12.67017746
H       13.60205936      33.85939789      17.01787376
C       10.44403648      52.19995880      20.42009163
C       13.52414703      48.31054688      20.06182289
C       10.58417130      51.17068481      19.54907036
C       13.54282570      49.38223648      20.85149765
C       11.57203388      50.20433044      19.70026016
C       12.52285290      50.37080765      20.68756866
C       11.66902542      49.11673737      18.80396271
C       12.46599007      51.51056290      21.58394432
C       11.40964985      52.33263016      21.46097946
C       12.63579750      48.20779037      18.99546623
H        9.63927555      52.93500519      20.46922684
H       14.33956718      47.53491211      20.07673836
H        9.79697514      51.10134888      18.74917221
H       14.37442780      49.46267700      21.56295204
H       11.04319382      49.05196381      17.92588997
H       13.20731354      51.54578781      22.34164238
H       11.25804520      53.21485519      22.08930016
H       12.86705971      47.43817902      18.27789307
C        9.60077572      40.94227600      12.41353989
C        9.75092602      39.07086945      17.17368126
C        8.51534081      40.34536743      13.23863220
C       10.63180828      39.67832565      16.26968384
C        8.97906113      39.70837021      14.53192043
C       10.30228710      39.86806488      14.94225311
C        8.06741238      39.24954987      15.47745991
C       11.37082386      40.25153732      13.95127964
C       10.87079239      41.08517838      12.77988434
C        8.44909573      38.93115616      16.79755592
H        9.26747513      41.55408478      11.59307480
H       10.11301041      38.80776978      18.11461449
H        7.91586304      39.65199280      12.60718536
H       11.61406994      39.93676758      16.59049797
H        6.99286509      39.12683487      15.23171520
H       12.13245010      40.75688171      14.48943996
H       11.58291531      41.63100433      12.15808201
H        7.66456747      38.60223007      17.48612022
C        8.72755528      41.01441956       8.38866425
C        7.73295259      44.71919250       5.17226887
C        8.62801743      41.04621887       7.06738949
C        7.58125782      44.62964630       6.51627016
C        7.87654448      42.13526916       6.33044100
C        7.88641024      43.45076752       7.14751244
C        8.32700348      42.37635422       4.94995785
C        8.13118935      43.40420532       8.48411465
C        8.48890305      42.25386810       9.12299919
C        8.14379025      43.60736847       4.40777826
H        9.12673759      40.12142181       8.91986942
H        7.49881744      45.66218567       4.62288237
H        8.89762974      40.20677948       6.48628139
H        7.37477779      45.53538895       7.13792944
H        8.66930962      41.60553360       4.29204702
H        7.87362385      44.20775604       9.13601685
H        8.59027576      42.29665375      10.20248318
H        8.38840485      43.85967255       3.41010809
C        5.89112473      57.69547272      23.11081505
C        9.93498516      58.61558533      25.90564537
C        7.20968246      57.91461182      22.83625793
C        8.66425610      58.17074966      26.29519463
C        8.19761181      57.94358063      23.90005684
C        7.81323671      57.82538605      25.23711395
C        9.56008911      58.14739609      23.53768730
C        6.47028589      57.43943405      25.44962692
C        5.52450037      57.39957809      24.45035172
C       10.37711143      58.54085159      24.54403687
H        5.19412708      57.82188416      22.33345413
H       10.57795811       0.12595671      26.59324837
H        7.55267191      58.10093308      21.82803154
H        8.35221672      58.09741211      27.34219933
H        9.82820129      58.23100662      22.47770500
H        6.24382877      57.18703461      26.47182655
H        4.47799158      57.23573303      24.67275047
H       11.33765507       0.02356107      24.20776558
C       11.92547417      44.27140045      10.23572350
C       14.20163631      45.85399246      14.31789589
C       11.51044750      44.35604477      11.50347710
C       14.40898037      46.11046600      12.99271774
C       12.34556389      44.94636536      12.47311497
C       13.54889488      45.60482025      12.02116776
C       12.06142998      44.80456161      13.86581802
C       13.88703632      45.53450775      10.65712833
C       13.11581421      44.86872864       9.77575207
C       13.01171112      45.18219757      14.78843784
H       11.29135704      43.75918961       9.50936508
H       14.89479828      46.18368149      15.06057930
H       10.60142708      43.86101151      11.81324196
H       15.36349678      46.53209686      12.67201042
H       11.14937592      44.22229385      14.13343048
H       14.75344086      46.09469986      10.31151772
H       13.40656376      44.82205582       8.74447346
H       12.81962681      45.00029373      15.85201073
C       10.76587677      42.12721634      18.43159866
C       14.78607178      39.63648224      20.17391968
C       10.87492752      41.02989960      19.23299789
C       14.63483429      40.76021957      19.43357468
C       12.21302032      40.52301788      19.56929398
C       13.34699917      41.21021652      19.12783241
C       12.40822601      39.29753876      20.29014969
C       13.16692829      42.30852509      18.20785713
C       11.91198826      42.79284668      17.91999817
C       13.66826725      38.86981583      20.58330917
H        9.74315548      42.39348984      18.17360497
H       15.83146381      39.27262115      20.43156624
H       10.02656460      40.52036667      19.59333992
H       15.47801971      41.36235809      19.22754860
H       11.48354816      38.72726440      20.59974098
H       14.09686947      42.70798492      17.73295403
H       11.79154205      43.63722610      17.24345207
H       13.74768925      37.88599014      21.08254814
C       27.24099731      31.74399757      10.84113789
C       28.55522347      31.79742813       6.00476456
C       27.50893402      30.77909088       9.93503761
C       28.29842758      32.81332397       6.88366795
C       27.85136032      31.12431908       8.60403442
C       27.95311356      32.48966980       8.22008133
C       28.08111954      30.12009811       7.67661571
C       27.71596336      33.48295593       9.20491600
C       27.34010506      33.12425995      10.50258827
C       28.47486496      30.46121407       6.39013577
H       26.95330048      31.51820755      11.87897205
H       28.84855461      31.98665619       4.94753122
H       27.31079292      29.74875069      10.20755100
H       28.33720589      33.84548187       6.59002209
H       27.99080658      29.06318665       7.94755697
H       27.78749466      34.53925323       8.97850704
H       27.16998100      33.97227478      11.20009041
H       28.66459465      29.68320084       5.65626907
C       13.26992893      28.96117020      11.23210907
C       11.80012798      30.76749611       6.78152227
C       12.98856449      28.42137718      10.02431202
C       12.00803661      31.37654495       7.95019817
C       12.69242954      29.23564148       8.89340496
C       12.58585739      30.60522079       9.06355667
C       12.58138466      28.65755844       7.61142778
C       12.99499893      31.16075134      10.29824924
C       13.37007523      30.37951088      11.34472752
C       12.15645313      29.39042854       6.54879236
H       13.44040966      28.34811783      12.11807823
H       11.44748592      31.36546898       5.90695620
H       13.04798412      27.30195618       9.90741634
H       11.87573433      32.49350357       8.04160976
H       12.84423256      27.61771584       7.57447147
H       13.05294895      32.20871353      10.41636562
H       13.76027870      30.90174675      12.25055695
H       12.08636475      28.95536041       5.56536007
C       15.48386955      46.25592422      25.31817627
C       17.62227058      50.06096268      22.85687256
C       15.63157463      46.56409073      24.01420403
C       17.52339554      49.70930862      24.15092659
C       16.33129501      47.70453644      23.60944176
C       16.88967514      48.50933456      24.61029053
C       16.57106209      47.99912643      22.22191429
C       16.74878120      48.16682434      26.02353668
C       16.01186562      47.08230972      26.32500458
C       17.16439629      49.19870758      21.85813713
H       14.91939449      45.40991211      25.56720352
H       18.05801582      51.03208542      22.53290367
H       15.12263966      45.99908066      23.23604393
H       17.89659691      50.33895874      24.97184944
H       16.13729095      47.35134888      21.50380516
H       17.17610550      48.77412033      26.82080650
H       15.84003735      46.74630737      27.33853912
H       17.35179329      49.48378372      20.81979370
C       10.34090996      51.54520416       2.04588580
C        9.14345074      54.97996902       5.51667261
C       10.46527767      52.92037964       2.06926846
C        8.87739944      53.65705109       5.37150621
C        9.92215824      53.63374329       3.17280579
C        9.22660542      52.97692871       4.17889929
C       10.10769081      55.02645493       3.28763771
C        8.94559765      51.64131165       4.02781963
C        9.45114803      50.90938187       2.96683979
C        9.70184708      55.66907501       4.39925432
H       10.68103027      50.98050308       1.20501041
H        9.02998543      55.64291763       6.35667944
H       11.02709484      53.45812988       1.31976390
H        8.33787537      53.09692764       6.14760828
H       10.54524517      55.61208725       2.47170711
H        8.23759556      51.06311035       4.69402218
H        9.14754772      49.88929749       2.84354377
H        9.96078968      56.69443130       4.55571175
C       24.84566689      34.34125137      18.79076767
C       24.96973228      34.32582855      13.79737377
C       24.90760612      35.33247375      17.84042549
C       24.78055382      33.32056427      14.68028259
C       24.80189896      35.00484848      16.46253777
C       24.68834114      33.65778351      16.06281281
C       24.90300369      36.03759384      15.45864201
C       24.59828567      32.66983795      17.09374619
C       24.72321892      32.97545624      18.41104126
C       24.99889565      35.63749313      14.17543411
H       24.93284416      34.51319504      19.86967468
H       25.15505981      33.99446106      12.80827713
H       25.07079697      36.38335037      18.10228348
H       24.82751083      32.30236435      14.29899883
H       24.91678429      37.11925507      15.70258522
H       24.57034683      31.59028244      16.87018776
H       24.46813965      32.23051453      19.15253639
H       25.08902168      36.39057541      13.40151787
C       13.07207584       0.18477452      20.79141617
C       16.84932709      55.78442764      20.61438942
C       14.36875629       0.26097664      20.30361176
C       15.58715439      55.71776962      21.12076187
C       15.20544624      58.03223419      20.33024025
C       14.72879219      56.86402512      20.87040138
C       16.49418259      57.98194504      19.71110153
C       13.37764072      56.82553101      21.43279839
C       12.58396626      57.95116043      21.41794395
C       17.26845169      56.88644409      19.81756210
H       12.42536736       1.04169858      20.82036018
H       17.57127190      54.97749329      20.70249939
H       14.68662643       1.19012666      19.82610703
H       15.09385586      54.97258377      21.67603302
H       16.79472923      58.72730637      18.98111725
H       13.00387192      55.84630585      21.83379364
H       11.59796143      57.84076691      21.80361176
H       18.16044426      56.86815262      19.21348190
C       25.93988991      52.97520828      12.27497196
C       26.26790810      51.80062485      17.19857979
C       25.95324135      53.73867416      13.38393307
C       26.04643440      51.11763000      16.03966141
C       26.05523109      53.10346222      14.66742706
C       26.01412582      51.71044922      14.76086521
C       26.09681702      53.84199905      15.86124325
C       25.81084633      50.95529556      13.56038284
C       25.84680939      51.53264236      12.31688023
C       26.20741844      53.23301315      17.11542320
H       25.99084282      53.45770264      11.32334805
H       26.34112167      51.29537201      18.16726112
H       26.03642273      54.80513000      13.19512463
H       25.91979980      50.05101395      16.15469551
H       26.01781273      54.91659164      15.78800392
H       25.77065468      49.86300659      13.62557411
H       25.83849907      50.87834930      11.38665676
H       26.40612793      53.77030563      18.06942558
C       21.85142517       0.40752816      16.48727608
C       20.38254166      54.55863190      15.91148567
C       21.56850052      58.33639526      17.39199638
C       20.77590370      55.53535080      15.08747101
C       21.25536156      57.02989960      16.93619537
C       21.22345543      56.75811386      15.58230019
C       20.82262039      55.97423553      17.82432175
C       21.35440636      57.87057877      14.70520592
C       21.77806091       0.15720126      15.13389015
C       20.40468025      54.78945541      17.29313469
H       22.12543869       1.37666690      16.84385872
H       20.05106544      53.55580139      15.59975052
H       21.63929558      58.50808334      18.43698502
H       20.64673996      55.44819260      14.03028870
H       20.68250656      56.12309647      18.89050293
H       21.02859306      57.74721527      13.64698124
H       21.84784508       0.96591967      14.42262459
H       19.99158478      54.02367020      17.90029335
C       23.72419167      28.62542725       2.63265085
C       27.37697220      31.73684311       1.06423509
C       24.21529007      28.92054749       1.36989212
C       26.92170334      31.37092781       2.30666161
C       25.26399422      29.84748268       1.22455513
C       25.82026100      30.43402290       2.38958502
C        6.91211271      30.32321739      28.46965408
C       25.29044724      30.07385445       3.66049957
C       24.29674149      29.14192963       3.78771806
C        7.96251917      31.21538734      28.43283272
H       23.10003090      27.73757744       2.71566677
H       28.24718666      32.43564606       1.00568819
H       23.81418419      28.40088463       0.50348502
H       27.30901718      31.83959770       3.26185608
H        6.52177286      29.99064827      27.52863693
H       25.72126579      30.55865097       4.54818678
H       23.97250557      28.82087708       4.76754999
H        8.33131313      31.52212524      27.42771530
C       22.91757202      39.15981674      16.11509514
C       23.69851112      43.58349609      18.40599442
C       22.71188164      40.49694443      15.78159904
C       23.80765343      42.25374985      18.79590988
C       23.14521599      41.53477478      16.57917023
C       23.58598709      41.21209717      17.87052536
C       22.95262718      42.87129211      16.21592522
C       23.79250145      39.83629608      18.21419334
C       23.48109817      38.80585098      17.37466049
C       23.26708221      43.88748169      17.10053253
H       22.62613487      38.40977859      15.39042759
H       23.92120552      44.38108063      19.17931557
H       22.05133057      40.63174057      14.93170929
H       24.01063538      41.97967529      19.87020111
H       22.78289986      43.28749084      15.12361622
H       24.28130913      39.66105652      19.14118958
H       23.59456062      37.74940872      17.70057487
H       23.23215294      44.91579056      16.74078369
C       -5.21535826      37.31008530      20.82286263
C       -2.68310237      34.61399078      17.41628647
C       -5.12741995      35.98643875      20.55740547
C       -3.02960682      35.91576004      17.49427605
C       -4.37530804      35.46297455      19.45879745
C       -3.85690784      36.41110992      18.51991272
C       -4.03947163      34.07087326      19.30049706
C       -3.91111732      37.82052612      18.86503220
C       -4.58453369      38.24398804      19.98024368
C       -3.15070128      33.66082764      18.36330795
H       -5.79162216      37.71982574      21.66200066
H       -2.01493526      34.23490906      16.59881210
H       -5.57307148      35.24282074      21.26840401
H       -2.74936128      36.62372208      16.74552155
H       -4.30414295      33.36025238      20.11952782
H       -3.46328783      38.60140228      18.22523308
H       -4.66856909      39.29710770      20.19278908
H       -2.92887664      32.62002563      18.35415649
C       13.95929432      42.25786209      13.67271709
C       18.55828476      42.21187592      15.82306099
C       14.48430252      41.50205994      14.81153107
C       17.96928787      42.87259293      14.72809505
C       15.88129234      41.86692429      15.28568363
C       16.62903404      42.74147797      14.46327019
C       16.47578430      41.28786850      16.41610527
C       16.05707359      43.28232956      13.28397369
C       14.80318928      42.95596313      12.85318947
C       17.78027153      41.46994400      16.66429901
H       12.89937496      42.10961151      13.40894604
H       19.58682060      42.36536026      16.02430153
H       13.75229359      41.34575653      15.64153767
H       18.58199883      43.47764206      14.05907249
H       15.92273998      40.69460297      17.13887405
H       16.67773056      43.93489838      12.62726498
H       14.40255356      43.29841232      11.91165829
H       18.20984268      40.99030685      17.51441956
C       -9.45147324      50.14107895      25.15557861
C       -9.67012596      45.20912170      26.02527809
C       -8.50503254      49.24086380      25.46729088
C      -10.62888622      46.17091370      25.96374130
C       -8.89577961      47.85890198      25.66898155
C      -10.24220467      47.49535751      25.64594650
C       -7.92301035      46.83579636      25.75613594
C      -11.14577007      48.49541855      25.28520012
C      -10.76167393      49.78597260      25.01707840
C       -8.30505085      45.54899597      25.91397858
H       -9.11624146      51.14229584      24.97612190
H       -9.96062660      44.17284775      25.99082565
H       -7.48568487      49.56031036      25.55422401
H      -11.68313408      45.94125748      26.09849167
H       -6.91092157      47.16385269      25.65092850
H      -12.17783642      48.29337692      25.37085533
H      -11.57385635      50.52882767      24.89815331
H       -7.56166792      44.70565033      25.91217804
C        3.61185622      44.14339447      17.29903793
C        1.22195029      47.08103561      14.15145874
C        3.70981860      45.47256088      17.02545166
C        1.08213425      45.77146912      14.41611767
C        2.83981729      46.02468109      16.06699562
C        1.84066403      45.17047119      15.46091557
C        2.95378351      47.39140701      15.71420765
C        1.75572455      43.79982758      15.78756905
C        2.61075521      43.35289383      16.73917389
C        2.11757636      47.91230011      14.78998184
H        4.32637215      43.60072708      17.93651772
H        0.61199844      47.46697235      13.35004234
H        4.48637819      46.14122391      17.47064781
H        0.35586110      45.20740891      13.88957024
H        3.76500082      47.87252045      16.21690369
H        1.05298495      43.15412903      15.34684849
H        2.56455040      42.30745697      17.08940887
H        2.16755843      48.90543747      14.43227196
C        5.73834038      56.65981674      16.36838531
C        1.09305465      58.89802551      16.53429222
C        4.78068209      56.99776077      15.40797424
C        1.98472846      58.41772461      17.48632431
C        3.58983636      57.61986160      15.83898258
C        3.26871753      57.88003540      17.17913055
C        2.68429232      58.19379425      14.88627052
C        4.29205418      57.53182983      18.11306190
C        5.47179079      56.97613907      17.71327782
C        1.51086473      58.79121017      15.18948174
H        6.67334127      56.18489075      16.03784561
H        0.10740203       0.38060108      16.86868858
H        4.92091417      56.55552673      14.39436531
H        1.65835226      58.41527176      18.51457596
H        2.97981238      58.05490875      13.85823250
H        4.11593676      57.77556610      19.12861252
H        6.30129147      56.79552841      18.41581917
H        0.90956193       0.28539160      14.39354610
C       16.70624352      42.77067566      25.35433197
C       21.40282249      41.10934067      25.14295387
C       17.87220001      43.41086578      25.63328934
C       20.20590591      40.58203888      24.72472763
C       19.07939720      42.71905899      25.38823318
C       19.04580688      41.37424088      24.89125824
C       20.35626411      43.20454025      25.81121635
C       17.77637100      40.81082535      24.57471085
C       16.62050438      41.49382782      24.81284714
C       21.45912552      42.39034653      25.71708107
H       15.76775360      43.31568146      25.56157684
H       22.37432098      40.62784195      25.01827049
H       17.82419586      44.41282654      26.14343262
H       20.15264893      39.65004730      24.17447090
H       20.32799721      44.26890564      26.25004768
H       17.77670479      39.77954483      24.15724754
H       15.66433907      41.05141830      24.58027458
H       22.36683655      42.84724808      26.09021759
C       14.52939987      31.06629181      19.79145432
C       13.61073017      28.39834785      15.57640553
C       15.20222092      30.91919327      18.62171555
C       12.88186646      28.65014267      16.72962570
C       14.65465927      30.19596672      17.52432632
C       13.40741825      29.53034973      17.72670555
C       15.38209915      29.92412376      16.32809830
C       12.68058586      29.77386093      18.95765686
C       13.26926613      30.49149895      19.98871231
C       14.82992077      29.07190895      15.36938763
H       15.01240349      31.49849129      20.66280556
H       13.20253181      27.76388741      14.78356647
H       16.20177841      31.27784729      18.47713280
H       11.91491699      28.29659271      16.82078743
H       16.32701302      30.39376831      16.08427238
H       11.72055817      29.25846291      19.06714821
H       12.92085266      30.52906418      21.05248833
H       15.43891907      28.82957458      14.50053596
C      -16.78280449      51.80450058      25.58246040
C      -14.03601456      56.01144028      25.70606422
C      -16.19712067      52.57067490      24.60469437
C      -14.67259407      55.28552628      26.66020012
C      -15.51037979      53.75576019      24.96109581
C      -15.43336487      54.09352493      26.31496620
C      -14.81562710      54.48220062      24.01337433
C      -16.03588486      53.26989746      27.32776833
C      -16.73149490      52.11795044      26.95702934
C      -14.03861332      55.56172943      24.32031059
H       22.29988670      50.98240662      25.33623505
H      -13.67405415      56.96991730      25.99790764
H       23.47230911      52.32107544      23.54184532
H      -14.64274693      55.62521744      27.75725937
H      -14.83081150      54.18106842      22.96830750
H      -15.87928867      53.48290634      28.39250755
H      -17.36288261      51.57176209      27.65233421
H      -13.48133659      56.01321793      23.52436447
C       -7.52587366      30.09270096      21.90324211
C       -4.39217997      30.35495377      17.88278770
C       -6.58697319      29.26797295      21.35993576
C       -5.41819668      31.16994858      18.35267448
C       -5.79561234      29.62587547      20.23386002
C       -6.05614567      30.83950043      19.58107758
C       -4.68241501      28.85686493      19.79267693
C       -7.09818506      31.68273926      20.14389229
C       -7.75660419      31.34279633      21.27201462
C       -3.97332740      29.20180702      18.64021492
H       -8.05555630      29.92567635      22.79543686
H       -3.88679624      30.66399956      17.00602722
H       -6.46726418      28.24060440      21.78530121
H       -5.75589561      32.02856445      17.75225067
H       -4.53222656      27.93161964      20.33061790
H       -7.30974102      32.61252975      19.62101936
H       -8.42890358      32.04380035      21.78040504
H       -3.17401457      28.56219673      18.18308830
C        3.69095421      46.68908691      12.05468082
C        2.96749449      47.87292862       7.11487055
C        3.70725322      45.92988968      10.88521767
C        2.90317774      48.58212280       8.25174427
C        3.55578160      46.58454895       9.58913612
C        3.30479479      47.92746735       9.47990322
C        3.63466859      45.88672256       8.34629536
C        3.36903548      48.71152496      10.66353226
C        3.55130839      48.08178329      11.89770031
C        3.38119435      46.52990723       7.19918394
H        3.93075633      46.26277924      13.01330948
H        2.66054749      48.33880615       6.11680317
H        3.78826451      44.80603027      10.80264664
H        2.63005495      49.63177109       8.36625671
H        3.81255913      44.82954788       8.31585026
H        3.20121217      49.78430176      10.68647957
H        3.66088533      48.75011444      12.77904224
H        3.25447726      45.92892456       6.32540274
C        0.09585699      35.27422714      25.61742783
C        0.71532392      39.73887253      23.42051888
C        0.02812345      36.54617310      26.08568954
C        0.63794518      38.45524597      22.94858742
C        0.22110137      37.61454010      25.19325829
C        0.36363721      37.37431335      23.82478714
C        0.34905392      38.97119522      25.66815758
C        0.45842543      36.03740311      23.38810158
C        0.41319552      35.01620865      24.29772568
C        0.64010733      40.00634003      24.82030296
H       -0.04157679      34.46785355      26.33099174
H        0.97820097      40.58601379      22.83398247
H       -0.07243116      36.81837463      27.12696457
H        0.80345213      38.26805496      21.88867950
H        0.33874929      39.14947128      26.75106239
H        0.69664258      35.93314743      22.32977486
H        0.46847925      34.08853531      23.80022430
H        0.88122386      41.00159073      25.20722961
C       32.47277451      39.23474121       1.00198770
C       27.74522972      40.44438934       2.33462524
C       31.23663330      38.64112473       0.79421937
C       28.88473701      41.18808746       2.22972631
C       30.01872063      39.26191330       1.19607639
C       30.08258629      40.58807373       1.68484223
C       28.78668594      38.60517502       1.15083420
C       31.36853981      41.17337799       1.89560723
C       32.56377792      40.50548935       1.65519166
C       27.69721413      39.14672470       1.77453780
H       33.38024139      38.60804367       0.83141404
H       26.86790657      40.88247681       2.85380435
H       31.14958763      37.63023376       0.39552441
H       29.00790024      42.24002838       2.57739544
H       28.76480293      37.63030624       0.65199947
H       31.39020157      42.07883835       2.48772645
H       33.57349396      40.75693130       1.99045384
H       26.82646179      38.51037598       1.99845147
C        9.29045868      55.16399765      26.52600479
C       32.55320358      54.14964294       0.01694224
C       10.49575520      54.87275314      26.02140236
C       31.35159683      54.30125046       0.58072859
C       11.58649635      54.52312851      26.85363579
C       11.38146496      54.48397827      28.27277946
C       12.88492393      54.20967865      26.22393036
C       28.88877678      54.78776169       0.27153379
C        9.07608414      55.12530136      27.92294312
C       13.98417759      54.23451233      27.20371437
H        8.44752884      55.36248016      25.92457390
H       33.42123413      54.02327347       0.66356826
H       10.69362164      55.06224823      24.92807770
H       31.20590973      54.48631668       1.64197338
H       13.01786327      54.88352966      25.36107826
H       28.89413834      54.83341217       1.38116431
H        8.07597637      55.34155273      28.23785210
H       15.00599384      54.31742096      26.89582252
C        2.44872856      58.15119171       1.61471534
C       -1.35245252      56.64141846       4.55944490
C        1.98560464      58.54223633       2.81540847
C       -0.79903460      56.17662048       3.40150237
C        0.92305481      57.86706161       3.42079306
C        0.34972793      56.75359726       2.82763028
C        0.30987942      58.36544800       4.65674591
C        0.92328531      56.37438583       1.63333416
C        1.92547905      56.98574829       0.99275577
C       -0.76342088      57.73486328       5.20445013
H        3.21617579      58.69807816       1.00593698
H       -2.24347544      56.16890717       4.93981028
H        2.30933428       0.49992287       3.32363796
H       -1.26954675      55.30048752       2.97205210
H        0.67921382       0.31489274       5.20967674
H        0.49785858      55.51406097       1.12179196
H        2.33002830      56.66195297       0.04232274
H       -1.19054306      58.13758850       6.13778543
C       33.30487061      56.96519852       3.63512206
C       29.88650703      56.44919205       7.28410435
C       32.96012878      57.73764420       4.68510151
C       30.36570930      55.62497330       6.32163763
C       31.94744682      57.32563400       5.60140944
C       31.36134529      56.07925415       5.39752293
C       31.34182549      58.22622681       6.59838009
C       31.82064819      55.24155808       4.38050556
C       32.72810745      55.70713425       3.48524547
C       30.33878136      57.81866074       7.36327744
H       33.99107361      57.37092590       2.89608860
H       29.12787437      56.12612915       8.02873898
H       33.38274002      58.72594452       4.75962830
H       29.91245270      54.71122360       6.12626553
H       31.65226555       0.28433895       6.65563536
H       31.30586433      54.30394363       4.25073528
H       32.98571014      55.12448883       2.62319016
H       29.97834969      58.55022049       8.10193253
C       16.63146973      27.97354317      10.62641430
C       19.04310036      28.38630104       6.25356627
C       16.21825981      28.39116287       9.37930202
C       19.45302200      27.88057899       7.43670893
C       17.12715721      28.39062500       8.32647038
C       18.51229858      27.97711563       8.53754807
C       16.79711151      28.88247871       7.03521681
C       18.94510078      27.73311806       9.88322258
C       17.97039986      27.71512222      10.85845470
C       17.74563026      28.95040894       6.09228420
H       15.95739555      27.91292381      11.46930981
H       19.67538643      28.53421402       5.40736055
H       15.22911930      28.77202988       9.20254993
H       20.50144958      27.65128517       7.64468718
H       15.87286186      29.29085350       6.71910858
H       19.95217514      27.52583504      10.14482689
H       18.21036530      27.37376213      11.85513115
H       17.42301178      29.35309029       5.17984962
C        2.01037765      33.22017288      27.86936569
C       22.52103996      33.43227768       4.05056858
C        3.10562325      32.68548584      28.47885704
C       21.30874634      33.68425369       3.49330354
C       22.11182022      32.80115128       1.34664726
C       21.13362122      33.39439392       2.16229749
C       23.30483818      32.41931534       1.95255589
C       19.92562103      33.78919601       1.51149094
C       19.79813194      33.77736282       0.15049861
C       23.50773048      32.73252106       3.30188370
H        1.89182127      33.21405792      26.77445221
H       22.77838135      33.57228470       5.04381466
H        3.93819380      32.22127533      27.90331650
H       20.51609039      34.11388779       4.05995321
H       24.10633850      31.95868874       1.36250293
H       19.15471649      34.14234543       2.14824510
H        0.07930025      34.14240646      28.23437500
H       24.44910431      32.54804611       3.83932424
C       -5.65901899      45.01566696      18.35439873
C       -2.91228032      41.01179504      19.46658325
C       -5.37670183      44.41954803      19.54115868
C       -3.27554512      41.59292221      18.33093452
C       -4.54062176      43.25539780      19.56727600
C       -4.08811045      42.75524521      18.32192421
C       -4.06206656      42.67119217      20.75187111
C       -4.57681370      43.32157135      17.10427284
C       -5.25347281      44.49649048      17.10552406
C       -3.25570703      41.54134750      20.72989655
H       -6.19737101      45.92480469      18.34137344
H       -2.36893463      40.06982803      19.43596458
H       -5.79055786      44.88224792      20.47540092
H       -3.03757429      41.15557098      17.39724922
H       -4.34372807      42.97796249      21.76062012
H       -4.35622501      42.80641556      16.18615341
H       -5.50689507      45.01088333      16.21648979
H       -2.85052252      41.03069305      21.59602737
C       36.08981705      53.27776337       2.35407758
C       34.42556000      52.05651093       6.87033606
C       35.86671829      52.08573151       3.02284694
C       34.54251862      53.26732254       6.27024698
C       35.38766861      52.03092957       4.36151409
C       35.10909271      53.28687668       4.95775175
C       35.30665207      50.77269363       5.05277061
C       35.43386459      54.47830582       4.24419546
C       35.96658707      54.47793961       2.99445319
C       34.81586456      50.83271027       6.29146004
H       36.37392044      53.28230286       1.34928977
H       33.96176910      52.05639648       7.84083176
H       35.85355377      51.13845444       2.49879360
H       34.22055435      54.22178268       6.67954731
H       35.70095062      49.88526535       4.59578848
H       35.25791931      55.41928482       4.78722906
H       36.26005173      55.35144806       2.52199435
H       34.74607849      49.92724991       6.86884165
C       17.80929565      30.49079323      27.72777748
C       12.93276882      30.87278557      26.45152283
C       16.85116959      29.53285599      27.57903671
C       13.94217873      31.78317070      26.70188713
C       15.55943966      29.95901489      27.14049721
C       15.22105885      31.33772469      27.05401993
C       14.50587559      29.03934288      26.94889259
C       16.24354935      32.28315353      27.28168869
C       17.49294662      31.86541557      27.60390282
C       13.28312016      29.49723434      26.59544945
H       18.76214981      30.15745544      28.05377579
H       11.95761585      31.22273827      26.21203613
H       17.02488327      28.47523689      27.64310265
H       13.72903442      32.88756561      26.71170616
H       14.61448765      27.98444176      27.13239670
H       16.05598259      33.37823486      27.19541931
H       18.24629211      32.67094803      27.69068146
H       12.42090893      28.79000854      26.63673401
C        0.85352862      29.56392479       9.49139690
C       -0.86020613      31.02269554       5.06296921
C        1.38541472      29.49251556       8.28580284
C       -1.36815894      31.06363487       6.32906628
C        0.77535969      30.13562012       7.16427660
C       -0.54084849      30.68909073       7.43716192
C        1.23580575      30.15621185       5.81285000
C       -0.99655122      30.91764450       8.79265499
C       -0.28399503      30.32803726       9.77780914
C        0.44756269      30.55585098       4.79519129
H        1.30461800      29.05227470      10.34999752
H       -1.49934888      31.27891159       4.20352364
H        2.26432848      28.90102768       8.09456348
H       -2.39254117      31.44795609       6.52005434
H        2.27215385      29.84393501       5.62673664
H       -1.98666334      31.39783096       8.87701797
H       -0.63679683      30.35445976      10.80438232
H        0.74521887      30.51023865       3.78750181
C       16.17608070      35.27938461      10.08581257
C       16.56173897      32.80030441      14.39787292
C       15.32458115      34.47213745      10.81227112
C       17.33693123      33.73296356      13.81181526
C       15.74610710      33.85557938      12.02203465
C       16.98031616      34.18206024      12.55571365
C       14.87866116      32.99901962      12.76272774
C       17.83778954      35.10372162      11.84885979
C       17.40060616      35.60681152      10.65491486
C       15.28711319      32.45377350      13.91933441
H       15.96705341      35.74489212       9.11095619
H       16.87008095      32.33607864      15.33992004
H       14.42854404      34.03418350      10.42338467
H       18.27369499      33.99406433      14.29695320
H       13.88083458      32.89553070      12.41816330
H       18.85682678      35.30453110      12.20781136
H       18.01762199      36.26751328      10.03431225
H       14.68239689      31.79775810      14.47129631
C       -3.03710127      49.09342575      10.93210983
C       -4.02924824      44.71536255      13.21845722
C       -2.49123931      48.42947006      12.05841637
C       -4.63693190      45.40107727      12.21948433
C       -3.01037240      47.24124146      12.47963142
C       -4.10781336      46.61167526      11.74398041
C       -2.55041957      46.55437469      13.64842701
C       -4.52358198      47.22792816      10.57713509
C       -3.99941516      48.45280075      10.14285374
C       -2.99809694      45.30122375      13.96513271
H       -2.67308211      50.09672165      10.78273487
H       -4.45484114      43.75485611      13.53022575
H       -1.77289200      48.91015625      12.72490692
H       -5.44424534      44.99185562      11.58480358
H       -1.78397942      46.93499374      14.23078823
H       -5.21949053      46.67617798       9.95139885
H       -4.37276649      48.93120193       9.26037693
H       -2.53492475      44.68439102      14.74153519
C       22.24741554      43.27776718       7.52682543
C       23.64218903      39.90989304       4.06956863
C       21.69625664      42.16316986       7.02805948
C       24.25735092      40.98106766       4.61595058
C       22.30347061      41.42028427       5.98966455
C       23.61843109      41.84735107       5.55666637
C       21.73855782      40.26278305       5.44632626
C       24.18726921      43.01562500       6.10753727
C       23.54157829      43.73086166       7.07160950
C       22.34089279      39.50053024       4.52307558
H       21.86488724      43.72660828       8.44062328
H       24.12946320      39.27584839       3.29487419
H       20.71416283      41.80576324       7.39541340
H       25.24026871      41.25582123       4.16523504
H       20.71055412      39.95810699       5.72491932
H       25.12964439      43.33855057       5.75936270
H       24.06682587      44.52426910       7.53534794
H       21.85065079      38.65890121       4.07600164
C        8.13505363      53.55479813      16.44963455
C        4.00892448      52.20957184      18.93574333
C        6.78213358      53.62024689      16.18589020
C        5.33862019      52.05324936      19.23035812
C        5.80194998      53.10540009      17.06845474
C        6.28567648      52.50958633      18.25934601
C        4.42567301      53.26625061      16.80477333
C        7.70742989      52.53644180      18.51884460
C        8.64105892      53.04980469      17.68840981
C        3.52564669      52.83058548      17.71823311
H        8.84021378      53.89826965      15.77670765
H        3.28405166      51.94648743      19.74889183
H        6.48093987      54.05524445      15.23891640
H        5.69263887      51.66304398      20.19197273
H        4.06547976      53.84733963      15.94377422
H        7.95784760      51.97292709      19.44891357
H        9.69670963      53.02804565      17.81265450
H        2.49203420      52.96836472      17.63544273
C        3.62312603      42.01632690      14.10400391
C        7.44009209      43.47068024      17.10494995
C        4.36077976      43.22452927      14.15643501
C        7.25036144      42.24697876      16.25782776
C        5.33910370      43.36865234      15.13953972
C        5.82535124      42.19173050      15.80340195
C        5.97737646      44.59008408      15.53590584
C        5.07571840      41.00863266      15.71408844
C        3.93225169      40.93866348      14.87825489
C        6.86960220      44.62536621      16.64816856
H        2.74360991      41.91597366      13.46784496
H        8.05722618      43.46397781      17.94558716
H        3.90318942      44.16037369      13.70334530
H        7.63770533      41.30317307      16.70173836
H        5.62196541      45.49153137      15.05376434
H        5.35387182      40.13335800      16.27341270
H        3.30880928      40.07358170      14.84174061
H        7.15205908      45.55287170      17.13801765
C       15.05551720      45.63584900      17.78411865
C       17.65192223      42.72264481      20.92491341
C       14.80451107      45.19998550      19.08908081
C       17.86442184      43.21722412      19.63681412
C       15.82872105      44.46761703      19.74676704
C       16.99886894      44.13245392      19.03742409
C       15.68785191      43.98228836      21.05300140
C       17.23638535      44.71701050      17.75265121
C       16.29268265      45.50233078      17.16533279
C       16.60663986      43.16382217      21.64697647
H       14.29520893      46.21488571      17.17990303
H       18.34292412      41.95079041      21.27865219
H       13.80484104      45.31038666      19.51748848
H       18.68550491      42.87009430      19.05405235
H       14.76388264      44.29938507      21.55845070
H       18.18992996      44.45149612      17.29630661
H       16.46352386      45.95544815      16.18839645
H       16.46971321      42.84292603      22.66535187
C       34.60720825      34.38936996       1.14587510
C       18.04443932      37.82125092      26.71312332
C       35.89815140      34.72297668       0.91749334
C       16.70761108      37.44224548      26.89268112
C       36.20238876      35.81967926       0.02204101
C       16.37155914      36.43498611      27.81225777
C       18.75971222      36.15207291      28.34661484
C       15.01431942      36.10891724      28.05012512
C       33.56782150      35.10031509       0.47849068
C       19.06989098      37.16275406      27.44573402
H       34.34035873      33.58399963       1.82680333
H       18.25224113      38.68244934      26.16148758
H       36.75483322      34.28782272       1.43935156
H       15.87188435      37.93743515      26.36864471
H       38.34878540      35.66820908       0.40690699
H       14.26345539      36.56608582      27.51685905
H       32.56729126      34.80172729       0.59408849
H       20.13423538      37.44268417      27.19525719
C       23.33536339      46.51745987      21.33761597
C      -13.77661419      50.55104065      22.60555077
C       24.19446754      47.32282639      20.73251724
C      -14.81816387      49.87404251      23.25112534
C       24.66237640      48.51047134      21.26871681
C       24.30734825      48.81590652      22.58237076
C       25.62694550      49.27299500      20.58636284
C       23.38831139      47.93075562      23.28041458
C       22.95769882      46.80823517      22.67946815
C      -13.48776340      50.26345825      21.23921585
H       22.96402550      45.59873962      20.81108093
H      -13.18252182      51.25582123      23.21813393
H       24.44345093      47.03060150      19.73243904
H      -15.24643803      50.08864975      24.24025536
H       25.75925827      49.10401916      19.54345322
H       23.17251587      48.01242447      24.35454178
H       22.36729050      46.04146957      23.26768494
H      -12.60882568      50.76629257      20.78185081
C        8.89541912      48.15942383       5.91543007
C        6.64046049      51.74326706       8.54892540
C        7.60901451      48.23823166       6.35864210
C        7.91224384      51.53004456       8.09554386
C        7.26981926      49.43029404       7.06226730
C        8.24534988      50.41144943       7.30369854
C        5.95403671      49.66514587       7.52805614
C        9.57050610      50.20098877       6.84756565
C        9.89153957      49.12393188       6.10510731
C        5.61688328      50.84322357       8.14418602
H        9.16990662      47.25078201       5.41152000
H        6.40809393      52.56081390       9.22607040
H        6.80260754      47.46381378       6.24727392
H        8.71960258      52.22975159       8.31431961
H        5.20605230      48.90860748       7.33890629
H       10.28856564      51.00083160       7.21277380
H       10.93669987      48.98873901       5.82314062
H        4.56631804      50.95545959       8.40497208
C       -3.16581488      39.91616821      15.32737160
C       -0.30383360      41.35292435      11.42899799
C       -2.48406363      41.03003311      15.03551960
C       -1.07675159      40.25200272      11.65822315
C       -1.79504573      41.20267868      13.80993176
C       -1.80416226      40.12696457      12.87928295
C       -0.99685627      42.35118484      13.56798267
C       -2.44275332      38.90251923      13.24667168
C       -3.11272883      38.78508759      14.44189262
C       -0.23808426      42.41963577      12.43145657
H       -3.68351603      39.73059845      16.27479362
H        0.23477347      41.47208786      10.51869583
H       -2.46755242      41.86919403      15.69043732
H       -0.96084249      39.34225464      11.12336731
H       -0.97196680      43.21857834      14.27213192
H       -2.43722773      38.09466553      12.52134323
H       -3.62114215      37.86045456      14.74954700
H        0.45360595      43.24538422      12.27142334
C        7.38789654      45.60512161      23.26571846
C       12.20806599      44.54756546      24.26891518
C        8.17807007      44.47450638      23.35876465
C       11.40149879      45.77262497      24.61243629
C        9.40390301      44.45720673      23.98069572
C        9.95925713      45.69588470      24.20241928
C       10.19252872      43.13225174      24.06596565
C        9.18896103      46.84995270      24.11631584
C        7.83852339      46.79902267      23.72327232
C       11.49201012      43.32092667      24.87148476
H        6.40856028      45.40563965      22.84607506
H       13.22463894      44.58872986      24.69873428
H        7.77117729      43.53252029      23.01487160
H       11.90189934      46.65644836      24.19729424
H        9.48361397      42.45137024      24.58543968
H        9.52616215      47.74353409      24.49728775
H        7.23585558      47.73039627      23.78491402
H       12.16280079      42.49716187      24.68035126
C        1.58836377      34.88835144       9.52285099
C        4.23385143      30.79699135       8.21554852
C        2.07319593      33.79423523      10.20069981
C        3.81447506      31.93052864       7.53396320
C        2.71622348      32.76455307       9.48470211
C        2.94642854      32.86798477       8.12806797
C        3.23542047      31.63085747      10.17354393
C        2.41595912      34.00265503       7.43102789
C        1.77711177      35.00112915       8.10352707
C        3.89702559      30.61953354       9.58518696
H        1.07585645      35.69161224      10.05481338
H        4.79859495      30.05646515       7.66058254
H        1.92634571      33.72090530      11.26931667
H        3.93027711      31.88903618       6.44911194
H        2.99110937      31.48794365      11.16867352
H        2.46096659      33.93067169       6.29868507
H        1.30622625      35.82634354       7.53445864
H        4.10510969      29.63999558      10.06537151
C       18.81452370      31.51782799       3.42253280
C       20.99040222      31.12038803       7.97085524
C       20.04656219      31.10789490       3.89670157
C       19.72292137      31.46562767       7.58648920
C       20.32576370      30.98573303       5.27372408
C       19.37391281      31.46012306       6.21295214
C       21.66317749      30.67268753       5.69382238
C       18.09872437      31.81159019       5.72565985
C       17.83202362      31.87057877       4.41080427
C       21.95118141      30.70485878       7.03288364
H       18.55019188      31.43139076       2.35938811
H       21.23176765      31.08933640       9.01380444
H       20.80751801      30.67155838       3.24850678
H       18.92674255      31.73250580       8.28752136
H       22.36718369      30.36027527       4.90389204
H       17.36688995      32.16903305       6.41726637
H       16.86794472      32.18085480       4.04511976
H       22.90556526      30.42859650       7.36153316
C       30.51887703      36.56118393      11.50709248
C       31.23152924      32.86046600       8.22559738
C       30.50059509      35.19870377      11.61704636
C       31.25836945      34.19735336       8.07535172
C       30.71286964      34.45395660      10.44386387
C       31.04235458      35.07023621       9.20477867
C       30.68562508      33.03344345      10.50840664
C       31.23484230      36.46330261       9.18202305
C       30.86499214      37.19510651      10.27156544
C       30.94871902      32.23272705       9.45333290
H       30.34130478      37.09520340      12.44289684
H       31.28298378      32.19623184       7.36448050
H       30.30739784      34.66478348      12.55881691
H       31.58867836      34.63481903       7.17917728
H       30.61024094      32.59138107      11.49255562
H       31.51482010      36.96131516       8.24911976
H       31.01600075      38.25074387      10.33600330
H       31.14135361      31.14703560       9.52641964
C        2.01569009      52.39762878      26.21431351
C        6.39582729      50.21759796      27.47028732
C        2.81498957      51.50473785      25.55711746
C        5.60317039      51.16223145      28.07872772
C        4.10852623      51.14696884      26.14912415
C        4.41391945      51.55125809      27.46646690
C        4.94480324      50.16424179      25.54268074
C        3.52144480      52.44908142      28.07875252
C        2.43075109      52.93760681      27.48972893
C        6.04725361      49.67882156      26.18421555
H        0.96837634      52.62618637      25.87393951
H        7.39747477      49.95723724      27.85080528
H        2.55534601      51.14195633      24.58122444
H       24.62184143      51.63821030       0.48949853
H        4.67508602      49.77465820      24.54965210
H       22.56956673      52.76313019       0.59460664
H        1.80882525      53.60520554      28.05647659
H        6.74605370      49.00154495      25.68308830
C       12.00095654      41.59382248       7.78142786
C       10.59995174      38.28749847       4.23466539
C       12.06866550      40.23312759       7.69999743
C       10.53313828      39.67435074       4.31532431
C       11.60209656      39.54388428       6.52320814
C       11.03232479      40.30550003       5.49094057
C       11.66037655      38.15285110       6.37440920
C       11.00446701      41.74671936       5.62793159
C       11.40494251      42.36616898       6.76953840
C       11.20927334      37.53160477       5.25953627
H       12.46904755      42.08853912       8.64254189
H       10.28028488      37.76130295       3.32301903
H       12.47689438      39.61672592       8.51170158
H       10.09401417      40.19246674       3.46797895
H       12.01361942      37.59166336       7.19862461
H       10.72213840      42.32461929       4.76878452
H       11.48387241      43.47268677       6.76817942
H       11.32684231      36.44971466       5.24180126
C       14.56627369      33.29974747       7.73682880
C       12.38940907      32.34609604       3.37060142
C       14.79307270      32.37003708       6.80348253
C       12.29786682      33.37906647       4.27113485
C       14.09530640      32.43492508       5.54886150
C       13.14225388      33.45086670       5.42061901
C       14.23603153      31.40227127       4.55376053
C       12.97424698      34.45116806       6.43952942
C       13.66586399      34.41136169       7.60931587
C       13.37913513      31.33054352       3.50711203
H       14.99412823      33.18945312       8.71304226
H       11.64602375      32.15453720       2.59980583
H       15.40201473      31.48561096       7.11460495
H       11.59222507      34.13537598       4.15457153
H       14.84147072      30.54536247       4.71354198
H       12.16892242      35.17107391       6.32804441
H       13.43984318      35.03401947       8.45002174
H       13.51002026      30.56925774       2.73477006
C        9.72565651      35.72818375       8.11367512
C       11.30885124      33.91419220      12.54249573
C        9.72438335      34.46041489       8.62613678
C       11.33377647      35.17425537      11.97554684
C       10.35659885      34.23203659       9.91126251
C       10.90031147      35.34321976      10.62841892
C       10.50669765      32.97735596      10.53151894
C       10.89998817      36.61690903      10.03350258
C       10.39160633      36.80174255       8.76350784
C       10.86292744      32.82207108      11.82418919
H        9.22136688      35.97634888       7.17938995
H       11.56949615      33.81855392      13.60875225
H        9.30277157      33.62372589       8.08206177
H       11.62590408      36.05583572      12.50803280
H       10.10379601      32.15708923       9.97199821
H       11.31910896      37.47137451      10.63838959
H       10.32749367      37.81660080       8.32095718
H       10.74916744      31.86508751      12.33396053
C       13.79491615      34.61589813       0.28511909
C       16.24791527      30.25955963       0.36331031
C       13.38950634      33.32085800       0.30784443
C       16.62602806      31.55663872       0.35891396
C       14.32326031      32.28568649       0.29407495
C       15.66493893      32.58246231       0.37724695
C       13.94451046      30.99173546       0.19182634
C       16.07102966      33.90187454       0.36699745
C       15.15478134      34.92987823       0.27721640
C       14.87888813      29.97070694       0.22353232
H       13.04859066      35.41342163       0.32762510
H       16.99270058      29.47066498       0.30838317
H       12.32356358      33.19067764       0.23167840
H       17.68284798      31.81998634       0.35819003
H       -5.85605717      30.65663338      28.42628670
H       17.11940765      34.27470398       0.37545115
H       15.41493034      35.97865677       0.23655404
H       14.58006668      28.91789055       0.16849631
C        1.59052384      42.90008926       7.18176842
C        2.78412795      38.18712997       8.56681347
C        2.08750725      42.33821487       8.28985596
C        2.46204066      38.74877930       7.37892294
C        2.40986562      40.99977493       8.38086319
C        2.53495812      40.21015167       7.09690619
C        2.72344851      40.41250229       9.58051777
C        1.46359253      40.71328735       6.14001894
C        1.02051759      42.01742554       6.19609642
C        2.97463226      39.05197144       9.67909718
H        1.44094634      43.97208405       7.10810423
H        2.72887373      37.13664627       8.73054314
H        2.36837339      43.00333405       9.12016201
H        2.21935701      38.12854004       6.51859808
H        2.89148855      41.10805893      10.44458771
H        1.04195440      40.06445694       5.38274717
H        0.32807601      42.32469177       5.39292908
H        3.26489305      38.70283127      10.68176460
C       22.84504890      53.04693985      16.40077209
C       23.81553841      48.10503769      16.49542236
C       23.09817696      52.11706924      15.46969795
C       23.47916412      48.98134232      17.49334908
C       23.22399902      50.76494980      15.82638359
C       23.22435379      50.32615280      17.15675163
C       23.42627335      49.83247757      14.81142426
C       22.98291016      51.33181763      18.14821625
C       22.78850365      52.63898849      17.75597954
C       23.69426155      48.53588104      15.14006042
H       22.71787643      54.09761047      16.10504150
H       24.01309776      47.08372498      16.59678650
H       23.04722404      52.46173096      14.40740490
H       23.33863068      48.64675140      18.47518921
H       23.41069984      50.12736130      13.76824570
H       22.99339104      51.09607697      19.16791916
H       22.57807159      53.36970139      18.52004623
H       23.86897850      47.85759735      14.28867054
C       -4.44762707      45.43950653       7.21442032
C       -1.12435246      46.06941223       3.43135381
C       -3.80325150      44.60460281       6.36105728
C       -1.92279863      46.91317368       4.10487843
C       -2.96753573      45.01150894       5.34381008
C       -2.84055662      46.40042877       5.09850407
C       -2.12612200      44.13159180       4.55662107
C       -3.53137064      47.27497864       5.96619511
C       -4.28453636      46.83360291       6.98298597
C       -1.22356963      44.70243454       3.72946334
H       -4.99076939      45.01280212       8.07641029
H       -0.48630276      46.49258423       2.69973969
H       -3.92223668      43.53645325       6.51546478
H       -1.90388286      48.00455475       3.96465826
H       -2.10291505      43.05652237       4.73424101
H       -3.40241766      48.35313034       5.79923058
H       -4.75783873      47.58303452       7.63199615
H       -0.62057817      43.87931824       3.26436305
C       20.46756554      50.60435867       1.59157324
C       17.22364998      46.85234833       0.64083016
C       20.45223999      49.61659241       0.63212383
C       17.16738510      47.94707108       1.45265257
C       19.35304451      48.68666077       0.60285234
C       18.24793243      48.89000320       1.48434365
C        0.57412064      47.50730896      28.29495811
C       18.31118584      49.91580582       2.42228413
C       19.41138649      50.75577164       2.50812459
C       -0.45016098      46.66291428      28.30082512
H       21.26801109      51.25871277       1.64415896
H       16.39804459      46.14697647       0.56323129
H        2.50289631      49.53749466      28.44809341
H       16.35618782      48.04110718       2.22778058
H        1.53303659      47.25950623      27.82027054
H       17.52555466      49.91481018       3.12941694
H       19.58520508      51.54901505       3.23293757
H       -0.37954313      45.77609634      27.70488167
C        9.34037304      50.97685242      14.63793659
C        5.40475941      49.31048965      17.29113770
C        9.14583397      50.64406967      15.97039127
C        5.53852797      49.86249542      16.09126663
C        7.85099506      50.25811005      16.47254372
C        6.78042078      50.30225372      15.58854103
C        7.76902294      49.62288666      17.75341797
C        6.98432970      50.66723633      14.22152615
C        8.21364403      51.04868317      13.78611755
C        6.53033352      49.21194839      18.11368561
H       10.30228996      51.33462524      14.33069706
H        4.44389629      49.06888962      17.75388336
H        9.99927711      50.60612106      16.62910461
H        4.67439461      49.86350250      15.44178390
H        8.55551052      49.55036926      18.50511742
H        6.13165951      50.69307327      13.52860451
H        8.38060474      51.43702698      12.76337242
H        6.42139149      48.75597382      19.05867195
C       -0.49489614      46.22583771      10.92324829
C       -1.62512958      42.89430618       7.35645056
C       -1.30000806      45.14257050      10.85227585
C       -0.95175344      44.11578369       7.31350327
C       -1.49460912      44.43910599       9.65529156
C       -0.87661713      44.94046783       8.45746422
C       -2.17602158      43.22403336       9.63945866
C       -0.10595454      46.11488342       8.54398441
C        0.03347999      46.80904770       9.73241806
C       -2.20412874      42.45045090       8.51274109
H       -0.46081340      46.73566055      11.89055347
H       -1.61480558      42.29459000       6.45902824
H       -1.80386984      44.84400940      11.75922585
H       -0.52714771      44.45356369       6.36762285
H       -2.61227250      42.80042267      10.58376884
H        0.51819944      46.45304108       7.69390774
H        0.57469702      47.70608521       9.77072906
H       -2.76264501      41.50664139       8.57063580
C      -13.92579174      30.25715637      21.18599129
C      -14.12405109      32.05840683      25.98492622
C      -14.03538609      31.52599144      21.67856979
C      -14.03259945      30.83993912      25.35105896
C      -14.00781155      31.77764893      23.11231232
C      -13.96360493      30.61900711      23.93400574
C      -14.13812637      33.06827927      23.74794006
C      -13.94183731      29.28463364      23.35898972
C      -13.89500332      29.13631821      22.03063011
C      -14.23450184      33.15394974      25.12173843
H       25.82167244      30.15327454      20.13768959
H      -14.30390644      32.10218430      27.04717636
H       25.86284828      32.28995132      20.86858368
H      -14.10251331      29.90057564      25.94194031
H      -14.27127266      33.94096375      23.12934685
H      -13.99201870      28.38197899      24.04169655
H      -13.88252544      28.15587997      21.56295013
H      -14.35755539      34.13974762      25.56892967
C       -6.06564379      49.90655899      28.16532326
C       -1.12509274      50.96691895      27.79442978
C       -5.34258223      51.02163315      28.49691772
C       -1.91109967      49.90812302      27.48770332
C       -3.90831184      51.05109024      28.39333153
C       -3.27559304      49.95510483      27.79950142
C       15.75647831      52.15951157       0.23211859
C       -4.06200552      48.84095383      27.39769363
C       -5.41421127      48.84188461      27.53010941
C       -1.70189965      52.06710815      28.45223236
H       -7.10243320      49.97455597      28.12982941
H       -0.05120545      50.98063660      27.53879929
H       12.94038582      51.91132355       0.38837659
H       -1.52526832      48.96959305      27.00036621
H       15.34997177      52.99171829       0.78497595
H       -3.54362392      48.04897308      26.84656334
H       -6.05377054      48.00571442      27.25356483
H       17.78632736      52.88833618       0.17302209
C       10.47713757      54.60107803       8.73031330
C        8.31872463      54.36872101      13.19116020
C        9.15564346      54.34397125       9.09165192
C        9.60445595      54.43938828      12.73046207
C        8.79654026      54.32798767      10.45599842
C        9.85979557      54.35470581      11.38038063
C        7.46625233      54.18436432      10.97507763
C       11.21012878      54.56008148      10.94274712
C       11.51572990      54.62398911       9.63696480
C        7.19835997      54.26151657      12.32507896
H       10.66615963      54.67304993       7.66089725
H        8.19713974      54.37831879      14.24730682
H        8.40527058      54.28021622       8.28713417
H       10.47973347      54.47174454      13.40808392
H        6.62858486      54.12659454      10.27055454
H       11.97274399      54.68415070      11.72679329
H       12.54738998      54.73911667       9.37130356
H        6.14521933      54.28435516      12.64142513
C       21.91896629      35.61582184       6.82249212
C       17.24623871      37.40222168       6.97980595
C       21.39764023      36.86135864       6.87328482
C       17.75044441      36.10664368       6.98638105
C       19.98895454      37.03928375       7.06680536
C       19.14789581      35.92357636       7.09732962
C       19.45330620      38.32001114       7.16700459
C       19.70299149      34.62258148       7.00910187
C       21.07747269      34.50776672       6.97476244
C       18.09041405      38.46673965       7.11334467
H       22.99967384      35.46400833       6.65285778
H       16.18333054      37.51526642       6.90786791
H       21.89828300      37.75539780       6.69188881
H       17.01416779      35.28759766       6.90202904
H       20.18120766      39.12905884       7.33919430
H       19.11202240      33.75457001       7.14062023
H       21.57283592      33.53797913       6.99746513
H       17.69483757      39.46090317       7.27233124
C       29.64204407      57.35084534      10.56003761
C       27.64434242      56.95255280      15.09729958
C       29.35399628      58.28519058      11.50697517
C       28.14417648      55.97253799      14.22544003
C       28.71228218      57.80959320      12.70233250
C       28.59474754      56.43163681      12.91799831
C       28.20909119      58.75444794      13.60301304
C       28.91868591      55.51290894      11.90603065
C       29.36527634      55.96857834      10.70736122
C       27.67095947      58.30763626      14.75979614
H       29.99977684      57.76352692       9.65998554
H       27.27451515      56.71857834      16.09365273
H       29.35286140       0.43374422      11.22335243
H       28.09760475      54.93136215      14.42480469
H       28.37289238       0.86762631      13.43731594
H       28.80760193      54.45515823      11.98757648
H       29.74764061      55.31843567       9.93119526
H       27.25840950       0.08736536      15.51526928
C       21.68137550      42.86428452      22.46712494
C       20.57954216      40.38969421      18.22935104
C       21.65403557      41.55073166      22.06387138
C       20.60379791      41.71680069      18.58050728
C       21.24985504      41.09157562      20.80543137
C       21.02304459      42.13098145      19.86595726
C       21.11217308      39.72590637      20.48737335
C       21.18972778      43.52396774      20.20104790
C       21.47415733      43.87164688      21.54601479
C       20.81888008      39.40425110      19.18099403
H       21.94493675      43.14675140      23.48482132
H       20.25467682      40.04753494      17.21360207
H       22.01613045      40.72669220      22.78820229
H       20.39771461      42.48509598      17.81228256
H       21.27885818      38.94801331      21.23106003
H       20.99617577      44.30577469      19.42424583
H       21.55199242      44.90555191      21.90302467
H       20.89065742      38.39617538      18.83419800
C       -1.85022771      41.88449478      24.64167595
C       -5.01172400      45.53816223      26.09322929
C       -2.91919565      42.54061890      24.08731842
C       -3.92159629      44.99233246      26.68272400
C       -3.68004870      43.50467682      24.76214981
C       -3.28413582      43.91494751      26.07052422
C       -4.79354763      44.11475754      24.19053078
C       -2.17330718      43.26119614      26.62142372
C       -1.48696017      42.28194046      25.97290611
C       -5.47290421      45.09804535      24.83236694
H       -1.36235929      41.09081268      24.13809395
H       -5.53617191      46.30674744      26.59998894
H       -3.19692612      42.27217865      23.07422447
H       -3.65398526      45.23770523      27.71494865
H       -5.17631102      43.84665298      23.23094177
H       -1.83003795      43.62136078      27.57635117
H       -0.73614281      41.71776962      26.46810341
H       -6.36656284      45.49502945      24.32901192
C       13.14269829      39.44882965      12.42974758
C       13.57690811      37.62689972      17.17260933
C       12.14223766      38.98314285      13.43082809
C       14.29894829      38.53147507      16.41308212
C       12.77357674      38.39708328      14.65105248
C       13.98412132      38.89009857      15.13554764
C       12.02592087      37.43460083      15.36385345
C       14.68623543      39.91920471      14.26793194
C       14.34348965      39.83758163      12.85272217
C       12.40960121      37.09033966      16.65959740
H       12.87525940      39.43652344      11.34032154
H       13.87145996      37.35303497      18.16780472
H       11.36700344      38.23245621      13.13018608
H       15.19810104      38.96897507      16.78774834
H       11.08512020      37.05867767      14.95814896
H       15.72173214      39.68202209      14.41467762
H       15.02902985      40.20435715      12.10945034
H       11.76285362      36.40994644      17.19978333
C        0.25457683      50.54275131      13.56587791
C        1.17935479      53.10323715       9.27035809
C        0.37252679      50.17745590      12.25556374
C        1.03795433      53.44483566      10.59190083
C        0.62726438      51.12140656      11.21169853
C        0.71928084      52.49768829      11.56633377
C        0.78149432      50.79965973       9.85392857
C        0.62553686      52.83162689      12.92877865
C        0.45811838      51.89736557      13.90875816
C        0.90047324      51.77221680       8.88138103
H        0.01817383      49.81951523      14.31600857
H        1.59408820      53.79445267       8.53990555
H        0.23385797      49.13884354      12.03023434
H        1.30185568      54.46610641      10.88151264
H        0.61801791      49.77750015       9.52046204
H        0.71630889      53.85019302      13.33699894
H        0.32725641      52.22499847      14.95389462
H        0.92560667      51.48006439       7.84562588
C       -3.55626893      37.98084641      26.87202644
C       -7.78581905      39.97092056      25.11262894
C       -4.82216740      37.54457092      26.93202972
C       -6.51471090      40.44260406      25.24517822
C       -5.85522604      38.34992981      26.41095734
C       -5.56452274      39.66006088      25.85478783
C       -7.19135952      37.97533035      26.39711380
C       -4.24170589      40.12698746      25.95548439
C       -3.26312351      39.32044601      26.39710426
C       -8.12968922      38.74293900      25.73036766
H       -2.78921080      37.41733933      27.35197639
H       -8.60435772      40.52807999      24.65431404
H       -5.11890030      36.58950043      27.33416748
H       -6.21704435      41.42819214      24.82991600
H       -7.50494289      37.06425476      26.96925163
H       -4.00189924      41.11778259      25.62962723
H       -2.25340986      39.71285629      26.42166328
H       -9.20848370      38.36327744      25.77305984
C       -7.20797491      40.34877777      21.97215462
C       -7.38661766      38.15250778      17.43752861
C       -6.82830143      40.67614365      20.68836975
C       -8.00213242      37.82920837      18.61719894
C       -7.01190043      39.86067963      19.59255219
C       -7.74930239      38.64124680      19.76438713
C       -6.53075123      40.18387604      18.31525230
C       -8.24496937      38.37111282      21.11384201
C       -7.89168596      39.15454864      22.19830704
C       -6.58153629      39.31893539      17.27751923
H       -6.85467863      40.97889328      22.74056816
H       -7.68664408      37.51261139      16.59788513
H       -6.32257128      41.65836716      20.51457787
H       -8.66423512      36.97194672      18.69902420
H       -6.03549623      41.08688736      18.10754013
H       -8.71185398      37.41480255      21.37656784
H       -8.15038013      38.85505676      23.20390701
H       -6.16601849      39.51493835      16.32863998
C        5.39445019      42.38961792      10.50831604
C        8.57188225      43.68988037      14.38010979
C        5.93928766      41.62008667      11.58108902
C        8.19269657      44.20367432      13.19301510
C        6.87993479      42.21630859      12.49086475
C        7.18218946      43.54727936      12.31090450
C        7.46761274      41.48190689      13.67511272
C        6.67261314      44.28247070      11.23833561
C        5.77668333      43.70425797      10.38473225
C        8.13730335      42.31527328      14.82505035
H        4.64296865      42.00548553       9.80019474
H        9.23665810      44.25222778      15.01130295
H        5.61893463      40.60466003      11.71540070
H        8.60490036      45.14405060      12.79357052
H        6.70345831      40.89606857      14.22160625
H        6.90211248      45.31772614      11.13498402
H        5.33060741      44.36670685       9.65191746
H        9.04574585      41.80952454      15.14566803
C       28.31400108      37.16353607      15.07019138
C       27.81329727      32.36025238      16.21463203
C       28.36318970      35.99988174      14.34147739
C       27.81402206      33.47519684      16.96865463
C       28.34965897      34.77342987      14.96640396
C       28.07456779      34.72095489      16.36526680
C       28.28542519      33.52761841      14.24019527
C       28.00144958      35.92415237      17.08865738
C       28.17557716      37.12541199      16.45654869
C       28.03084183      32.34966660      14.83524227
H       28.29535675      38.15290451      14.52485943
H       27.58759689      31.50962257      16.79772377
H       28.57775497      36.00523758      13.27892494
H       27.49582291      33.44442368      18.03795624
H       28.47851753      33.49650955      13.16676235
H      -11.86711407      35.95393753      18.15168762
H       28.11836433      38.03429413      17.04207802
H       27.97769737      31.41159439      14.29516411
C       23.57828140      55.53269577       0.75284058
C       23.55976105      52.95763397       5.08018780
C       24.58912086      55.01793671       1.54618800
C       22.59906960      53.57297134       4.36708117
C       24.29057121      54.34920502       2.74472046
C       22.89510536      54.22874832       3.13328528
C       25.24146271      53.70956039       3.56177425
C       21.91124725      54.88534927       2.30212736
C       22.24879456      55.54368210       1.11767423
C       24.85914230      53.08092117       4.69560242
H        5.02502394      55.89220810      28.28541565
H       23.28752136      52.32238007       5.93467903
H       25.66303444      55.09321594       1.22245383
H       21.57532883      53.38313675       4.62058210
H       26.34786224      53.80084991       3.35840440
H       20.84087563      54.85443115       2.52394819
H       21.43883324      55.87998962       0.48593318
H       25.63444328      52.61180496       5.26003122
C        7.18516970      31.49411201      15.84457302
C       12.29197502      31.72407532      15.57874489
C        8.15245342      30.94436264      15.05758190
C       11.37060165      32.21763992      16.49139977
C        9.53106594      31.26825523      15.21710300
C        9.94330120      32.05557251      16.32697487
C       10.49302673      30.70693016      14.33544159
C        8.89421463      32.63368607      17.16346550
C        7.59433413      32.35204697      16.89096642
C       11.82778931      30.95337486      14.51053715
H        6.15532351      31.18516731      15.66135979
H       13.34865189      31.82798004      15.78758621
H        7.88903093      30.36525726      14.16782570
H       11.91694164      32.77265930      17.29055977
H       10.16844654      30.16577339      13.43685532
H        9.23969936      33.35519028      17.87401772
H        6.82207918      32.75904846      17.56070709
H       12.50944138      30.55032539      13.77193737
C        4.23276711      46.99380493      25.94790649
C        0.18740822      48.38846588      23.26225281
C        3.19196987      47.80925369      26.20842934
C        1.39092827      47.84228897      22.93308640
C        2.20536399      48.09963608      25.21125603
C        2.38727713      47.60525131      23.88697433
C        0.99100780      48.78306198      25.51428986
C        3.50422525      46.73935318      23.66799545
C        4.37531805      46.43318176      24.67083549
C       -0.00580193      48.91671753      24.56086731
H        5.05626631      46.76335526      26.61789513
H       -0.66764319      48.41046143      22.61476707
H        3.08160305      48.25052261      27.16109085
H        1.64183033      47.31880188      21.95372391
H        0.97514105      49.18620682      26.57579994
H        3.58132982      46.36368942      22.67933846
H        5.17735147      45.69283295      24.51261330
H       -0.95225608      49.37457275      24.77173805
C       21.52456856      38.77988815      12.99125385
C       23.43175125      39.66368484       8.38986874
C       21.99189949      39.94015503      12.45333290
C       22.84372330      38.61320496       9.02048588
C       22.45744514      39.92795563      11.05680561
C       22.29187584      38.72848511      10.32686520
C       23.10379791      40.96218491      10.41558266
C       21.68245888      37.59316635      10.92368031
C       21.37954330      37.59518433      12.25282955
C       23.54163933      40.85302353       9.12925148
H       21.18895531      38.81028366      14.00294685
H       23.77692032      39.59839630       7.33516359
H       22.03845406      40.92725754      12.92255306
H       22.81505013      37.63311386       8.58693695
H       23.21602440      41.95007706      10.89018345
H       21.46626854      36.74011230      10.26209259
H       20.86980629      36.72786331      12.69065952
H       23.93913841      41.75669098       8.64631081
C       22.58318520      46.83346176       6.69417047
C       24.05704880      50.39736557       3.44546580
C       23.81870461      47.22799301       6.18330765
C       22.86390686      50.04815292       4.01323128
C       23.93855476      48.26508331       5.21117830
C       22.74307251      48.89484024       4.81544209
C       25.17503738      48.77351379       4.75137329
C       21.45388985      48.42333984       5.28799629
C       21.40227509      47.41677856       6.21102524
C       25.25672531      49.82480621       3.88949871
H       22.48628998      46.09886932       7.49304438
H       23.99674797      51.20339584       2.74486685
H       24.70197868      46.66174698       6.46997070
H       21.95489883      50.62545395       3.82014894
H       26.04270554      48.42499542       5.19945908
H       20.55705071      48.93451691       4.90123272
H       20.47836304      47.10662460       6.64929008
H       26.19018364      50.18309402       3.53919816
C       11.49216747      33.32440567      24.62043381
C        8.81903076      33.18868637      20.38352776
C       11.75947857      32.94174957      23.33883667
C        8.53218460      33.74666595      21.62014008
C       10.71716785      33.03162384      22.39219093
C        9.44140530      33.60139084      22.71527290
C       11.00288105      32.57515717      21.15339279
C        9.22644806      33.94987488      24.07296753
C       10.20897293      33.73795700      24.96944427
C       10.05389786      32.57071686      20.14258194
H       12.21057796      33.14860916      25.39416313
H        8.07202816      33.24319077      19.66896439
H       12.67986012      32.42641449      23.15351677
H        7.54999924      34.17900848      21.88205910
H       11.95797825      32.14500427      21.00926018
H        8.30575180      34.38692474      24.37345696
H       10.02374935      34.00604248      26.02455521
H       10.27002144      32.16068649      19.12906647
C        4.08661366      50.47170639      22.19368172
C        8.85692787      49.13826370      21.32340050
C        4.64432812      49.30576324      21.75695992
C        8.23871708      50.21689606      21.89743996
C        6.05306482      49.15870285      21.62647820
C        6.84549904      50.24701691      22.06050682
C        6.70859432      48.02092743      21.10970306
C        6.23270369      51.45206833      22.46498299
C        4.87405586      51.54871368      22.60056114
C        8.09097862      48.05558014      20.97371101
H        2.99107814      50.50916672      22.33147621
H        9.93190098      48.97489929      21.28057861
H        4.03164768      48.40889740      21.74161148
H        8.81232166      51.07277298      22.18932533
H        6.15925550      47.10287476      20.93224907
H        6.86097574      52.29119110      22.71166420
H        4.42236519      52.46501160      22.84740829
H        8.58196354      47.18444443      20.65380669
C       20.31958199      48.77494431      19.89856911
C       19.60783577      46.64009857      24.43233681
C       19.81346703      47.56464386      20.34865189
C       20.19329453      47.81650162      24.05501175
C       19.80829430      47.26908875      21.72748566
C       20.31785583      48.19402313      22.65228081
C       19.10644150      46.06227875      22.16684914
C       20.83200073      49.40397263      22.16524887
C       20.92270660      49.67414093      20.82641983
C       19.02383041      45.78377914      23.46793365
H       20.31963539      48.92475510      18.82991028
H       19.38867950      46.36228180      25.44420624
H       19.45399666      46.82152557      19.61680222
H       20.50198364      48.58035278      24.78201103
H       18.64182281      45.45733643      21.36850929
H       21.24794006      50.18483734      22.84208488
H       21.28283882      50.58182144      20.31469917
H       18.41880035      44.87814331      23.74906731
C       12.73050404      52.72842026      25.64306641
C       17.39523697      53.06702042      24.29130363
C       13.33498192      52.69841385      24.34099197
C       16.86290550      52.69613647      25.44756508
C       14.67635059      52.60826874      24.26247978
C       15.45464802      52.35079956      25.50523376
C       15.38843346      52.85692978      23.05065727
C       14.79432869      52.02111435      26.63154030
C       13.30275917      51.71612549      26.60842323
C       16.67819405      53.09359741      23.05730629
H       11.64643002      52.53769684      25.55191994
H       18.43415451      53.27653122      24.29778290
H       12.77147293      52.93407440      23.45957756
H       17.53011513      52.63470459      26.31256294
H       14.79452515      52.87538910      22.11116409
H       15.43846321      51.85887146      27.52533722
H       12.90101719      52.02699280      27.59911156
H       17.25890923      53.30065155      22.17832947
C       28.58951950      52.26673889       2.46567917
C       28.97557259      47.61274338       0.57916725
C       27.64715004      51.37734222       2.01370645
C       29.86198425      48.59375381       0.91442245
C       28.04908752      50.12696075       1.48967552
C       29.44202042      49.86063385       1.39001298
C       27.14423943      49.08260727       1.12935245
C       30.44878578      50.81763458       1.73498893
C       30.02630806      52.01983261       2.25337076
C       27.62914085      47.88013077       0.69265878
H       28.32878494      53.24357224       2.93335986
H       29.29203606      46.70476532       0.07499535
H       26.60417175      51.66685867       2.01682258
H       30.94613647      48.46522903       0.91508412
H       26.13991356      49.34466171       1.27978623
H       31.50337982      50.59387970       1.53298104
H       30.79093170      52.69671631       2.63209558
H       26.99892616      47.02879334       0.48198336
C       -1.27562547      34.44360352       6.10217476
C       -1.25891924      38.91652679       8.27216721
C       -1.51018488      35.67897415       5.61484480
C       -1.29859805      37.70040894       8.77667332
C       -1.52851129      36.78672028       6.50416183
C       -1.33258569      36.57120132       7.88105488
C       -1.59133124      38.16085434       6.01281881
C       -1.34607923      35.25265503       8.35825348
C       -1.22345901      34.19104004       7.49212790
C       -1.39015388      39.18033600       6.84860706
H       -1.16265881      33.59533691       5.47445202
H       -1.26782084      39.81848907       8.84247112
H       -1.64684641      35.81859970       4.54814386
H       -1.32183146      37.49015808       9.83864498
H       -1.71811211      38.37474060       4.96981764
H       -1.38383257      35.07067490       9.39807034
H       -1.21061933      33.13428116       7.86234474
H       -1.40179825      40.26191330       6.62790012
C        4.01965714      52.23484802      13.41612244
C        3.46398616      56.04818344      10.16855240
C        3.50556159      53.50289154      13.47754765
C        4.00328732      54.81349182      10.07457447
C        3.43829942      54.40064621      12.40310764
C        3.98993254      53.95821381      11.18614769
C        2.90192676      55.67818451      12.47609711
C        4.40083647      52.61510468      11.05536556
C        4.43721151      51.76125336      12.13823414
C        2.87129068      56.49338150      11.37610626
H        4.11619616      51.61046219      14.30589676
H        3.46830297      56.66984177       9.29115200
H        2.97854042      53.83145905      14.35582829
H        4.32575369      54.49760437       9.12885571
H        2.35173678      55.95439148      13.36415291
H        4.55936575      52.18743896      10.05474949
H        4.76885653      50.71801376      12.01799011
H        2.43822455      57.53657532      11.49875832
C       11.24422359      57.66556168      12.94023228
C       10.18421078      58.65870666      17.75363541
C       11.59487057      57.03770447      14.10941696
C        9.81158829       0.28932607      16.56043625
C       11.16004086      57.58515167      15.36342335
C       10.34105301      58.72183609      15.33906651
C       11.64961433      57.09243393      16.61579895
C       10.02899551       0.42689848      14.10998058
C       10.44734287      58.83369827      12.91408443
C       11.23383236      57.70044708      17.77414894
H       11.51389694      57.13468170      12.04275513
H        9.85133076       0.01793633      18.74485779
H       12.07062531      56.07424164      14.11328220
H        9.05445766       1.08750546      16.57822418
H       12.42297745      56.31865311      16.56151199
H        9.46649170       1.31516695      14.13641167
H       10.09717560       0.34022596      11.95517635
H       11.62978268      57.25547028      18.69632912
C       -6.94724321      56.47669983      24.56546974
C       -9.52601814      52.86441040      26.80133247
C       -6.56680822      55.46899796      25.43164825
C       -9.82635689      53.82294083      25.86816597
C       -7.53306246      54.52476501      25.78611183
C       -8.88625526      54.70900726      25.30809402
C       -7.23103285      53.42338181      26.59668350
C       -9.22678661      55.78987503      24.54117775
C       -8.25255203      56.64944077      24.16025734
C       -8.16901112      52.60521698      27.07893944
H       -6.22271681      57.26164246      24.31168938
H      -10.27939034      52.27183533      27.30097771
H       -5.53439665      55.26769638      25.73738289
H      -10.86496067      53.97936630      25.61629868
H       -6.25760508      53.13719177      26.90022469
H      -10.22795010      55.94434357      24.28281021
H       -8.59717655      57.45354080      23.47694969
H       -7.79794073      51.80408478      27.77298546
C        3.00669789      44.25689697      27.44744682
C        6.73803377      41.09675598      28.52160835
C        4.28526545      44.42855453      27.84248352
C        5.47925234      40.90324783      28.03943443
C        5.17918825      43.27613449      28.00722504
C        4.67178726      42.00736237      27.73942566
C        6.52760315      43.46579361      28.35771561
C        3.38354635      41.87857437      27.18538857
C        2.56110549      42.96035004      27.08100891
C       26.11464500      42.38320923       0.09545007
H        2.36180520      45.16640854      27.28724098
H       26.13101768      40.21089554       0.14717968
H        4.72423649      45.44697952      28.04227257
H        5.12270212      39.86735153      27.96886635
H        6.89872265      44.46472549      28.41341019
H        2.96736646      40.88579178      26.86938858
H        1.58901286      42.78808212      26.66490364
H       27.12942886      42.54159927       0.37605497
C       15.09003448      40.87588882       8.52137661
C       18.81198692      40.46954346      11.83185577
C       15.84171486      39.82183456       8.92435551
C       17.96616745      41.49778748      11.47599506
C       16.84765816      40.02341461       9.86376572
C       16.97765541      41.28852844      10.49085331
C       17.71335220      39.00421906      10.27149677
C       16.17830849      42.38549042      10.03926563
C       15.17341995      42.17089081       9.10960102
C       18.70402718      39.24707031      11.17763615
H       14.43253899      40.79723740       7.68269253
H       19.61682510      40.73974609      12.51128101
H       15.69510746      38.87607956       8.41968441
H       18.07782555      42.53216553      11.75635910
H       17.75663567      37.99731064       9.91741371
H       16.43083572      43.40176392      10.38039112
H       14.53732014      42.96644974       8.80056953
H       19.30682373      38.35681152      11.44432926
C       23.46770096      28.22224426      13.74198437
C       21.53892899      31.01837540      17.50131226
C       22.87505531      27.92170143      14.92413807
C       21.90546417      31.32604408      16.23023033
C       22.42698288      28.95151329      15.83545113
C       22.44422340      30.27881241      15.34425068
C       22.05075836      28.66872597      17.17500305
C       22.95344353      30.54963303      14.05072498
C       23.45087624      29.55514336      13.24058247
C       21.62244606      29.68589592      17.97926140
H       23.79816437      27.42009926      13.18250751
H       21.05395889      31.74974442      18.13772392
H       22.94193649      26.91502762      15.25374985
H       21.88899422      32.35881424      16.01169014
H       22.10754013      27.68747139      17.62547302
H       22.92219353      31.55455589      13.64174747
H       23.84170151      29.71823311      12.22920513
H       21.37749290      29.42677879      19.03413391
C        0.28147164      37.95049286       1.22817945
C        2.49091005      34.22116852       3.74768853
C        0.87436038      36.78384781       0.84051484
C        1.72099555      35.27283478       4.18079138
C        1.38944972      35.87641907       1.79084623
C        1.14926946      36.13734055       3.15622783
C        2.21193337      34.75907135       1.44637716
C        0.57351625      37.30363846       3.58272481
C        0.10198163      38.18463898       2.63116097
C        2.75643587      33.96462631       2.38286138
H       -0.03074639      38.68783951       0.57438505
H        3.00827575      33.57863235       4.46155119
H      -17.77581406      36.52574158      28.34142113
H        1.54216731      35.53014755       5.20541477
H        2.53684354      34.62617111       0.44441324
H        0.43386993      37.47379303       4.65279293
H       -0.26330328      39.13908768       2.91886997
H        3.49134684      33.19802475       2.04031134
C        6.07990885      54.52228546       7.02459669
C        1.13989079      54.71141052       5.91899729
C        5.09888172      53.64346313       6.67506361
C        2.06945705      55.69560623       6.32820082
C        3.76218462      53.99837875       6.51887846
C        3.40999556      55.35478973       6.60506487
C        2.80639529      53.04020309       6.12060595
C        4.42828369      56.27346802       7.01554775
C        5.73643970      55.87995148       7.28471231
C        1.51982200      53.35289383       5.92975473
H        7.08976984      54.23096085       7.12366152
H        0.13833348      54.95070267       5.66416645
H        5.38772869      52.61428833       6.43828821
H        1.85470665      56.76958466       6.24230671
H        3.15313148      52.04068375       5.93846130
H        4.10789680      57.31750870       7.14400387
H        6.49075317      56.59314346       7.55927372
H        0.76965058      52.55056763       5.79724979
C       10.91131687      46.79153824       3.75511003
C       15.31518269      49.07615662       4.60327101
C       11.49383926      47.92914963       3.27661085
C       14.69759464      47.97396851       5.15219164
C       12.78864193      48.32317734       3.75422168
C       13.45677280      47.51314163       4.64253664
C       13.40033245      49.52254105       3.25891495
C       12.79147911      46.39219666       5.19386673
C       11.54027843      46.02561569       4.74866581
C       14.64120674      49.87005615       3.65122652
H        9.97272968      46.46837616       3.36339307
H       16.36758614      49.24838638       4.87655830
H       11.03335762      48.52204895       2.50129843
H       15.25872231      47.45867157       5.90102768
H       12.87161827      50.05061722       2.47188616
H       13.24578857      45.76590347       5.92995930
H       10.91323376      45.23738480       5.23099184
H       15.10101509      50.78095245       3.25308013
C       17.39216804      57.27246475      11.74446678
C       18.36553383      58.18355179      16.63307953
C       17.68085480      58.39191437      12.48258018
C       18.24060631      57.02142715      15.89035797
C       17.87325287      58.36784744      13.90504837
C       17.97344780      57.06679916      14.47743893
C       18.05287170       0.62012696      14.65774155
C       17.72852135      55.93701172      13.65705776
C       17.37956238      56.01367950      12.34000206
C       18.26707077       0.53795654      15.99503231
H       17.23287582      57.28278351      10.66897488
H       18.58632088      58.17575836      17.70878792
H       17.72352219       0.39660570      11.98508930
H       18.27818298      56.04441834      16.32804108
H       18.04761124       1.59175658      14.19998360
H       17.72936821      55.00443268      14.18947029
H       17.14179802      55.14282227      11.73423576
H       18.38352013       1.42978084      16.63577843
C       -7.50630140      55.05191040      17.72511101
C      -11.66510487      55.93235397      20.33987999
C       -7.84751701      54.86891556      19.02532578
C      -11.40594959      56.04681396      19.01193810
C       -9.10034561      55.26175308      19.44751167
C      -10.04918957      55.77165604      18.53229332
C       -9.42154503      55.24774933      20.83334541
C       -9.66133118      55.99343109      17.17320824
C       -8.35326385      55.71601105      16.83073425
C      -10.68871975      55.51204300      21.28863716
H       -6.50574350      54.73294830      17.48336029
H      -12.71394634      56.20996475      20.65970612
H       -7.16870546      54.33179474      19.65172386
H       27.61457634      56.38442230      18.27960777
H       -8.66443443      55.03521729      21.59601021
H      -10.42888260      56.45483398      16.55546379
H       -8.02277184      56.05603790      15.87763119
H      -10.88115788      55.42111969      22.30883598
C       -3.23778200      38.59523773      23.03269768
C       -1.32968950      34.43906403      20.89310646
C       -2.33927321      38.33646011      22.09988213
C       -2.18608356      34.67154312      21.86606026
C       -2.02434063      37.06273651      21.63048363
C       -2.53039408      35.97158813      22.28514481
C       -1.07998371      36.83061981      20.60472298
C       -3.48527598      36.20256424      23.33312225
C       -3.88156104      37.48065567      23.67073822
C       -0.78371084      35.55851364      20.22946358
H       -3.58728123      39.63837814      23.27005005
H       -1.06427383      33.45182037      20.61988449
H       -1.80899584      39.15771866      21.56352806
H       -2.72543359      33.92659760      22.43954277
H       -0.64316475      37.69227600      20.20441055
H       -3.89132380      35.38434982      23.89094162
H       -4.61667919      37.63080597      24.46556473
H       -0.07326164      35.35125732      19.43605614
C        7.00187731      47.33398819      13.15496826
C       11.47298050      47.84077835      15.23869896
C        8.26533604      47.32764435      12.66586876
C       10.22729588      47.55723572      15.75900555
C        9.34842873      47.45012665      13.51344109
C        9.14883137      47.42939377      14.88291740
C       10.70714664      47.71578217      13.02999783
C        7.85681629      47.32765579      15.39280605
C        6.77791452      47.37084961      14.57045937
C       11.70973492      47.93701172      13.90532303
H        6.18063688      47.21671295      12.54213428
H       12.26078987      48.16151428      15.89491272
H        8.45100307      47.27503204      11.60198116
H       10.13476658      47.67242050      16.82657051
H       10.91585922      47.82836914      11.93868923
H        7.76378298      47.35453796      16.47823906
H        5.76187611      47.45907974      14.98105240
H       12.61385250      48.37260437      13.55269909
C      -13.81899166      45.39841461      24.45800209
C       -9.19974422      44.32550430      22.61119270
C      -13.03913879      44.23783112      24.36041069
C      -10.04412174      45.39068604      22.44284821
C      -11.79577923      44.26261902      23.69930458
C      -11.34384823      45.39739609      23.05587006
C      -10.93589687      43.11292267      23.72048759
C      -12.12203503      46.55145645      23.12707710
C      -13.30192661      46.56301117      23.84898949
C       -9.67087173      43.17901993      23.28214645
H      -14.74390316      45.28813934      25.04782677
H       -8.15320683      44.26745224      22.35101128
H      -13.35312366      43.31275558      24.81430054
H       -9.72482777      46.33072281      21.93314171
H      -11.31973457      42.18645477      24.13461494
H      -11.77123451      47.44027710      22.60691452
H      -13.91874981      47.44423676      24.11370277
H       -8.95618153      42.38570404      23.46716309
C       29.02834320      42.97785568       8.65038490
C       28.90664864      40.67640305      13.06472492
C       28.54062653      43.32134628       9.83512878
C       29.10074615      40.16404724      11.84980679
C       28.53058815      42.42958832      10.90331554
C       28.95623970      41.06714630      10.69108677
C       28.32188606      42.86074829      12.20969105
C       29.35000801      40.71522903       9.43641186
C       29.44680977      41.62989044       8.40782452
C       28.55078697      42.05581284      13.30154610
H       29.24843216      43.72734070       7.92756033
H       28.99857903      40.01093292      13.96784687
H       28.33918571      44.34275055      10.09152222
H       29.24626732      39.10018921      11.70477104
H       28.03994751      43.86753082      12.38089561
H       29.74124146      39.71214676       9.19792175
H       29.86616135      41.28518677       7.48614883
H       28.45207596      42.47551346      14.32336712
C       33.25564575      43.77154541       4.75499153
C       28.27509880      43.88076782       5.56144762
C       32.41504288      44.68830109       5.35179567
C       29.09165955      42.85814285       5.23921108
C       31.02249146      44.40236282       5.55532408
C       30.51932335      43.11586380       5.16943169
C       30.13411522      45.34351349       6.08568192
C       31.45564270      42.14097214       4.74801731
C       32.78453445      42.46393204       4.54975843
C       28.78112412      45.12688828       5.96157265
H       34.24522018      44.02478790       4.44585180
H       27.21388626      43.85786819       5.59216404
H       32.85789871      45.61964798       5.62384605
H       28.73926353      41.84991074       4.94351196
H       30.52502823      46.24656677       6.52280903
H       31.04121399      41.16976547       4.54002428
H       33.39621353      41.68278122       4.09806538
H       28.02033615      45.79128265       6.33572674
C       18.38572502      53.87071228       3.76074862
C       15.69502544      54.78825760       7.90961361
C       18.49882889      54.73978043       4.74972200
C       15.67236233      53.82526398       6.96724319
C       17.48614693      54.89994049       5.75066519
C       16.46283913      53.91931915       5.80595446
C       17.45134544      55.96879578       6.71521854
C       16.38860130      52.96326065       4.73898315
C       17.31365585      52.98759842       3.74092865
C       16.62862587      55.86949921       7.78893661
H       19.09222221      53.84056473       2.92754078
H       15.22052383      54.61690521       8.81108665
H       19.27578163      55.47785568       4.78824997
H       14.97739887      52.99887848       7.07631779
H       18.22269058      56.76929855       6.69249535
H       15.60356712      52.22527313       4.67350674
H       17.27948189      52.26900101       2.92560983
H       16.60868263      56.67559814       8.52110195
C        2.45845318      30.94681740      24.42055702
C       -0.58993131      31.26213264      20.46779633
C        2.72473574      30.89494705      23.10286522
C       -0.78998023      31.27979088      21.82261086
C        1.60092926      30.94216728      22.20252228
C        0.26530406      31.13138008      22.73630524
C        1.76841450      30.86938095      20.80563545
C        0.13464579      31.32556725      24.14260483
C        1.18913674      31.24777031      24.96477318
C        0.73021674      31.04225731      19.94332695
H        3.31834483      30.79681778      25.11878777
H       -1.39128160      31.51865768      19.80046082
H        3.63799715      30.59085083      22.69762802
H       -1.74617064      31.59881592      22.14291954
H        2.80390191      30.76443863      20.45698547
H       -0.77191532      31.71831131      24.54984474
H        1.09609056      31.44025612      26.04042053
H        0.81522560      30.98370934      18.86316872
C       11.37502193      46.11124039      26.21090698
C       12.53404999      41.32292938      27.31956863
C       12.64894676      45.51248169      26.79231453
C       11.44572067      41.99501801      26.96684837
C       12.67607403      44.18007278      26.87780571
C       11.39565849      43.41981506      26.45088768
C       13.81741619      43.39325714      27.26171875
C       10.11770535      44.14841461      26.83685112
C       10.13223743      45.45083618      26.74831390
C       13.78923035      42.05524445      27.44369507
H       11.35341644      47.20472717      26.36080933
H       12.54165745      40.30212021      27.64373398
H       13.45199680      46.17610550      27.02683449
H       10.51126099      41.45464706      27.08330917
H       14.75748444      43.97766495      27.42519188
H        9.30368996      43.43107605      26.95747566
H        9.24908829      46.08406448      26.92732429
H       14.66017818      41.45880890      27.72895813
C       17.35012627       0.23929124       4.52778101
C       18.34219170      55.87319565       0.84514803
C       16.88647270      57.92284393       4.23248005
C       18.95355797      57.02109528       1.24359691
C       17.31026649      57.22968292       3.06127524
C       18.45510483      57.75458145       2.35880518
C       16.69425583      56.01780701       2.61258650
C       18.92172623       0.13116269       2.66452646
C       18.34265137       0.84914249       3.70098281
C       17.20219421      55.35165024       1.53031445
H       16.91146851       0.74407488       5.41275311
H       18.77876091      55.29772568       0.03926539
H       16.07690620      57.42432404       4.71598482
H       19.82182884      57.27467728       0.64508808
H       15.82972336      55.59769058       3.08100605
H       19.71507263       0.51277065       2.01118970
H       18.65514565       1.84983194       3.99194360
H       16.70177460      54.42347717       1.26505792
C       26.14977646      45.51036453      11.01804924
C       21.69729424      47.58065796      10.13952541
C       25.61919975      46.68619919      11.28104877
C       22.13747787      46.31734085       9.88992214
C       24.26548386      46.99581909      10.92580986
C       23.48548889      45.98662186      10.30654716
C       23.78509521      48.33921433      11.10350609
C       24.03854179      44.68019485      10.19167519
C       25.33136368      44.43364716      10.51725960
C       22.47173309      48.59441376      10.84455299
H       27.14536858      45.24522400      11.34082794
H       20.66679955      47.83587265       9.93334961
H       26.21189690      47.50469208      11.72732925
H       21.54254532      45.48685074       9.46770668
H       24.44676399      49.04866791      11.57407761
H       23.32429504      43.92272568       9.83124352
H       25.65091515      43.41189194      10.33320808
H       21.97035789      49.53253174      11.12098885
C       25.56811142      44.88386536      14.73781967
C       25.93941307      39.83952332      14.66970348
C       25.17677307      43.95016861      13.85222244
C       26.16371918      40.78296280      15.63006878
C       25.39528465      42.58224869      14.14031696
C       25.95530319      42.13342667      15.35916233
C       25.08820915      41.56113815      13.17900467
C       26.17800331      43.12776566      16.34584808
C       26.01908875      44.46867752      16.04629898
C       25.37525749      40.25148392      13.45827103
H       25.51439667      45.91068268      14.45478439
H       26.10466766      38.77157974      14.85382843
H       24.66905022      44.27585220      12.93958092
H       26.57358742      40.58095551      16.60549736
H       24.70945740      41.81845093      12.21283150
H       26.58680153      42.85283661      17.33452988
H       26.34085846      45.22182465      16.73706245
H       25.04163551      39.53717041      12.74715900
C        4.83072376      49.36808395       4.06579638
C        3.87514758      44.61816406       2.54592323
C        3.67988276      48.60814285       4.01292801
C        5.02328205      45.36790466       2.61676764
C        3.76801586      47.30695724       3.46239948
C        5.03885937      46.70864487       3.12159514
C        2.64622855      46.52478409       3.34651136
C        6.18607569      47.46520233       3.34250379
C        6.07103777      48.77288055       3.81029534
C        2.67757106      45.24063492       2.91826749
H        4.81861544      50.38699722       4.41884661
H        3.93741298      43.54615402       2.27614594
H        2.74589658      49.09580231       4.12456656
H        6.03461552      44.90558243       2.42416143
H        1.69636190      47.00785446       3.63550544
H        7.21102715      47.09007645       3.29565477
H        6.98182201      49.35160065       3.99546194
H        1.75566745      44.71681595       2.91505718
C       11.11005783      46.68728638       8.44483185
C        7.64228392      49.55606461      10.62121963
C        9.76068687      46.58491898       8.54423046
C        8.97672749      49.66241455      10.52463913
C        9.02603817      47.59830475       9.22618771
C        9.69804287      48.72514343       9.80610657
C        7.63849354      47.50838470       9.33228111
C       11.10395622      48.81319809       9.60382271
C       11.80426598      47.82267761       8.99720001
C        6.94738770      48.46864319      10.02110100
H       11.74995899      45.88333130       8.08680153
H        7.07947731      50.24219513      11.23771763
H        9.31275749      45.61635208       8.21725273
H        9.52038383      50.48459625      10.97584057
H        7.14601088      46.65279007       8.80305862
H       11.56694126      49.61358261      10.13532639
H       12.85877514      47.95253372       8.81559467
H        5.90180206      48.50957870      10.06236362
C       -9.52245712      56.43381882      28.03873253
C        9.36588860       0.09222663       3.92479968
C       10.08703232      57.33791351       0.08141789
C        8.45126438      58.19601059       3.33907509
C        9.85454559      57.95589066       1.34595919
C        8.66242695      57.61833572       2.02086425
C       10.75182724      58.90172195       1.92241704
C        7.72430086      56.79745102       1.35178256
C        7.98756647      56.23773956       0.15750837
C       10.54912949       0.46626905       3.19135833
H       -9.23254776      55.87875748      27.18266678
H        9.07756233       0.44631582       4.90990353
H       -7.85030985      57.70229340      28.12252045
H        7.48267269      57.99341583       3.83666325
H       11.58708096       0.30012864       1.29088211
H        6.81028366      56.66058350       1.90151596
H      -11.61388779      55.68467331      28.17501640
H       11.19049072       1.25988567       3.54599404
C        8.63780499      48.62125015       0.67140669
C      -14.46444798      49.23876953      26.64383316
C        8.06203938      49.72689056       0.05795712
C      -13.82479572      48.20035553      27.25478554
C      -11.99249744      49.60415268      27.96361542
C      -12.61544323      48.33153915      27.97642899
C      -12.68956757      50.62808228      27.29554558
C        6.74511337      47.20222473       0.13252652
C        7.94504023      47.32447433       0.75637335
C      -13.88961601      50.51708984      26.67967224
H        9.62494659      48.65316010       1.00246632
H      -15.46879578      49.10380936      26.17053604
H        8.62815285      50.66916275       0.04100185
H      -14.29429531      47.24172592      27.26224899
H      -12.19163513      51.62606812      27.32258034
H        6.16960478      46.30373764       0.20849833
H        8.36795712      46.51767349       1.31321311
H      -14.31232262      51.39936447      26.14770889
C        3.24065733      34.89031601      13.12882233
C        3.67835760      33.69371033      17.96293449
C        2.75309038      35.39153671      14.30369282
C        4.22556019      33.17082596      16.83411407
C        3.09857702      34.85742950      15.50954437
C        3.96920156      33.78786850      15.58669567
C        2.60868573      35.45765686      16.72148705
C        4.51083899      33.27924347      14.34236145
C        4.10635519      33.81754684      13.14119911
C        2.86184597      34.87675095      17.90059090
H        3.06166029      35.43186951      12.18905449
H        3.79754233      33.17263031      18.88555145
H        2.18461013      36.31601334      14.29385185
H        4.90964079      32.35005188      16.94641685
H        1.89633286      36.26900482      16.54636192
H        5.11609221      32.39897919      14.29153061
H        4.49377537      33.42714691      12.21883297
H        2.48286033      35.29237747      18.84204674
C        8.32585144      34.37129593       5.21209717
C        7.08626652      33.19784927       0.52354264
C        8.82391834      33.48297882       4.31280041
C        6.67960739      34.15134048       1.38830042
C        8.29903698      33.32204437       3.04805756
C        7.22398520      34.18274307       2.67965102
C        8.61203098      32.24867249       2.13280725
C        6.81402349      35.11643982       3.60744143
C        7.26609945      35.23272705       4.89567184
C        8.00604534      32.16090393       0.96022022
H        8.76443195      34.38790894       6.16850090
H      -12.09282875      33.11917496      28.01957893
H        9.58613777      32.76806259       4.66982126
H        5.90210104      34.90372849       1.15335381
H        9.22669697      31.50368309       2.56032205
H        6.03506231      35.83256912       3.31821156
H        6.92145920      36.00530243       5.52048111
H        8.22741127      31.34527969       0.32032195
C       21.23446465      47.84099960      27.88306046
C       -0.41418862      43.02752304       0.70231313
C       20.16530991      47.04193115      27.98702049
C        0.70184928      43.76578522       0.52295178
C       20.27640343      45.68605423      28.43435097
C        0.58026147      45.13855743       0.19362918
C       19.16326141      44.80122757      28.51763153
C        1.67222941      46.04518127       0.14251468
C      -17.25936699      47.34634399      28.24939728
C       38.10977936      43.49077988       0.33555341
H       21.15373421      48.86856461      27.65665817
H       -0.33130473      42.04011154       1.05304933
H       19.14393425      47.37430954      27.71067429
H        1.63502944      43.32916260       0.80210859
H       18.15641785      45.12645340      28.24976921
H        2.69638467      45.67907333       0.30778295
H      -16.38767433      48.01493454      28.14344025
H       37.24563217      42.84898758       0.25134549
C       -4.69976664      41.41555786      10.56802940
C       -6.88244677      38.64579010      14.10690403
C       -5.32089615      41.74520874      11.72837353
C       -5.87180042      38.39641190      13.23061562
C       -5.77696085      40.75801468      12.65275955
C       -5.34944057      39.46527863      12.41204643
C       -6.74914026      41.02492905      13.69558811
C       -4.58689976      39.12192917      11.27573299
C       -4.29855013      40.06466675      10.37267876
C       -7.34127951      39.93624115      14.28736687
H       -4.52844810      42.15440369       9.80482960
H       -7.37798071      37.78656387      14.63493347
H       -5.74500275      42.72840881      11.83103275
H       -5.45147800      37.38839722      13.21335888
H       -7.07685852      42.03656006      13.96238422
H       -4.25865078      38.11561584      11.12257671
H       -3.76269841      39.82819366       9.45744038
H       -8.11146545      40.06694794      15.03210258
C        8.42434597      35.61250305      15.81488228
C        4.57332087      38.12364197      13.73707199
C        8.21580410      36.13839340      14.60015774
C        4.81819773      37.64388657      15.00157547
C        7.01854897      36.86298370      14.32896996
C        5.99303007      36.90731049      15.31645870
C        6.79133701      37.48779297      13.08202553
C        6.28290892      36.34254456      16.59343719
C        7.51074123      35.81703949      16.88292885
C        5.59163189      38.01999283      12.69580650
H        9.36333084      35.12471008      16.07046890
H        3.70376492      38.71554565      13.53330708
H        8.99567318      35.94937897      13.81316757
H        4.00392485      37.71587372      15.72370529
H        7.59528160      37.43906784      12.35147476
H        5.47021961      36.32174301      17.36388779
H        7.76638126      35.36431885      17.92269707
H        5.47874880      38.42195892      11.67872524
C       32.87354660      40.81903076       7.95419407
C       31.66412163      44.20840454      11.41549778
C       32.93849182      42.15671158       7.95336771
C       31.58139038      42.84369659      11.33654022
C       32.51864243      42.87799454       9.12042236
C       32.03498840      42.15401459      10.19874573
C       32.50481415      44.31525803       9.14077950
C       32.08986664      40.69982147      10.17673397
C       32.56456757      40.06042099       9.10041142
C       32.15838242      44.91851044      10.29574013
H       33.04708099      40.25948715       7.02949142
H       31.19412231      44.77234650      12.19824314
H       33.19400406      42.75987625       7.13035011
H       31.08706665      42.26273727      12.12985802
H       32.93082047      44.78235626       8.29151821
H       31.84712410      40.10227966      11.06345463
H       32.56121445      38.99214554       9.01732922
H       32.21005630      46.01150513      10.33967590
C       -5.31502247      29.24772835      24.57610130
C       -5.53969383      34.06774902      25.82868767
C       -4.39619684      30.23628807      24.72255516
C       -6.45806074      33.10279846      25.65263748
C       -4.71144772      31.49059868      25.25614548
C       -6.08919287      31.77153397      25.47357941
C       -3.79093647      32.47955704      25.45923424
C       -7.07514954      30.70578194      25.32308960
C       -6.65567589      29.46444130      24.84918976
C       -4.16822052      33.75533295      25.75751114
H       -4.89563799      28.37564659      24.13161659
H       -5.86763048      35.10128403      25.99145699
H       -3.35156679      29.99101067      24.46960258
H       -7.54245567      33.25324249      25.72096443
H       -2.77208567      32.23629379      25.16475296
H       -8.13248920      30.86766052      25.57558250
H       -7.40932179      28.68540764      24.84683037
H       -3.41448283      34.48525620      25.88208961
C       -6.76900053      53.46681595      14.74937153
C       -6.26522255      54.10142136       9.78230476
C       -7.26880646      54.37230301      13.86568165
C       -5.73138762      53.24019623      10.67733479
C       -6.91777563      54.32954788      12.51352215
C       -5.98059130      53.40316772      12.07274151
C       -7.48890781      55.27458954      11.51639080
C       -5.51834917      52.42087555      12.96078014
C       -5.95345640      52.42813873      14.25874138
C       32.67652130      55.17815018      10.20748711
H       -7.02147484      53.41411972      15.78038311
H       33.81182098      53.95700836       8.74593258
H       -8.01286030      55.07902145      14.19515228
H       -5.11363554      52.43905258      10.33972263
H       31.52743912      56.02334213      11.77766228
H       -4.89621925      51.60079575      12.60296440
H       -5.68748856      51.64840317      14.95219421
H       32.24385071      55.85015488       9.48510551
C      -14.79430103      37.24848557      26.36054230
C      -11.16083336      39.72982407      23.82018852
C      -14.09902954      37.01586533      25.19627571
C      -11.77752209      39.94419479      24.98150253
C      -13.23109913      37.98797226      24.62445068
C      -12.92175388      39.13513947      25.38053322
C      -12.58772087      37.87781906      23.36509895
C      -13.61185169      39.30366516      26.63875771
C      -14.59769535      38.45404816      27.07680130
C      -11.64218807      38.74478912      22.98310661
H      -15.43325996      36.45145798      26.78204155
H      -10.30175400      40.29135895      23.48993111
H      -14.29642677      36.17369080      24.52903175
H      -11.36994553      40.69694138      25.72853088
H      -12.93215466      37.06377029      22.74250221
H      -13.52163696      40.21047592      27.25042915
H      -15.16970444      38.67935181      27.94794273
H      -11.14458275      38.65444183      22.03989601
C       25.13876152      41.00082397      22.09846306
C      -12.22541714      44.46249008      19.24746132
C      -14.53278255      42.37115479      22.16537285
C      -12.14436054      43.13969803      19.34751701
C      -13.79207993      43.13743591      21.19158363
C      -12.99948883      42.42544556      20.27541924
C      -13.81610584      44.52275848      21.09914017
C      -13.05361366      41.03917694      20.28054237
C      -13.84692764      40.27840805      21.15820694
C      -13.05762100      45.20655441      20.18132210
H       24.49097252      40.36952972      22.69404411
H      -11.69532585      45.04660034      18.45724678
H       24.65070534      42.93713760      22.89495087
H      -11.62927628      42.54341888      18.60209274
H       25.35410118      45.08326340      21.83018112
H      -12.45699978      40.54187775      19.56797981
H      -13.86865997      39.22142792      21.10893822
H      -12.97585011      46.28768158      20.18448639
C        4.99891663      42.86825562      23.42073059
C        8.83632278      39.59384918      23.71391296
C        5.62099218      41.94121170      22.53633308
C        8.03720188      40.14121628      24.83340263
C        6.71679068      41.18648911      22.93301392
C        7.07960558      41.23254395      24.29585648
C        7.42828465      40.47275925      21.93838692
C        6.50766230      42.16850662      25.12552261
C        5.50961924      43.06511688      24.65641022
C        8.47145462      39.69748306      22.37528038
H        4.15111876      43.44539261      23.06589890
H        9.73073101      39.02238846      24.00521278
H        5.19723892      41.79250336      21.56316376
H        8.78318691      40.59693909      25.52438354
H        7.13122654      40.45559692      20.93266487
H        6.82316494      42.09541321      26.20165062
H        5.09110498      43.77474213      25.33856583
H        9.03992653      39.12346268      21.63969803
C        3.83399796      39.37495804      23.97037315
C        8.21990108      36.96684265      24.98490334
C        4.90868521      39.60590744      24.82235909
C        7.30638790      36.85170364      23.98511124
C        6.03184938      38.73146439      24.78673363
C        6.10958958      37.65149307      23.92728043
C        7.18180180      39.09075165      25.65303993
C        4.96823502      37.43886185      23.12012863
C        3.87674499      38.24682617      23.16474342
C        7.93027067      37.87793732      26.13227463
H        3.00839424      40.06266022      23.98651123
H        9.19597340      36.46539688      24.95322418
H        4.91176510      40.55035400      25.44491196
H        7.52416372      36.13643646      23.15325356
H        6.83236694      39.60745621      26.57389259
H        4.96446991      36.59291458      22.45596123
H        3.11623764      38.06070709      22.43667412
H        8.81492615      38.23482513      26.66242218
C       17.28796577      41.17692947       0.45694301
C       21.72109985      38.88023758       0.95370549
C       18.55267906      41.65682983       0.72451919
C       20.43874359      38.47957993       0.68312889
C       19.63610077      40.74430084       0.89259356
C       19.35288048      39.36100006       0.72583598
C       20.95816803      41.13408279       1.24934483
C       18.01527786      38.90170670       0.46587330
C       16.99152374      39.78312302       0.41772282
C       21.97246361      40.22148514       1.30308473
H       16.46697426      41.82895279       0.21674851
H       22.49117851      38.12360382       0.94908321
H       18.79473305      42.71946716       0.75239795
H       20.17343521      37.45979691       0.41952762
H       21.17284203      42.17503357       1.48165083
H       17.75782394      37.84868622       0.42007932
H       16.02459908      39.39381790       0.15191458
H       22.98719215      40.46699905       1.53547108
C       19.19060707      30.36670494      22.00148010
C       18.38784981      31.82788658      17.35499954
C       18.85383606      31.55056953      21.43072510
C       18.71823120      30.66037941      17.92355347
C       18.51018333      31.66734314      20.11198998
C       18.74600029      30.47447014      19.32354546
C       18.12859154      32.89978790      19.47653008
C       19.00863266      29.24225616      19.90432549
C       19.13512421      29.12506485      21.24621582
C       18.10041809      33.00141525      18.12543297
H       19.45915031      30.43457413      23.06468582
H       18.55295372      31.93032455      16.29102516
H       18.82393837      32.41905975      22.05393600
H       18.92352867      29.84414482      17.24056435
H       17.95085335      33.73391724      20.15920639
H       18.85410118      28.34636307      19.21609497
H       19.20301819      28.18583488      21.76600838
H       17.85476303      33.89471817      17.63780022
C        0.73552185      45.15338516      25.31937218
C       -2.03643966      44.69210434      21.15826416
C       -0.51960444      45.56018448      24.99559212
C       -0.83566624      44.19153214      21.56037140
C       -1.06758749      45.22003937      23.73598862
C       -0.24996990      44.50278854      22.81760216
C       -2.35114789      45.69762039      23.34842491
C        1.00706530      44.02980804      23.21258354
C        1.47648215      44.29655075      24.47909737
C       -2.78780723      45.46866226      22.04855919
H        1.09651875      45.47568130      26.27910995
H       -2.38473916      44.47388840      20.18389893
H       -1.06808293      46.15983200      25.67190361
H       -0.20781642      43.57691193      20.90187454
H       -2.93432426      46.29693222      24.08607864
H        1.52956629      43.24156189      22.59686470
H        2.45583940      43.96052551      24.81102562
H       -3.77823353      45.84910965      21.71266556
C        3.68874002      39.22294998      19.22235489
C        4.76592970      34.65100479      20.94229126
C        2.93748283      38.25703049      19.85902596
C        5.48715496      35.64150620      20.28096771
C        3.55202389      37.02911758      20.19863129
C        4.93323994      36.86015320      19.91761398
C        2.79432631      36.06412125      20.86853218
C        5.67819786      37.94624329      19.47275543
C        5.07496262      39.11096573      19.06980324
C        3.41961122      34.87247467      21.24050331
H        3.20953941      40.11404037      18.88147926
H        5.20604706      33.75815582      21.27923965
H        1.89452875      38.38496017      20.15096474
H        6.54418182      35.54493713      20.11547852
H        1.77512765      36.35647583      21.09346008
H        6.73650455      37.90390396      19.27406120
H        5.63765049      39.90592575      18.68694496
H        2.88261175      34.07556152      21.81454086
C       27.05409622      39.99108887       6.37997437
C       26.91972733      37.84222794      10.86439991
C       27.47812080      38.78235626       6.84405279
C       26.47236252      39.05438995      10.40888500
C       27.31821823      38.48261261       8.20135593
C       26.66558456      39.35668945       9.05042934
C       27.92040443      37.29890823       8.72593880
C       26.32277679      40.59415817       8.54931545
C       26.55251122      40.92810822       7.24373722
C       27.72816277      37.01393890      10.05544758
H       27.22868156      40.29085159       5.40710974
H       26.85256767      37.58380890      11.92416763
H       27.98689079      38.08728790       6.17415142
H       26.07529449      39.82037354      11.07002163
H       28.49620247      36.69258881       8.03322887
H       25.96897316      41.37126541       9.21730804
H       26.40227318      41.88843918       6.84134674
H       28.13904572      36.07784653      10.46078014
C       -4.25991440      34.97537994       7.44334936
C       -6.13170862      35.34149551      12.08976650
C       -4.42612982      34.06938553       8.44752979
C       -5.96250200      36.15081406      11.05021858
C       -4.91138077      34.50403214       9.69732285
C       -5.40022278      35.78942871       9.81244373
C       -5.14424992      33.60781860      10.75201702
C       -5.26979065      36.68156052       8.74108982
C       -4.67058611      36.32383347       7.58714962
C       -5.68736076      34.02793121      11.91990280
H       -3.89601803      34.62676239       6.45354652
H       -6.43967915      35.70457840      13.04181671
H       -4.14348745      33.06384659       8.26698208
H       -6.38930273      37.14252853      11.03474808
H       -4.77067661      32.57089996      10.74184513
H       -5.66923141      37.70134735       8.85423470
H       35.28293228      37.05210876       6.78398752
H       -5.77512503      33.36795807      12.76935959
C       17.12993240      43.23971558       6.85244083
C       13.75180149      40.64986420       4.11384392
C       17.08235550      41.97194290       6.36679602
C       13.93699074      41.96176147       4.50772667
C       16.02535057      41.40365982       5.62055111
C       15.03354359      42.32468033       5.30245447
C       15.79899788      40.07724762       5.23771095
C       15.10727024      43.63695908       5.78876972
C       16.12456703      44.14915466       6.50763082
C       14.71653175      39.65310669       4.48700523
H       17.96714211      43.51837158       7.48732853
H       12.81084728      40.45306396       3.57500124
H       17.87359428      41.27597427       6.60195208
H       13.17426968      42.64085007       4.26081610
H       16.60166168      39.42388153       5.46299076
H       14.30636215      44.30738449       5.64956713
H       16.20877075      45.20148468       6.77620077
H       14.53731060      38.55773926       4.28259373
C       22.59896469      52.87496948      21.30591393
C       22.80127907      57.82662964      20.51543236
C       21.75688744      53.93820190      21.52902031
C       23.75070953      56.86411667      20.30129623
C       22.16117287      55.22021484      21.20452499
C       23.40040970      55.51458740      20.56396866
C       21.20879364      56.27611160      21.38555336
C       24.25644684      54.39595795      20.35130692
C       23.86257172      53.12588882      20.67607117
C       21.56589890      57.55651474      21.11677170
H       22.32742310      51.84269714      21.51180267
H       23.03264809      58.85769272      20.32802391
H       20.73508263      53.76146698      21.81501770
H       24.69841766      57.05434418      19.86336327
H       20.25516891      56.06300354      21.76939392
H       25.19434929      54.53911972      19.81171417
H       24.40007973      52.24406815      20.42750740
H       20.89118385      58.37620544      21.30685234
C       -0.35388878      32.31390381      16.93787003
C       -0.43336713      29.11145782      13.03983593
C       -0.97376221      31.12805367      16.68275070
C        0.21491800      30.30146790      13.26831722
C       -0.85601187      30.47570992      15.45910454
C        0.04390690      31.00198555      14.50798512
C       -1.53585720      29.25451660      15.19177818
C        0.70586783      32.24361038      14.76777554
C        0.53539592      32.88882065      15.94616508
C       -1.30512977      28.57802773      13.99480248
H       -0.56535357      32.78067398      17.87717438
H       -0.24660785      28.56357956      12.14140415
H       -1.59543133      30.66272926      17.43230820
H        0.93022346      30.71600342      12.56898403
H       -2.23440886      28.87683487      15.92145443
H        1.37180305      32.71446991      14.01510334
H        0.97074032      33.83195877      16.12873459
H       -1.71046448      27.59203720      13.86254883
C       30.19920540      30.47200203       3.16514492
C       35.22490311      31.20797539       3.04533172
C       31.13556290      30.80259705       4.09696198
C       34.31544113      30.93527031       2.04289436
C       32.51566696      31.00853348       3.74447417
C       32.91519165      30.84505653       2.38616228
C       33.49502182      31.26431656       4.74604797
C       31.88806343      30.66313171       1.42173696
C       30.60186005      30.45027161       1.82692230
C       34.81124115      31.37369537       4.37814188
H       29.15361977      30.15933418       3.51880741
H       36.26606750      31.32912445       2.72199273
H       30.78746605      30.78933716       5.09224272
H       34.66810226      30.94041061       1.01735950
H       33.19131851      31.55586243       5.77474499
H       32.14892960      30.66794205       0.33952937
H       29.87559319      30.25156021       1.03532302
H       35.50302124      31.59713554       5.18022299
C        3.32913995      45.83494186      20.34338188
C        0.25518647      42.25570679      18.77376747
C        2.14494801      45.92052841      19.64441681
C        1.33164167      42.26570129      19.64235115
C        1.42974508      44.70699692      19.37347794
C        1.94253361      43.52545547      19.87977219
C        0.21435820      44.64238739      18.62310410
C        3.19500136      43.47210312      20.60247040
C        3.87259984      44.61696625      20.83064461
C       -0.30420706      43.42829132      18.29690361
H        3.89080000      46.71715546      20.44074249
H       -0.29678938      41.37499619      18.43041801
H        1.74870253      46.87856674      19.29214859
H        1.85266232      41.37347794      20.04413414
H       -0.34653172      45.49858856      18.30483627
H        3.58878541      42.50692749      20.94857025
H        4.84213448      44.63695908      21.33785820
H       -1.21704316      43.40359879      17.79751968
C       26.61757851      52.38784790       8.01351738
C       27.10682487      47.46857452       8.05957603
C       27.72609901      51.61116028       7.87265110
C       26.05837440      48.31588364       8.28636265
C       27.56590080      50.20841980       7.96141243
C       26.26991272      49.69245529       8.18758392
C       28.64551353      49.31971359       7.72396851
C       25.14861679      50.53104019       8.24374104
C       25.31888390      51.84813309       8.19089031
C       28.39838219      47.99466324       7.72793293
H       26.69438553      53.49111557       8.11982632
H       26.99057579      46.32976151       8.14842796
H       28.70116425      52.02571869       7.86678600
H       25.02986145      48.01658249       8.55199528
H       29.66919327      49.68260193       7.59372902
H       24.16220474      50.08449173       8.44101906
H       24.51883125      52.50114059       8.43278408
H       29.07917023      47.20399094       7.40348291
C       36.07304382      48.65627670       1.11016321
C       32.79344177      44.78835678       1.44709468
C       36.19577408      47.32015228       1.33279347
C       32.63896179      46.15462494       1.29958761
C       35.05084229      46.52526093       1.47879517
C       33.73438644      47.11081314       1.34944093
C       35.14783478      45.08860779       1.66765249
C       33.66049576      48.47573853       1.03511512
C       34.82432938      49.27468109       1.01387572
C       34.11054993      44.22870255       1.54447854
H       36.97970963      49.26801300       1.29974997
H       31.91017723      44.19301605       1.46180642
H       37.11524963      46.79418945       1.44914746
H       31.57958984      46.50746155       1.30135536
H       36.17410660      44.84429932       1.95620477
H       32.70209503      48.90778351       1.03527212
H       34.65335083      50.32779694       0.85392207
H       34.23383331      43.16551971       1.55210733
C        8.45430851      30.08127022       5.61799526
C        8.87924194      29.64965630      10.56861782
C        9.05528831      29.14995384       6.41351128
C        8.19223690      30.52317238       9.81399632
C        8.98816204      29.30167961       7.79474401
C        8.22298050      30.38990211       8.37064743
C        9.48413563      28.32537842       8.70744896
C        7.56378412      31.31616020       7.51456261
C        7.61437368      31.12224007       6.14367151
C        9.43437099      28.48679924      10.03711796
H        8.59117031      29.98501778       4.55473948
H        8.91941738      29.88971329      11.70651245
H        9.72460175      28.40195847       5.98726845
H        7.82362938      31.41555977      10.17284012
H        9.78026009      27.31656647       8.28507233
H        7.00399017      32.13338089       7.98727703
H        6.98782587      31.78578377       5.52620888
H        9.86196709      27.70445251      10.65756321
C       -6.99784660      29.60248184      12.04453659
C       -4.87137222      29.30149651       7.48398352
C       -6.63086748      30.51761627      11.09167767
C       -5.20278883      28.37091827       8.45091915
C       -6.12541962      30.01856041       9.87860966
C       -5.90540314      28.66666031       9.66569901
C       33.90499878      30.99246979       8.86872482
C       -6.08290148      27.76914978      10.71022511
C       -6.61827755      28.22954941      11.83434200
C       34.51399994      30.63476562       7.68326473
H       -7.45455599      29.81650734      13.01849651
H       -4.25978851      28.99908257       6.59050512
H       -6.78570318      31.59071922      11.15174294
H       -4.90323210      27.31405640       8.24178314
H       33.65110016      32.02914810       9.08053112
H       -5.68657684      26.76670647      10.54504299
H       -6.71905184      27.58658218      12.69499207
H       34.68930054      31.35850716       6.87211800
C       -1.44958508      33.03511429      11.75059700
C       -4.87619305      33.62720489      15.32364941
C       -2.32308483      32.18463516      12.40823841
C       -4.05537462      34.54065704      14.65919685
C       -3.27856541      32.67715454      13.30518246
C       -3.24554992      34.07135010      13.58796406
C       -4.16604614      31.80515671      13.97535038
C       -2.35756230      34.92232132      12.88897324
C       -1.42554915      34.39504623      12.01494026
C       -5.00056553      32.28115082      14.94509888
H       -0.81629372      32.60112000      10.99692822
H       -5.33579731      33.98044968      16.22636032
H       -2.36020017      31.11869621      12.26088524
H       -4.05201578      35.55156708      14.94398403
H       -4.18302584      30.77467918      13.71686268
H       -2.39777637      35.97917557      13.04896450
H       -0.79154998      35.10325241      11.48196030
H       -5.69260120      31.53962135      15.31845856
C       -3.00498819      53.47562027      20.47294998
C       -2.08511281      56.62902832      16.70162964
C       -3.51043558      53.54835892      19.18033409
C       -1.56437957      56.51720428      17.98794937
C       -2.98750567      54.60161972      18.36767960
C       -2.05422211      55.54011917      18.89026833
C       -3.52417850      54.76530075      17.04875565
C       -1.59392440      55.45608521      20.20669174
C       -2.06773758      54.35457230      20.97496223
C       -3.08961415      55.76143646      16.23999405
H       -3.34355474      52.65117264      21.11163521
H       -1.73872149      57.45990753      16.09510422
H       -4.13313389      52.80775833      18.80748367
H       -0.89352071      57.30197525      18.37460899
H       -4.21463394      54.03239441      16.68124580
H       -0.98995239      56.17034149      20.64565468
H       -1.61343098      54.13847733      21.91822243
H       -3.39771032      55.85888290      15.23909473
C       -1.90328705      54.65125656      13.56402969
C       -0.25934756      56.23116302       9.11115837
C       -2.16761613      54.25210571      12.31681728
C       -0.23872323      56.76905060      10.39111805
C       -1.64349318      54.98297119      11.21956062
C       -0.86385190      56.09065628      11.44209385
C       -1.80522370      54.54766846       9.85522079
C       -0.64502484      56.51144409      12.77600288
C       -1.07521045      55.76003265      13.81048489
C       -1.02316463      55.06707382       8.86827755
H       -2.27878690      54.00965881      14.40000534
H        0.23612525      56.73485565       8.29518890
H       -2.87666917      53.43566895      12.13590622
H        0.37952787      57.61560440      10.63783550
H       -2.43957949      53.65905380       9.76763058
H        0.02259907      57.37329483      12.92563725
H       -0.82116652      56.05553818      14.82305813
H       -1.07608438      54.64581299       7.88917065
C       31.75406647      34.25488663       2.88261938
C       31.11321831      38.32055664       5.90539169
C       30.86133385      35.31781769       2.87596583
C       31.97600555      37.29928589       5.84065628
C       30.94966888      36.36121368       3.81749868
C       31.93172836      36.34025955       4.80085611
C       30.01282501      37.44127655       3.93308091
C       32.88739777      35.31141663       4.75764656
C       32.78521347      34.27968597       3.84170079
C       30.12327194      38.39603806       4.90992355
H       31.68649101      33.49063492       2.18343449
H       31.06639671      39.05552673       6.71051168
H       30.00460434      35.28023911       2.18864942
H       32.77732849      37.19392776       6.57396746
H       29.21917915      37.42945862       3.20481133
H       33.76191711      35.39273834       5.29596281
H       33.47587967      33.45551300       3.86302519
H       29.36348152      39.19942474       4.89185143
C       17.27112007      52.94857025      19.07387924
C       19.51846123      51.34653091      14.81314468
C       17.03855133      53.08913803      17.70788956
C       19.75985527      51.10990906      16.12678909
C       17.83960342      52.49638367      16.73579788
C       18.92861366      51.66614914      17.10188103
C       17.57314110      52.73259735      15.35012531
C       19.14401245      51.49265289      18.47938156
C       18.33769417      52.10459900      19.42452431
C       18.42234039      52.15074921      14.43961716
H       16.62567902      53.37599564      19.82952690
H       20.21442032      50.90336609      14.17191410
H       16.30899429      53.82165909      17.27847672
H       20.67238045      50.55260086      16.39830399
H       16.68758774      53.24861526      14.98920155
H       20.00443268      50.95092392      18.87481117
H       18.53700638      51.95762634      20.46670723
H       18.18238449      52.27700806      13.38876343
C      -18.41907120      31.77575874      28.24910927
C       22.21965599      33.39396286      23.52596664
C      -17.86589432      31.19793701      27.13337326
C       21.94671440      34.01778030      24.69272614
C       22.06148148      31.92209053      25.90243721
C       21.82892227      33.33857727      25.90447617
C       22.50179291      31.29590225      24.73272705
C       21.28285027      33.93732452      27.08690071
C       20.97882271      33.14871597      28.15304756
C       22.48615456      32.01700592      23.56496239
H        0.24707671      31.29505348       0.67930251
H       22.29949760      33.98435974      22.59667206
H      -17.49642754      30.13172531      27.15464401
H       21.70527649      35.09125137      24.70893097
H       22.99879265      30.33734894      24.75843811
H       20.98234558      34.98507690      27.01870918
H       39.33195114      33.64347076       0.51224309
H       22.62891579      31.49465942      22.66266632
C       13.62860775      55.52910614       1.14281380
C       12.67949009      55.21163177       6.04782772
C       13.60746098      54.47052002       1.98227942
C       12.91649342      56.25198364       5.23583508
C       13.38313580      54.68457031       3.39005661
C       13.23079681      55.98733521       3.86950040
C       13.16191864      53.63344574       4.30202866
C       13.20612907      57.06355286       2.94298959
C       13.39459801      56.84676743       1.60053921
C       12.73423672      53.88483047       5.57862806
H       13.88659859      55.25792694       0.12216006
H       12.50108242      55.39561081       7.13614225
H       13.67346764      53.45270538       1.61459661
H       12.92923164      57.21871185       5.62433958
H       13.18986034      52.59257889       4.01190996
H       12.93217182      58.01351547       3.21604562
H       13.30916405      57.69621277       0.96574879
H       12.44964314      53.06882477       6.19988394
C        9.45217896      44.82225800      19.69051743
C       12.88520241      42.87552643      22.45783997
C        9.39829636      43.78266907      20.61994171
C       12.50785160      44.32224655      22.67653084
C       10.37122345      43.65860367      21.59650040
C       11.39758492      44.61867142      21.69827843
C       10.52211571      42.55563354      22.64619446
C       11.41528606      45.65527344      20.85142708
C       10.49332428      45.71728516      19.80469894
C       11.86737347      42.00747299      22.40363121
H        8.74251366      44.96599960      18.87139130
H       13.93511200      42.58229828      22.48230934
H        8.63652039      43.07958984      20.58699226
H       13.37874413      44.89404678      22.50798035
H        9.72807789      41.79584503      22.43758202
H       12.19980431      46.42390823      20.94370079
H       10.53132343      46.54080963      19.11063004
H       11.98633671      40.94273758      22.13171196
C       11.96685410      53.92538834      17.30638504
C       14.99409199      49.98636246      17.44580841
C       12.10229111      52.82226181      16.55398369
C       14.86347675      51.04393387      18.26669121
C       13.02987671      51.86853790      16.87151146
C       13.86808300      52.02552032      17.98204231
C       13.23523426      50.76389694      16.00183678
C       13.69701099      53.19237137      18.72768021
C       12.74507332      54.15030289      18.42198563
C       14.16717815      49.82844162      16.31967163
H       11.17314148      54.59694672      17.03382111
H       15.77020359      49.26560593      17.55547714
H       11.43828487      52.78982544      15.70451355
H       15.35183334      51.12313080      19.20576286
H       12.56508064      50.53598022      15.20148563
H       14.34986973      53.32448196      19.60053062
H       12.73891544      55.10542297      18.94832611
H       14.36172962      49.00839996      15.61444664
C       22.76513863      36.36348724      20.12914467
C       21.43612480      37.58092499      24.76617241
C       21.62727928      36.18609619      20.85452271
C       22.58828926      37.73653030      24.03263474
C       21.50327301      36.71039581      22.15668678
C       22.64608192      37.32165909      22.71345139
C       20.29092407      36.64233780      22.85309982
C       23.82603836      37.52029419      21.96024895
C       23.86530113      37.05903244      20.66534996
C       20.24226761      37.05390167      24.19093895
H       22.82798958      35.97933197      19.17157745
H       21.46006393      37.89558029      25.78779984
H       20.80804443      35.57942963      20.53021812
H       23.40349960      38.22201920      24.56767464
H       19.42390633      36.42686462      22.22009087
H       24.70487595      38.00943375      22.37782860
H       24.82003975      37.01132202      20.14717484
H       19.33099556      36.99933624      24.74155426
C       -7.88938713      34.43532562      15.72138596
C       -9.36698914      29.69113541      16.53133965
C       -8.07834435      33.36959457      14.91954041
C       -9.12647247      30.71148300      17.32009506
C       -8.52686119      32.14171600      15.39313412
C       -8.71764851      31.97851753      16.80221367
C       -8.94443035      31.07583427      14.57795143
C       -8.67242908      33.15559006      17.63774490
C       -8.17568016      34.38918686      17.12428856
C       -9.30169773      29.84348488      15.07436180
H       -7.53104925      35.36198807      15.36670494
H       -9.68690777      28.75475121      16.96381187
H       -7.78479147      33.55698776      13.91227531
H       -9.16054344      30.68336487      18.47529984
H       -8.85165501      31.27273750      13.52192497
H       -9.02528858      33.09206772      18.67026138
H       -8.14443684      35.28868484      17.76377869
H       30.10321045      29.03213692      14.45496941
C        8.69760227      51.14248657      25.60420036
C       13.56759167      49.65507889      25.19573021
C        9.37148380      50.34509659      24.70666313
C       12.84187698      50.24846649      26.35395050
C       10.78437233      50.02241135      24.91015625
C       11.36800671      50.32852936      26.09711075
C       11.50096798      49.33718491      23.90149689
C       10.58080673      50.99283981      27.03885269
C        9.27803612      51.47287369      26.82900047
C       12.91992092      49.11874008      24.10326386
H        7.67120123      51.48927689      25.41356850
H       14.59697342      49.64502335      25.24834061
H        8.92899323      49.94871521      23.80854988
H       12.89969063      49.66215515      27.26221085
H       11.06741047      48.91748047      23.01687813
H       11.03165531      51.11913300      27.99131775
H        8.69550323      52.08924484      27.47211075
H       13.53512287      48.70832825      23.34796143
C       14.01353836      50.56393433      12.52603054
C       14.13377666      50.70161819       7.52637911
C       14.90385151      50.20276642      11.56373405
C       13.28572941      51.30350494       8.47182941
C       14.73612976      50.51494980      10.17707920
C       13.52182865      51.12570572       9.85486221
C       15.69316292      50.13653183       9.24341774
C       12.59232616      51.52305222      10.85630989
C       12.79170513      51.23819733      12.15200233
C       15.32075119      50.07207870       7.93127632
H       14.27802944      50.45547104      13.58282852
H       13.96728516      50.74008560       6.42864847
H       15.86245918      49.78722382      11.88802338
H       12.38913059      51.85356903       8.08460808
H       16.63499832      49.64311218       9.54312134
H       11.66387749      51.97060394      10.48923588
H       12.17183495      51.35757065      13.00968170
H       16.09295273      49.66753387       7.16815948
C       -2.49619603      51.01600266      17.27476501
C       -5.57071209      48.21879578      14.53823185
C       -3.44753313      50.07209778      17.64930916
C       -4.69862747      49.19119263      14.22764111
C       -4.16864157      49.42022705      16.59346771
C       -3.92905498      49.79000092      15.26271057
C       -5.14108276      48.36594391      16.87081528
C       -2.94625354      50.84751892      14.93596840
C       -2.28379989      51.45714951      15.95971489
C       -5.78174067      47.74979782      15.82178116
H       -1.90440202      51.53949356      17.97934723
H       -6.17520189      47.75953674      13.80261898
H       -3.52949524      49.71087265      18.66069412
H       -4.55812311      49.43129730      13.21470737
H       -5.22821283      48.08545685      17.89853668
H       -2.85677624      51.10496902      13.90510082
H       -1.57713330      52.21818542      15.67876053
H       -6.48436499      46.94039154      15.98381138
C       -2.33095551      52.61751938       7.26718950
C        0.25975749      48.95706177       5.07559681
C       -1.80957341      52.51045227       6.03458643
C       -0.44099745      49.02534866       6.27354431
C       -1.11722827      51.30517197       5.61816978
C       -1.14876461      50.23923874       6.55569172
C       -0.58152974      51.08307266       4.33536434
C       -1.78143191      50.35836792       7.81543922
C       -2.29972291      51.53587723       8.15489483
C        0.15553616      49.95089340       4.09671211
H       -2.81012940      53.51755524       7.57575750
H        0.85142690      48.07557678       4.84787416
H       -1.91425622      53.35820770       5.30385685
H       -0.44359019      48.21837997       7.04821920
H       -0.62062836      51.87478256       3.61055183
H       -1.83556211      49.47013855       8.46138000
H       -2.89272165      51.57742691       9.10095024
H        0.58617073      49.79898453       3.14636850
C        6.46597195      41.55144501       6.31317186
C        7.10523605      39.38828278       1.69169915
C        6.33414888      40.03694916       5.81986713
C        6.50829554      40.58134842       2.11557531
C        6.82167625      39.97745895       4.38569450
C        6.30781031      40.82436752       3.46642256
C        7.50904417      38.82548904       4.01949883
C        5.42783594      41.95915222       3.91056728
C        5.49298191      42.32149506       5.45297384
C        7.62138510      38.52467728       2.61999369
H        6.11811876      41.65051651       7.36244011
H        7.11451530      39.18333435       0.66246897
H        6.96411848      39.39275360       6.45642757
H        6.14337683      41.25914001       1.39825571
H        7.79929113      38.03888321       4.74302196
H        5.54426432      42.90646744       3.34287548
H        5.66280365      43.45290756       5.60377932
H        8.21160984      37.63570786       2.35543513
C       -0.31935886      37.52010345      17.28356361
C        1.38736629      39.18465424      12.84965038
C       -0.20122582      36.91067123      16.02789879
C        1.14048958      39.73743439      14.08949184
C        0.17319849      37.71282959      14.92884922
C        0.54893017      39.06504440      15.17566490
C        0.30530724      37.17886734      13.60428619
C        0.47717610      39.59154892      16.46249771
C       -0.04485212      38.85642242      17.51112747
C        0.91411531      37.88610077      12.61347580
H       -0.56569630      36.93987656      18.14441299
H        1.93378162      39.75681305      12.17483997
H       -0.38216409      35.82138443      15.90537453
H        1.42996800      40.76636505      14.31232166
H       -0.02696368      36.17133331      13.38130760
H        0.73802465      40.64839935      16.50914383
H       -0.15588044      39.17028427      18.51297188
H        0.90271533      37.50432587      11.60818672
C       -8.61465073      34.88100815      21.35723305
C      -10.87805843      35.24791718      25.86390305
C       -8.15596390      35.08907700      22.64773560
C      -11.34205723      35.16691971      24.58568001
C       -9.05101395      35.27063370      23.71598434
C      -10.43679619      35.15495682      23.49228477
C       -8.64833736      35.44252777      25.08907318
C      -10.87507629      34.92265701      22.15046310
C      -10.01472378      34.79530716      21.10280991
C       -9.49767494      35.39553452      26.10846329
H       -7.90280771      34.83640671      20.51855850
H      -11.55659771      35.18133545      26.73019600
H       -7.09473419      35.14207459      22.82150269
H      -12.38002682      35.03450394      24.37310410
H       -7.56616592      35.45401764      25.35312271
H      -11.92396736      34.80004883      21.93156052
H      -10.38984776      34.55950546      20.12287331
H       -9.11301422      35.45034027      27.12456322
C       21.05554008      55.00807953      24.74113274
C       19.42066765      52.11283493      28.50152588
C       20.66498566      53.72877502      24.79256439
C       19.72792625      53.43506241      28.37503242
C       20.29184151      53.13694763      26.02497292
C       20.25903130      54.00056458      27.14257622
C       19.91835594      51.79299927      26.14047241
C       20.72196198      55.30424881      27.08579636
C       21.06309509      55.85824585      25.88726044
C       19.48596001      51.30020905      27.36907196
H       21.52681923      55.44029236      23.89464188
H       37.85673523      51.78078079       1.00659311
H       20.80625916      53.05706406      23.96376038
H       38.51052094      54.07699966       0.73437715
H       19.92385483      51.17811203      25.24457741
H       20.59485817      55.93250275      27.96982193
H       21.43352127      56.85080338      25.82612228
H       19.19544983      50.27946472      27.45062828
C       15.01309586      55.61150360      16.09441185
C       14.47718143      55.79862213      11.08535767
C       14.70008755      54.62187958      15.15835762
C       14.41089535      56.74008560      12.08532429
C       14.59780979      54.98701477      13.82131863
C       14.49848747      56.30933380      13.44986534
C       14.57832623      53.97252655      12.73091602
C       14.73660851      57.27324677      14.42014027
C       14.95069885      56.95348740      15.74673080
C       14.61058998      54.40302658      11.43743420
H       15.01019001      55.39947891      17.13206291
H       14.31372547      56.11840439      10.07318878
H       14.74691200      53.53953552      15.47116375
H       14.47059631      57.82887268      11.90828991
H       14.59960556      52.91445541      12.99232578
H       14.68233395      58.32708359      14.16959286
H       15.24378109      57.66055679      16.53215790
H       14.60428333      53.68239212      10.65544319
C       -0.15882218      55.67029190      25.46384048
C       -4.09909725      58.75318146      26.27223396
C       -0.55139804      56.87525940      24.95127296
C       -3.77718234      57.53898621      26.80069733
C       -1.72501671      57.52690125      25.44431877
C       -2.56755781      56.87934875      26.38078117
C       -2.09633064      58.79586411      24.92806053
C       -2.18130398      55.61822891      26.83363533
C       -1.06075358      54.98499298      26.29490089
C       -3.26533055       0.45797154      25.29539871
H        0.77232140      55.21985626      25.21870613
H       -4.94962406       0.38325238      26.59931946
H       -0.00181285      57.33465576      24.18998718
H       -4.44914675      57.04093170      27.48709488
H       -1.44657278       0.40240046      24.27156258
H       -2.83281422      55.08024216      27.55199242
H       -0.87310100      53.98363495      26.55920219
H       -3.50670123       1.42320287      24.96905708
C        6.65637064      33.17855453      11.23044682
C        6.51797342      37.49783707       8.66089535
C        6.06238127      33.55529404      10.08852482
C        7.25197840      37.05862427       9.75899601
C        6.26382112      34.82874680       9.56260777
C        7.18693447      35.70621109      10.20176792
C        5.57420301      35.31062317       8.43934631
C        7.85521317      35.24408722      11.37295818
C        7.62012625      34.00628281      11.85893536
C        5.73142052      36.58044815       7.96622705
H        6.42135000      32.21599960      11.62988186
H        6.49807692      38.55242157       8.49695110
H        5.35643053      32.90579605       9.58329773
H        7.90936565      37.80740356      10.25088120
H        4.96278143      34.51913452       7.97070456
H        8.64010429      35.83909607      11.75105858
H        8.10105896      33.65829849      12.75208473
H        5.26193476      36.89795303       7.05376434
C        0.31926024      53.80366135      17.75565720
C        1.78932703      54.07702637      22.62939453
C        0.34194073      52.92128754      18.76982880
C        1.88481903      54.90997314      21.54241562
C        0.84397501      53.30923462      20.07811165
C        1.45198822      54.54869461      20.24546623
C        0.77379036      52.48406219      21.21603966
C        1.56918359      55.40019226      19.11727905
C        0.94586104      55.04606247      17.92446327
C        1.22525859      52.78590012      22.45630455
H       -0.19412981      53.58194733      16.82234955
H        2.30711937      54.29756165      23.61538696
H       -0.17207968      51.95643234      18.65891075
H        2.27729940      55.91705322      21.73042679
H        0.36615896      51.51875687      21.03657722
H        2.00874734      56.39423752      19.23566246
H        0.90290737      55.73065567      17.09622765
H        1.30253196      52.09284210      23.26395226
C       12.57516575      57.36754990      27.80732918
C       17.11181831      56.77278137      25.70404434
C       12.98399448      57.29184341      26.48896217
C       16.70713806      57.14576340      26.97934151
C       14.33942986      57.19429779      26.20882416
C       15.29055023      57.33004379      27.22120285
C       14.82432842      56.71778870      24.95272446
C       33.63900375      57.43083191       0.01852216
C       32.29638672      57.33445740       0.36047807
C       16.15705299      56.47792053      24.73449898
H       11.53496170      57.28769684      28.11927795
H       18.16718483      56.65754318      25.51404762
H       12.24852085      57.21390915      25.73451996
H       17.42166519      57.35426331      27.74522591
H       14.12306023      56.63529205      24.13014984
H       34.37605286      57.41287231       0.79999739
H       32.11101151      57.23161316       1.42011750
H       16.45340919      56.18314362      23.73831940
C        6.66903210      30.60442543      19.90640450
C        8.79082108      30.40119171      24.41829109
C        7.78914404      30.02879524      20.41738129
C        7.72684240      31.14568329      23.92783928
C        8.13396072      30.22081184      21.73844910
C        7.32037926      31.03280640      22.59292793
C        9.26293182      29.57152939      22.24029732
C        6.08942938      31.51470566      22.10758972
C        5.82254887      31.36695290      20.74345398
C        9.51137352      29.56261826      23.56700706
H        6.43040419      30.50937843      18.83587265
H        9.07824993      30.50295067      25.46619987
H        8.42679024      29.49647522      19.72913361
H        7.15569210      31.81695557      24.54494858
H        9.90584278      28.91169167      21.60139084
H        5.42596197      32.05475616      22.70609856
H        4.89852095      31.72946739      20.28573036
H       10.33258152      29.00172806      23.97953415
C       15.79023933      37.26969910      23.59341240
C       11.45019245      38.13535690      25.80433273
C       14.94831467      36.52324677      24.37140083
C       12.27687645      38.93941879      25.06193733
C       13.75759888      37.10045624      24.87129593
C       13.44260120      38.41503906      24.52202034
C       12.78319645      36.27675247      25.51465225
C       14.32033348      39.16604996      23.75211716
C       15.52397537      38.59342575      23.31419945
C       11.64845562      36.74572372      25.99957466
H       16.66590881      36.78136444      23.12195206
H       10.60339069      38.62137604      26.25201797
H       15.13941383      35.52902985      24.64698219
H       12.00007057      39.93983841      24.87788773
H       13.01601505      35.20014954      25.62361526
H       14.01528549      40.20772934      23.52212143
H       16.13499832      39.16939163      22.63169861
H       10.90530109      36.11606216      26.42178345
C       17.80414772      30.34951782      12.78029919
C       20.88180161      34.02203369      11.24519634
C       18.91245270      30.91142464      13.27964878
C       19.84383011      33.37892151      10.60403061
C       19.55117989      31.97244644      12.60236835
C       19.16009331      32.31792450      11.26392365
C       20.53707504      32.69075394      13.26598358
C       18.01069069      31.68240547      10.75938797
C       17.28457642      30.81904602      11.53488445
C       21.16304779      33.74081421      12.60152626
H       17.26608849      29.54900932      13.36523438
H       21.38345146      34.74093628      10.70233727
H       19.29470062      30.61407471      14.24536419
H       19.57740211      33.45656204       9.52972412
H       20.79429436      32.38675690      14.27775002
H       17.63762474      32.04335022       9.80013847
H       16.31117439      30.43842888      11.24228477
H       21.93619347      34.26884842      13.22939587
C       -2.48951817      58.75719070       9.00045395
C       -5.16212845      57.23996735      12.97539997
C       -2.58907962       0.27543947      10.27852154
C       -4.70890570      56.55718613      11.84266472
C       -3.45726156      58.58472061      11.24133396
C       -3.94264460      57.32241821      10.87692165
C       -3.91045165       0.28073385      12.43831730
C       -3.78448868      56.85699844       9.55242443
C       -3.09746337      57.56401443       8.60563946
C       -4.80185509      58.57951736      13.25787354
H       -1.89048588       0.37356913       8.24843216
H       -5.77576780      56.67115784      13.63858318
H       -2.14964700       1.22604847      10.70694447
H       -4.99050951      55.55724716      11.66046143
H       -3.60877323       1.31319320      12.63422108
H       -4.05246782      55.81060791       9.39889240
H       -2.94856739      57.17596436       7.62075710
H       -5.21850967       0.14691915      14.10590172
C        9.89130974      36.98491669      21.88116074
C       13.50297928      34.50916290      19.58417511
C       11.11755943      36.59428787      22.28962135
C       12.25562382      34.88176727      19.23464775
C       11.97510052      35.85334778      21.43456078
C       11.50293541      35.61233521      20.14167786
C       13.26321793      35.43382645      21.74692154
C       10.22766304      36.08881760      19.72390175
C        9.39413166      36.73387527      20.59770584
C       14.05715275      34.82115555      20.84282875
H        9.29898739      37.48818207      22.65098190
H       14.07833958      33.82929993      18.92277336
H       11.46108913      36.92963028      23.25561905
H       11.76938248      34.67173767      18.28180885
H       13.70781517      35.63065338      22.75141907
H        9.88632107      35.88724136      18.69840240
H        8.43507767      37.11170197      20.22249031
H       15.10550690      34.61523819      21.06783867
C        8.68150806      58.29219055       7.41250563
C        5.67063189      58.14580536      11.49637794
C        8.76845646      57.70794678       8.68777180
C        5.51407146      58.70305634      10.22416878
C        7.75008011      57.84238815       9.63624287
C        6.57335043      58.54210281       9.28752899
C        7.87699795      57.29099274      10.94263363
C        6.48698282       0.23681644       8.01802349
C        7.52385569       0.09555423       7.08888578
C        6.85192013      57.49309158      11.83228207
H        9.55207348      58.09241486       6.78722095
H        4.85400677      58.17851257      12.20597839
H        9.62270451      57.14593887       8.98452187
H        4.56827879       0.28906906       9.92913437
H        8.88925362      56.92144012      11.10274601
H        5.61283398       0.80156177       7.74297714
H        7.41814041       0.49942663       6.10295916
H        7.01766062      57.12575150      12.83021355
C       -7.92483664      48.87718582      22.20598221
C       -9.96221924      48.44924927      17.61143112
C       -9.26933098      48.79900360      21.78346634
C       -8.66846848      48.28081131      18.13633347
C       -9.58743095      48.48337555      20.43206596
C       -8.48892498      48.31974411      19.53404999
C      -10.87447357      48.48884583      19.82272339
C       -7.18276882      48.33936310      20.04632568
C       -6.88163996      48.64498901      21.34045982
C      -11.08777809      48.49425125      18.48976707
H       -7.76176977      49.18074799      23.26313782
H      -10.11646271      48.67648315      16.55845451
H      -10.13648224      48.92351151      22.51345444
H       -7.76878309      48.15900421      17.46367073
H      -11.72858238      48.46269226      20.45126343
H       -6.35827351      48.29988480      19.33913803
H       -5.85324478      48.88133240      21.53015900
H       27.70409393      48.52019501      18.04994202
C       -3.90273786      55.72463226      23.40967751
C       -4.24260092      58.02292633      19.01275253
C       -3.27179670      56.78451920      22.84338188
C       -4.90019226      57.01296616      19.53844261
C       -3.70168948      57.29232788      21.61054993
C       -4.64148951      56.62165070      20.90250778
C       -3.03321385      58.37343979      21.00761986
C       -5.30378771      55.55297470      21.53486443
C       -4.93618155      55.10321808      22.74729729
C       -3.22691202      58.67824936      19.71933937
H       -3.59633493      55.30689621      24.35211372
H       -4.38092375      58.34546280      17.96594429
H       -2.44234967      57.27294540      23.34402466
H       -5.72089195      56.51437759      19.07848740
H       -2.16313195      58.76110840      21.52355576
H       -6.02821350      55.02180099      20.94902039
H       -5.48887682      54.26842499      23.15594482
H       -2.67733502       0.55643064      19.25763893
C        3.71137810      35.13751602      25.49483490
C        8.11854076      36.10754776      27.93094063
C        4.89006519      34.40148544      25.75695801
C        7.16335344      37.09065247      27.29260063
C        5.97410774      35.04076386      26.38310623
C        5.88798714      36.37212753      26.79636574
C        7.13998365      34.27117157      26.70368385
C        4.66017771      36.98848724      26.79556656
C        3.56833959      36.39776993      26.13321877
C        8.07314682      34.77611160      27.59516144
H        2.90272498      34.79781723      24.84732819
H       27.56874657      36.49798203       0.19395638
H        4.83177233      33.29858017      25.51358414
H        6.87308168      37.89411545      28.04247284
H        7.17243814      33.27260590      26.21750832
H        4.57019377      37.94343948      27.30996704
H        2.61342502      36.86355209      26.18361664
H        8.79412556      34.16709900      28.10583305
C       20.12301826      44.16009140       4.88125992
C       15.61280155      44.02460861       2.75042224
C       19.14689255      45.12018204       4.66050243
C       16.58031273      43.09035492       2.95978165
C       17.96607590      44.81628799       4.01779127
C       17.77577782      43.48097610       3.63298392
C       16.93807030      45.81557083       3.74494219
C       18.81121063      42.48504639       3.79644752
C       19.99641418      42.81985474       4.44527149
C       15.81345272      45.38533020       3.12262559
H       21.08142281      44.45506668       5.37324810
H       14.72012806      43.78392792       2.23575735
H       19.22256470      46.13646317       4.95579052
H       16.47594833      42.12260437       2.60646486
H       17.09313583      46.83866119       4.09622288
H       18.64083099      41.49032593       3.42443275
H       20.77628899      42.15740585       4.38215065
H       15.05159473      46.11339188       3.04520011
C       -2.37810707      52.71669006      24.29741478
C       -4.36860466      48.23196793      23.17648125
C       -2.21078873      51.86193085      23.25645065
C       -4.54655313      49.11050034      24.19576454
C       -2.93581438      50.64228439      23.27566910
C       -3.84556055      50.35947418      24.29363060
C       -2.80584550      49.75420761      22.18614769
C       -4.07877445      51.33751297      25.25781822
C       -3.34781671      52.47048950      25.25602150
C       -3.48159432      48.57655334      22.15856171
H       -1.85884440      53.69664001      24.35276413
H       -5.01037264      47.32054520      23.20873833
H       -1.50069213      52.15346909      22.46790886
H       -5.36533785      48.91543198      24.92466545
H       -2.16252446      50.00072861      21.37999725
H       -4.85497665      51.14229584      25.98347855
H       -3.62172389      53.23139572      25.99199104
H       -3.39116693      47.92620850      21.28154755
C       -9.87155724      41.03711319      19.79522324
C       -8.82351589      43.73384094      15.62777519
C       -9.33570290      42.29203033      19.59602928
C       -9.18185139      42.44518280      15.85092926
C       -9.07961559      42.76761627      18.25988579
C       -9.33490753      41.90526199      17.17672729
C       -8.69030762      44.08562851      18.02637482
C       -9.91758537      40.63845444      17.42753983
C      -10.14125729      40.17193604      18.68892860
C       -8.57046223      44.52647018      16.72732735
H       -9.85330582      40.54529953      20.72988129
H       -8.82136917      44.13442993      14.63563919
H       -9.12376118      42.98496246      20.43508720
H       -9.30504322      41.74609756      15.05519772
H       -8.62311077      44.76675415      18.83888626
H      -10.29826450      40.08000946      16.53022957
H      -10.55561638      39.16070938      18.94631767
H       -8.29564667      45.59443665      16.62220573
C       17.69350243      34.23662567      23.98918915
C       15.86758518      29.60539436      23.68138504
C       16.57236671      33.69789124      23.47929955
C       17.00643539      30.15635490      24.23189545
C       16.29249763      32.33503723      23.56810761
C       17.24815941      31.54930115      24.19849586
C       15.13997364      31.72795868      23.02258682
C       18.46770477      32.09288406      24.75342369
C       18.68779182      33.43382645      24.58948135
C       14.92375946      30.39523315      23.02873421
H       17.77054977      35.32129669      23.88163376
H       15.71068001      28.55727768      23.73932838
H       15.76496410      34.33446121      23.10432625
H       17.79909515      29.57756615      24.66977501
H       14.47028542      32.36550140      22.49701500
H       19.23159790      31.41863251      25.15732384
H       19.59095383      33.85690689      25.01592064
H       14.05930233      29.92061424      22.59218407
C        3.45636511      30.12239647      16.76030731
C        6.42462873      28.33866501      13.14749718
C        3.53800440      30.36872673      15.43238449
C        6.24710512      28.08747864      14.49335098
C        4.51970196      29.72046280      14.65514183
C        5.31561184      28.77969360      15.29404736
C        4.75283051      30.06347847      13.31208515
C        5.21296740      28.50636101      16.67918587
C        4.30167103      29.20148277      17.42886925
C        5.71003962      29.44629288      12.57764244
H        2.70636892      30.65058517      17.29310608
H        7.08678293      27.76083946      12.52508545
H        2.79124665      31.03262711      14.99741936
H        6.80834389      27.25250435      14.93770504
H        4.10389185      30.84583282      12.93324852
H        5.90743446      27.76654816      17.17448425
H        4.27764130      29.02029228      18.51237297
H        5.98056269      29.70750427      11.55815220
C       23.16289330      55.35487366       7.12594461
C       22.06832314      58.05495071      11.26952934
C       23.45652390      55.23285294       8.43429470
C       21.78330231      58.17967606       9.93533134
C       22.87940979      56.05235672       9.44181728
C       22.19486046      57.20956802       8.99516582
C       23.12258911      55.87604141      10.80810356
C       21.82373619      57.28890228       7.60516787
C       22.34192657      56.45083618       6.66799211
C       22.70162582      56.83142853      11.69875145
H       23.71096230      54.74440765       6.42423773
H       21.78759766      58.85498047      11.93356419
H       24.02147675      54.40552139       8.82455921
H       21.16796494       0.03234774       9.51733971
H       23.60022545      54.95203400      11.12373924
H       21.13272285      58.10196304       7.34503317
H       22.03587914      56.53046799       5.64405870
H       22.92734337      56.72410584      12.75293255
C       27.51434708      35.81929398       4.39316988
C       23.23891640      35.94766998       1.66023982
C       26.31226921      36.50116730       4.53084469
C       24.48706818      35.39830780       1.44327176
C       25.26929092      36.36343765       3.54228663
C       25.50596428      35.51636505       2.43215394
C       23.94488144      36.75895309       3.84035420
C       26.68831635      34.73567200       2.42477822
C       27.65842247      34.90122986       3.34550285
C       22.91904449      36.51265717       2.94238853
H       28.25848770      35.89976501       5.15207958
H       22.48528671      35.77098084       0.91102898
H       26.11904907      37.12648773       5.37266397
H       24.67588043      34.78964996       0.57970554
H       23.69544792      37.22562027       4.79230404
H       26.78015900      33.96784210       1.69027913
H       28.52368736      34.24125671       3.44145513
H       21.93033791      36.85951233       3.17832494
C      -10.64182568      52.35619354      20.96696091
C       -6.48028612      51.46409225      18.44365692
C       -9.37594128      52.11519623      21.33550453
C       -7.75777149      51.61175919      18.05471802
C       -8.41455936      51.81133652      20.35086060
C       -8.79063034      51.82813644      18.97675896
C       -7.04051018      51.72011948      20.72105217
C      -10.11658382      52.09624481      18.60913467
C      -10.97984982      52.34781647      19.60504150
C       -6.07763147      51.55372238      19.78617096
H      -11.36263657      52.56900406      21.77084732
H       -5.76114178      51.14805603      17.71027946
H       -9.06963730      52.25377274      22.34589195
H       -8.05324364      51.46821594      17.01578712
H       -6.81042290      51.82410049      21.79311562
H      -10.34548473      52.22082520      17.56121635
H      -12.00981331      52.60851288      19.38832855
H       -5.02802038      51.46383286      20.05589104
C       21.33874893      35.40409088      16.78099442
C       17.40139771      38.12880707      18.32887268
C       20.57121086      35.30706024      17.90171814
C       18.27985191      38.18607712      17.33357048
C       19.51183701      36.23078156      18.09634590
C       19.36126518      37.27719879      17.17640686
C       18.61268806      36.23701477      19.19525337
C       20.20299149      37.34518051      15.99409866
C       21.14326668      36.41725159      15.82518482
C       17.54687881      37.08751297      19.32507706
H       22.22626877      34.75114059      16.74893379
H       16.58590317      38.78465271      18.43735123
H       20.73702240      34.55307388      18.68899918
H       18.23078346      38.91038132      16.56138229
H       18.70004845      35.46558762      19.92904282
H       20.11483383      38.15662003      15.25435352
H       21.89133644      36.51839447      15.06836700
H       16.76266289      37.05174637      20.10455513
C       10.15017414      55.68956375      20.40369987
C        5.69413567      54.61414719      22.42293930
C        9.76848030      55.44647598      21.67886543
C        6.06698275      54.95583725      21.15519142
C        8.40105248      55.08577728      21.92365265
C        7.48083591      55.10287476      20.87267494
C        7.97734547      54.73912430      23.26383591
C        7.97556448      55.29586029      19.53161240
C        9.25317001      55.65091705      19.32679558
C        6.62074614      54.61871338      23.49271584
H       11.17372799      55.99825668      20.27890968
H        4.67408323      54.43427658      22.65471458
H       10.51918983      55.33127213      22.46865463
H        5.34454727      54.87716293      20.37178612
H        8.72357750      54.68009186      24.06833839
H        7.37660551      55.05191040      18.70659065
H        9.58053112      55.87186432      18.34998894
H        6.17358494      54.35504150      24.45378494
C       20.55916405      43.47690964      11.80720997
C       17.25581741      46.67977905       9.76995564
C       19.83955765      44.53129196      12.31326962
C       18.14621544      45.78465271       9.21807098
C       18.95534515      45.27590942      11.49497795
C       18.96570587      45.01324081      10.10098648
C       18.10305786      46.24601364      11.95686817
C       19.68613052      43.91967011       9.66782665
C       20.47458839      43.11717224      10.45421124
C       17.24330330      46.88350296      11.15690231
H       21.32589531      42.91212463      12.33536911
H       16.71040916      47.27419662       9.06634331
H       19.93564987      44.88121033      13.34847832
H       18.16840744      45.57696152       8.16381550
H       18.17131233      46.46417999      12.99115372
H       19.51349640      43.72482300       8.61335087
H       20.95998955      42.21121597      10.08614540
H       16.49217415      47.60319901      11.51017189
C       25.94695663      57.54951477       4.60331249
C       26.00513268      57.01156616       9.63350201
C       25.12875175      58.04890442       5.65743208
C       26.49491501      56.24526978       8.58984852
C       25.31909752      57.73855209       7.02092791
C       26.21743774      56.67234802       7.25710583
C       24.84760094      58.43604279       8.15545368
C       26.87248802      55.98395538       6.19873285
C       26.78296852      56.45092011       4.88961124
C       25.13483047      58.06719208       9.42665672
H       25.85072327      57.95843887       3.59044170
H       26.41514778      56.72109222      10.61356163
H       24.34551239      58.78231049       5.54468775
H       27.30847549      55.52145386       8.69984531
H       24.14994049       0.30658898       7.98437262
H       27.36688042      55.11970139       6.55587530
H       27.42456818      55.93677902       4.23069048
H       24.73952675      58.52735901      10.30547810
C       14.85371017      35.23134613       3.29019642
C       19.16629410      37.83712769       3.65104246
C       16.11022377      34.94970703       3.69261217
C       17.88187599      38.14110947       3.19690537
C       17.17759514      35.88119888       3.65400457
C       16.83894730      37.17458725       3.13547444
C       18.43445396      35.59888458       4.17133236
C       15.53948593      37.43101120       2.56975079
C       14.58194351      36.46238709       2.71075559
C       19.46995354      36.50593948       4.07407618
H       14.05107117      34.53490448       3.27476811
H       19.96457291      38.54859543       3.66434360
H       16.30346870      33.98326492       4.20503664
H       17.73225212      39.18592453       2.97485352
H       18.60557747      34.66119003       4.67202234
H       15.39869118      38.36642456       2.02472162
H       13.61835098      36.59690857       2.31457376
H       20.48709869      36.26959229       4.42839766
C       19.48293304      55.37441635       9.43131733
C       22.86677170      51.81396484      10.46071053
C       19.96449089      54.81220627      10.56776810
C       22.10134697      52.09166718       9.34003544
C       20.79821205      53.69644165      10.62858295
C       21.19714546      53.12390900       9.40474606
C       21.47216606      53.24921417      11.76440144
C       20.62811089      53.62178421       8.17304039
C       19.83351898      54.72282028       8.20325565
C       22.48526001      52.35934448      11.68030930
H       18.90125656      56.25265884       9.55480289
H       23.66667748      51.07900620      10.42267799
H       19.67938232      55.17357636      11.54719448
H       22.30142021      51.63056564       8.41117382
H       21.18257713      53.71024704      12.71853542
H       20.93062592      53.20818329       7.17959547
H       19.57678986      55.22014999       7.30290222
H       23.06283379      52.13589478      12.56529331
C       26.41659355      45.05583954       3.01206398
C       21.54280090      45.97019577       2.12737894
C       25.67077446      46.12807846       2.59375024
C       22.19490433      44.82577515       2.46558714
C       24.29660797      46.07369614       2.34209943
C       23.63200188      44.82125473       2.59390068
C       23.61735153      47.20454407       1.99485958
C       24.44604111      43.69309998       2.93376946
C       25.79297066      43.77677155       3.06943059
C       22.25583458      47.18458557       1.91622519
H       27.46392059      45.16215515       3.25816250
H       20.47501183      45.92276382       1.92902911
H       26.13869667      47.08995438       2.43152428
H       21.71186066      43.81297684       2.50525069
H       24.12999535      48.13851929       1.88640857
H       23.92348099      42.72862244       3.04349470
H       26.37420464      42.89376450       3.33275867
H       21.70329285      48.09245300       1.72469187
C       -2.31592107      47.07934570      16.94599915
C        1.26714635      49.72249222      19.38432884
C       -1.33454049      47.92274475      16.55014420
C        0.21192420      48.87586975      19.76270485
C       -0.35985002      48.42141724      17.44522667
C       -0.59928393      48.19177246      18.89122772
C        0.74646878      49.25531387      17.10053825
C       -1.71098530      47.38459778      19.25848198
C       -2.46886730      46.77338028      18.30647850
C        1.51820219      49.89263535      18.02625465
H       -3.03933835      46.72933960      16.19909287
H        1.81928325      50.16477966      20.17191315
H       -1.17694950      48.10820389      15.49859238
H       -0.00144965      48.74544525      20.83172607
H        0.92046565      49.45255661      16.06474304
H       -1.85304773      47.14983368      20.28718758
H       -3.35997677      46.25168610      18.64049912
H        2.31899881      50.50763702      17.64730072
C       32.01940918      51.18711853       4.98680925
C       28.76118660      47.62570953       3.86272693
C       32.19816589      49.88510132       4.60217762
C       28.66612434      48.92292023       4.45400572
C       31.08468819      49.01894379       4.51350546
C       29.79502487      49.64327240       4.72431898
C       31.12859917      47.73565292       3.93630648
C       29.60872459      50.90790176       5.26594782
C       30.75196266      51.66140366       5.41857958
C       30.00527763      47.04824066       3.57423186
H       32.89242554      51.83761978       4.93153810
H       27.86648178      47.05828857       3.62588048
H       33.19966125      49.55836105       4.18375683
H       27.70414925      49.41142273       4.68301105
H       32.12807465      47.31084061       3.74404812
H       28.60528946      51.31832123       5.47424936
H       30.65035820      52.65932846       5.81140614
H       30.06804848      46.06904602       3.08988476
C       21.61524200      46.87147903      13.50936127
C       18.08070755      47.82642746      16.98893738
C       20.50602341      47.62816238      13.46926117
C       19.19455910      47.00543976      16.86336708
C       19.59183311      47.64643478      14.56810188
C       19.91678047      46.82282639      15.72589874
C       18.43509102      48.44015503      14.61926174
C       21.12725258      46.04026794      15.70143604
C       21.91973495      46.03138733      14.57930946
C       17.73317909      48.57391739      15.81738567
H       22.11271095      46.68355560      12.59486675
H       17.55601501      47.98485565      17.88240623
H       20.24044800      48.24228668      12.59807014
H       19.57165146      46.47770309      17.74067497
H       18.19144058      48.99792099      13.73154926
H       21.37377930      45.47365570      16.61176491
H       22.78791428      45.32925034      14.41618347
H       16.92204094      49.31328201      15.87940216
C        9.32108212      42.10026169       1.87269425
C       11.95478249      46.19578171       0.68168640
C       10.51332664      42.58361053       2.19341326
C       10.67124367      45.81489944       0.36786491
C       11.00262070      43.81579971       1.68332207
C       10.15227890      44.59265900       0.91629654
C       12.31680965      44.23864746       1.97589099
C        8.89367771      44.10534668       0.56423026
C        8.49049473      42.84201050       1.03267229
C       12.79558086      45.40768433       1.52025080
H        8.94457626      41.18576050       2.26298285
H       12.23754978      47.18145752       0.30562824
H       11.31157589      42.03639603       2.71535349
H       -8.65308762      46.52283859      28.26997757
H       12.89561176      43.63913345       2.63888621
H      -10.52478027      44.58705139      28.31397629
H        7.50957680      42.42832947       0.68730062
H       13.80466080      45.64733505       1.65448010
C       18.68303490      50.68750000      11.14099693
C       18.38128281      50.33623123       6.01307392
C       18.87128258      49.70909882      10.21178436
C       18.34791756      51.36240768       6.95572805
C       18.76389885      49.86778641       8.77873325
C       18.47297096      51.15597916       8.35138416
C       18.89726639      48.81945801       7.81935930
C       18.18613625      52.19678879       9.26936626
C       18.36906052      51.98107147      10.62270927
C       18.71948051      49.04707718       6.46776199
H       18.73188782      50.40438461      12.18060398
H       18.36267853      50.57325363       4.91149426
H       19.18107414      48.77425003      10.55790234
H       18.12934685      52.40417099       6.66304541
H       19.28029442      47.87343216       8.16451836
H       17.91846275      53.19358063       8.94571495
H       18.17339706      52.80275345      11.30572319
H       18.87194633      48.24562836       5.80347109
C       35.31095505      40.51638412       6.03086424
C       36.30681610      39.03787994       1.32776749
C       35.92608261      41.03814316       4.93720675
C       35.70761871      38.38897324       2.37617064
C       36.08787918      40.33762741       3.73431993
C       35.60034561      39.02324677       3.64647198
C       36.70562363      40.95296860       2.65169573
C       34.92669678      38.44870377       4.72854280
C       34.80255127      39.20961380       5.86184740
C       36.82194519      40.32160568       1.40403914
H       35.09752655      41.10239410       6.89648628
H       36.48444366      38.50208282       0.39503565
H       36.22373962      42.10723114       4.88255024
H       35.37669373      37.35105515       2.24048972
H       37.06378174      41.94960403       2.74849057
H       34.34379578      37.56274796       4.63682604
H       34.23107910      38.78126907       6.67726994
H       37.28141785      40.85366821       0.59598321
C       11.28928185      38.12842178       1.11459661
C       -6.38716173      42.71912003      27.80741692
C       12.35687160      38.96899796       1.20449376
C       -7.48087502      41.93785858      27.73298454
C       12.33842182      40.24571228       0.56153536
C       -7.60531473      40.66225433      28.37746429
C       13.48410988      41.05198669       0.59995580
C       -8.69797611      39.74399185      28.43610764
C       10.10586548      38.50291824       0.45524934
C       -5.26265621      42.25541306      28.46479797
H       11.47807121      37.14088821       1.52387989
H       -6.48780394      43.73616028      27.42461014
H       13.29774857      38.62910461       1.62875783
H       -8.29135227      42.33007812      27.11108017
H       14.33968258      40.78743362       1.22417438
H       -9.60630035      40.15366745      27.98229027
H        9.23977184      37.89403534       0.38432643
H       -4.39088821      42.86556625      28.32254219
C        4.01267052      40.59531784       6.61327648
C        3.37043023      38.39646912       2.03723955
C        4.78953266      39.53754807       5.91411924
C        3.29556537      39.73107529       2.42566371
C        4.22098732      39.15146637       4.58923435
C        3.65368009      40.11256409       3.73625398
C        4.25197887      37.84308624       4.18277311
C        3.90461659      41.52556992       4.12896204
C        4.10707283      41.80379868       5.68580675
C        3.89404225      37.47195816       2.89701247
H        4.54650450      40.86795044       7.53532696
H        3.02304316      38.12767410       1.03907335
H        4.71263361      38.71950150       6.61292076
H        2.85193825      40.47990799       1.76605761
H        4.52809477      37.06611633       4.86608505
H        3.27395821      42.20232010       3.63579917
H        3.46302843      42.62989044       6.06335258
H        4.11775351      36.50480270       2.50965476
C       25.34544563      33.72500992       6.24473429
C       23.98583412      34.88649368      10.85071945
C       25.45199966      34.85401535       6.99950647
C       24.07245827      33.68311691      10.17953396
C       24.91000366      34.91269302       8.26275825
C       24.51946449      33.71231842       8.83965492
C       24.85345078      36.10365295       8.97611713
C       24.56565285      32.46670151       8.09752750
C       24.92231178      32.50019836       6.80104971
C       24.32184601      36.09863281      10.20795631
H       25.69247818      33.79234314       5.18810940
H       23.46787262      34.88949203      11.80151558
H       25.84630013      35.73656082       6.52949572
H       23.89783287      32.74763870      10.66685104
H       25.20398521      37.03058243       8.58997631
H       24.21329117      31.59005165       8.54500389
H       24.78736687      31.65778542       6.09937811
H       24.11059380      36.99552536      10.77930355
