7200
Lattice="39.763004303 0.0 0.0 0.0 58.9316482544 0.0 -18.8008785248 0.0 28.526468277" Properties=species:S:1:pos:R:3 step=0 time_fs=0.0 pbc="T T T"
C       32.04243851      24.30937958       3.05665159
C       32.88968277      26.70702171       5.60535145
C       36.23718643       1.26347458       4.98120308
C       36.01554489      26.95200729       3.23149443
C       32.74935913      25.17979622       2.27838063
C       32.09020996      27.61929321       6.22943354
C       35.40211868       0.51847112       5.75710773
C       36.51152039      25.99396324       2.38875413
C       33.09272766      24.85319138       0.94609499
C       31.60552788      27.39295197       7.53488636
C       35.05233765       0.95161933       7.06945562
C       37.13363647      26.35423088       1.16967595
C       28.93567085      25.47763062       7.28841019
C       36.75090027      28.70198250       1.74629939
C       38.84822464       0.30573574       0.77623224
C       32.75378799      25.24575615       7.51229191
C       -1.26903033       0.71741515       2.02752829
C       33.24060822      25.50581551       6.25738049
C       29.32884598      25.12949181       6.02984190
C       36.12095642      28.31973267       2.89902377
H       31.77738380      24.57635880       4.06398535
H       33.25344086      26.92875099       4.60763836
H       36.48638153       0.92486274       3.99056673
H       35.52893448      26.68473244       4.15146351
H       33.06077957      26.15237236       2.65780973
H       31.81850243      28.54167175       5.72316742
H       34.99997711      58.49588776       5.41937065
H       36.42617035      24.94581223       2.63181567
H       29.16051102      26.45234299       7.69468498
H       36.81685257      29.75565147       1.49719310
H       38.42317963      58.34312820       0.34372208
H       33.01525497      24.31568527       8.01306248
H       37.78036118       0.13002510       2.60886407
H       33.88552475      24.78301048       5.77584076
H       29.89199829      25.82666969       5.41945457
H       35.71028137      29.07775688       3.55254650
C       27.25765610      23.94116020      10.23052597
C       27.92711639      27.45949936      12.52847290
C       -7.62477541       1.74418795      12.20062160
C       30.60724449      26.85432434      10.08907127
C       27.89903259      24.86423492       9.45246410
C       27.24301529      28.35538483      13.29569721
C       -8.26684570       0.91717160      13.06439400
C       31.38351059      25.92353630       9.46299553
C       28.25682831      24.55244827       8.11961365
C       27.03903580      28.12476349      14.68601608
C       -8.57065678       1.35394025      14.37746811
C       31.92086029      26.16907501       8.18186188
C       24.57704544      25.54655838      14.71615410
C       30.81198883      28.34452820       8.21376038
C       34.19232178       0.20344006       7.90933132
C       28.26242828      26.02458191      14.43941212
C       -5.90407562       0.65451902       9.15574741
C       28.44050789      26.27599716      13.11205769
C       24.96330643      25.19525528      13.45460796
C       30.31295586      28.08203888       9.46124935
H       27.00732040      24.20345688      11.25637722
H       28.07906151      27.64782333      11.46937370
H       32.36429596       1.39062810      11.19216251
H       30.23204231      26.66774559      11.10531330
H       28.13954735      25.83622932       9.84314251
H       26.83752060      29.27421188      12.84781647
H       31.21568489      58.83888245      12.77690983
H       31.63981056      24.99964714       9.96138573
H       24.87478828      26.49510384      15.12368584
H       30.59946442      29.29465103       7.72627163
H       33.83124161      58.18165588       7.56701279
H       28.64362907      25.10653305      14.89747715
H       33.21732712       0.04864129       9.79349899
H       28.97165108      25.53483582      12.49553871
H       25.56835556      25.86569214      12.87454033
H       29.69403076      28.82210922       9.96442223
C       22.63883400      24.12740135      17.55713654
C       23.85506821      27.31153107      19.95870399
C      -12.48297691       1.44867921      19.53705597
C       26.64545631      27.59052658      17.41027069
C       23.41622734      24.98505783      16.83123207
C       23.16890717      28.16476631      20.77316475
C      -13.04319096       0.52327198      20.37217712
C       27.35662842      26.70578766      16.63914108
C       23.79467773      24.66117477      15.50536633
C       22.64539719      27.71472740      22.00814247
C      -13.23966503       0.80445319      21.74133110
C       27.56814766      26.95021248      15.26299095
C       19.78500557      25.63920784      21.61665726
C       26.28903770      29.01479721      15.49408817
C       -9.21813202       0.50936246      15.30523491
C       23.61755943      25.52381134      21.55127907
C       -9.58517361       0.97439390      16.53674316
C       24.06586266      25.96825409      20.34114075
C       20.12333870      25.24613190      20.34893417
C       26.09586525      28.75369835      16.81678009
H       22.34187889      24.40868759      18.56867981
H       24.23623848      27.66522408      18.99976349
H       27.45167542       1.20614862      18.50092697
H       26.49620819      27.38658714      18.45645714
H       23.74777031      25.93654060      17.25219536
H       23.01264000      29.19159508      20.47122383
H       26.43690872      58.47615814      19.98561287
H       27.76934624      25.80252075      17.07552910
H       20.09934616      26.61498261      22.00506783
H       25.86577034      29.88876915      15.05295467
H       -9.42401695      58.42887878      15.00065899
H       23.79759026      24.52333832      21.86989403
H      -10.07206821       0.31180105      17.24736595
H       24.59292030      25.28871536      19.68168449
H       20.71036720      25.89730453      19.72659492
H       25.51395988      29.44585419      17.41778374
C       17.91541100      24.32448006      24.55270195
C       19.50510406      27.12734413      27.27472115
C      -17.42590904       1.32573712      26.55989075
C       21.76661301      26.81211472      24.50813484
C       18.65499687      25.16445923      23.77260971
C       19.08685493      28.08371162      28.14971352
C       21.41213608       0.61273491      27.26607323
C       22.47453880      25.97247124      23.70093155
C       19.03041458      24.78064728      22.45749664
C       37.26942062      27.73613167       0.84735554
C        0.04775885       1.03147900       0.02948861
C       22.91537285      26.38948822      22.42423058
C       33.82924652      25.73778534       0.12486242
C       21.86058044      28.54795265      22.83764076
C      -13.69884014      58.76213837      22.65922546
C       37.62401199      25.38701439       0.25982478
C      -13.85195351       0.13118638      23.98097610
C       19.37679672      25.76034927      27.59391594
C       15.35533714      25.39225197      27.36870766
C       21.43309975      28.11389923      24.05785751
H       17.62333870      24.63102913      25.53994179
H       19.94623566      27.43927765      26.34384537
H       22.63705444       0.98626637      25.58521843
H       21.46293831      26.47934341      25.48477745
H       18.95200920      26.12793159      24.13321304
H       19.22928429      29.13950348      27.92262077
H       20.95844460      58.64397049      26.85548973
H       22.69917679      24.96618080      24.02704239
H       34.15034866      26.69815826       0.52816504
H       21.62121391      29.54846191      22.51187897
H      -13.92347240      57.75747299      22.29985237
H       37.55658722      24.35081482       0.53575337
H      -14.16290951      58.29175949      24.69108582
H       19.74530411      25.00411987      26.92226410
H       15.92852497      26.07419014      26.73861885
H       20.85997391      28.78594398      24.69333839
C       32.05412292       2.04580164       3.36896229
C       32.63369751       5.15073681       5.54423046
C       -2.84858179       7.26736307       5.45012665
C       35.82573318       4.68250895       2.94679236
C       32.81698227       2.88094878       2.60033703
C       31.89935684       5.94815636       6.37132931
C       -3.66819382       6.45563126       6.18228483
C       36.44623184       3.82764983       2.08678317
C       32.83162308       2.73261690       1.18844962
C       31.55698586       5.51221561       7.67757320
C       -4.03072548       6.79202461       7.50667906
C       36.75280380       4.22596025       0.76151460
C       29.21477509       3.38979316       6.36578417
C       35.73110962       6.37861061       1.24776947
C       -0.13089220       5.92885399       1.11898887
C       32.62211990       3.38672113       7.18223524
C       -0.48452693       6.24513531       2.39865255
C       33.02977753       3.86187482       5.96996164
C       29.28679276       2.80036950       5.13848591
C       35.45380783       5.97892046       2.52476406
H       32.07138824       2.12207174       4.44523525
H       32.91650772       5.49937534       4.55683851
H       -2.54168296       6.96299219       4.44776297
H       35.60023117       4.34915209       3.96183276
H       33.43832016       3.61630726       3.05158281
H       31.57994652       6.92778111       6.06267548
H       35.71629715       5.50571346       5.76085472
H       36.68482590       2.81695199       2.39689207
H       29.57883835       4.37254953       6.51629114
H       35.43070602       7.35218906       0.89738071
H       39.27154541       5.01602793       0.65818101
H       32.87509918       2.36994791       7.48819494
H       -1.11828280       5.58966064       2.94792342
H       33.63997650       3.23373151       5.32659960
H       29.72601128       3.31557250       4.30458879
H       34.93333817       6.65938616       3.20967531
C       27.77930260       2.66106653       9.71768665
C       27.95887375       4.76738214      12.51659775
C       -7.75571203       7.62105036      12.52439785
C       30.91827011       4.61949110      10.24681759
C       28.40732956       3.32031107       8.70353127
C       27.18889618       5.57648897      13.30288696
C       -8.57853985       6.77803516      13.21759129
C       31.57127571       3.78590655       9.38733006
C       28.63834000       2.69305825       7.45920038
C       26.93436623       5.22533941      14.65823650
C       -8.90475941       7.04836607      14.57084942
C       31.91080093       4.21154785       8.08442688
C       24.45589256       2.96976829      14.40393448
C       30.86119652       6.35320282       8.58174324
C       -4.86468077       5.96580029       8.30058575
C       28.23419189       3.18751502      14.31629372
C       -5.19296789       6.32136440       9.57157326
C       28.48699570       3.55968714      13.03321743
C       24.68659401       2.64138150      13.09844685
C       30.55986977       5.92210817       9.84476376
H       27.52116966       3.14548826      10.63730431
H       28.15537643       5.04435205      11.49222183
H       -7.51504230       7.39147282      11.48974228
H       30.66372490       4.28232574      11.24144745
H       28.70223236       4.35128212       8.82712841
H       26.76819038       6.51261044      12.93375874
H       30.76112556       5.90909719      12.74203110
H       31.82870293       2.78088260       9.70538044
H       24.42223740       4.01294374      14.72843552
H       30.59817314       7.34666824       8.26657200
H       34.52200699       5.05696297       7.85801077
H       28.63965225       2.26736641      14.72541428
H       -5.84283400       5.69296265      10.17705345
H       29.10246658       2.93166924      12.41439724
H       24.85207748       3.41892242      12.34543991
H       30.00783348       6.58343792      10.51013756
C       23.86273766       1.27351773      17.66171455
C       23.64384460       4.57751465      19.96713638
C      -12.26533508       7.35291386      19.71875954
C       26.47641182       4.51344109      17.31989098
C       23.98515320       2.26872587      16.73404312
C       22.86214447       5.43366146      20.68330002
C      -12.99210453       6.48240566      20.47793770
C       27.21562958       3.68161225      16.52113724
C       24.29562759       1.96262467      15.38615799
C       22.44761086       5.10476255      21.99772072
C      -13.31463242       6.78205395      21.82104683
C       27.45569038       4.02093744      15.17000580
C       19.71176910       3.34139848      21.61053085
C       26.18762970       6.07001591      15.50965023
C       -9.72228050       6.16777229      15.32056713
C       23.63176918       2.98540950      21.77730751
C      -10.03415012       6.44499493      16.61975288
C       24.04825020       3.34356332      20.52812004
C       20.18121529       3.02704501      20.36372948
C       25.95218849       5.71662760      16.80871010
H       23.55522156       1.50549066      18.69137001
H       23.96506500       4.83773804      18.95730782
H      -12.02960682       7.09662437      18.69182205
H       26.29238510       4.22657061      18.35066605
H       23.83401108       3.30787158      17.01304817
H       22.55935287       6.39213467      20.26030731
H       26.43053055       5.53801537      20.05685806
H       27.61711693       2.75197697      16.91499138
H       19.86661148       4.33250713      22.03807831
H       25.80740738       6.98751020      15.11870956
H       29.65630531       5.28732061      14.81947327
H       23.92624855       2.03180361      22.20974922
H      -10.67912006       5.76272678      17.18134499
H       24.70799828       2.69213605      19.97950745
H       20.73329353       3.76244497      19.79255676
H       25.37315941       6.37066984      17.45300865
C       17.83838272       1.78865790      24.40636444
C       18.54394531       5.07713604      26.68566132
C      -16.92719269       7.32839489      26.84511948
C       21.59454536       4.38029337      24.56408882
C       18.50730133       2.71736526      23.66398430
C       17.89188004       5.91746807      27.54294205
C      -17.72898293       6.49119139      27.55103874
C       22.36996841       3.51508427      23.83573341
C       19.01596069       2.39132357      22.38577080
C       36.39170837       5.52006102       0.33958775
C        0.68937302       6.79391909       0.35195816
C       22.81675911       3.85680318      22.54410934
C       33.71131516       3.47734356       0.35994282
C       21.66868782       6.00167179      22.78259277
C      -14.07900143       5.90254259      22.62891006
C       18.57697105       3.35059357      28.36565208
C      -14.41072941       6.23954630      23.91195869
C       18.88064575       3.77329540      27.10054016
C       15.05665493       3.16801357      27.56516838
C       21.25191498       5.64525557      24.03100967
H       17.42712784       2.03109574      25.38927269
H       18.76054001       5.41025877      25.68263245
H      -16.61332321       7.06292105      25.84160995
H       21.25718880       4.08634615      25.54365349
H       18.64381981       3.71585870      24.04714394
H       17.58759880       6.91881895      27.23803139
H       21.67631531       5.56245995      27.12355423
H       22.65518379       2.53898931      24.22589874
H       34.25765991       4.29438305       0.80348146
H       21.40063667       6.95693016      22.36429024
H      -14.41670418       4.96522570      22.20482445
H       37.61911011       2.34073830       0.14188422
H      -15.01632881       5.57547426      24.50666618
H       19.37701797       3.09696770      26.41267967
H       15.75911522       3.71852827      26.94730568
H       20.61693764       6.33385563      24.62053299
C       31.60654259       7.29594994       2.90694213
C       32.80508423      10.30765247       5.41218472
C       -2.94576645      12.76337242       5.45362425
C       35.81289673      10.14495182       3.10834956
C       32.41401672       8.15442371       2.21682048
C       32.03344727      11.16150951       6.15118170
C       -3.67804742      11.92125511       6.24512529
C       36.62542343       9.32638168       2.37725544
C       32.76900101       7.87701082       0.87302691
C       31.72840881      10.87127972       7.49991179
C       -3.99539804      12.27189445       7.58261585
C       36.94429779       9.62934589       1.03153586
C       28.97886467       8.96281910       7.14997005
C       35.60165024      11.65221405       1.23379254
C       -0.04139528      11.44618702       1.25636232
C       33.00469971       8.81365395       7.28885078
C       -0.38709563      11.81005001       2.52654600
C       33.29599762       9.11892700       5.98411083
C       29.28550911       8.59192181       5.86924934
C       35.28661346      11.32213402       2.52800107
H       31.35697365       7.52398300       3.91071939
H       33.04109955      10.53289604       4.37693214
H       -2.70205259      12.46799755       4.43477869
H       35.58228683       9.88457012       4.12478065
H       32.79076767       9.08079243       2.68016386
H       31.64266205      12.06872559       5.73597860
H       35.74177551      10.94996166       5.86450100
H       37.03810883       8.43286133       2.81566024
H       29.33593750       9.88841915       7.55422068
H       35.22441483      12.56346512       0.80164105
H       -0.33984295      10.49048805       0.88463342
H       33.37297821       7.91019440       7.73920059
H       -0.97120798      11.14075947       3.15282106
H       33.90578461       8.44697380       5.40195131
H       29.90502930       9.22863960       5.25232029
H       34.64054871      11.98444748       3.11409521
C       27.12521935       7.64843798      10.09241486
C       28.05007744      10.44533825      12.58017445
C       -7.70499516      12.87074089      12.59568214
C       31.13468552      10.23893261      10.16810894
C       27.88496780       8.47457886       9.31391144
C       27.27621269      11.26388454      13.35754204
C       -8.46483803      12.02724266      13.35129452
C       31.91616440       9.39288425       9.42904091
C       28.18431282       8.12751961       7.97292948
C       26.91059303      10.88926029      14.67520046
C       -8.79333210      12.35003376      14.69319534
C       32.22294617       9.67972851       8.07341194
C       24.12616920       8.77621555      14.40443802
C       30.93868828      11.74256515       8.29706860
C       -4.74622726      11.41759110       8.41341305
C       28.07447624       8.77547359      14.32291889
C       -5.07268190      11.78652287       9.68885231
C       28.45080757       9.18261623      13.07661438
C       24.44359970       8.45267296      13.11875343
C       30.63752174      11.42581654       9.58763123
H       26.91276550       7.94658804      11.13082314
H       28.34827423      10.75654030      11.58509064
H       -7.43138504      12.59828663      11.58301640
H       30.88574791       9.97780132      11.18977833
H       28.26670647       9.40983677       9.69674110
H       26.96443748      12.23979378      12.98024845
H       30.94944382      11.09016895      12.96182251
H       32.31352234       8.47319031       9.83195305
H       24.42127991       9.73227596      14.80776215
H       30.56947708      12.65584087       7.86582375
H       -5.07439470      10.46804142       8.02037811
H       28.36495399       7.81675720      14.68997765
H       -5.67678404      11.14017391      10.29204750
H       29.06651115       8.54263687      12.44422150
H       24.98709869       9.13185692      12.50727844
H       30.01780128      12.11007404      10.18171310
C       22.45724869       7.27501678      17.36927032
C       23.54460144      10.17624855      19.73216629
C      -12.26386547      12.85472965      19.76089287
C       26.24937439      10.10845852      17.28782845
C       23.11093712       8.17886353      16.58072853
C       22.79553032      11.03911114      20.48736000
C      -13.00019169      11.98847866      20.52624702
C       26.97759819       9.26127911      16.49221039
C       23.43120193       7.86891937      15.23294830
C       22.46916008      10.72757435      21.83103943
C      -13.34721851      12.31344795      21.86326218
C       27.31747437       9.62663364      15.16320992
C       19.74554253       8.86684990      21.53602982
C       26.16927147      11.74572372      15.52029896
C       -9.56966305      11.48184681      15.50032711
C       23.67747116       8.62853622      21.57260513
C       -9.88403130      11.82549286      16.78500938
C       23.99361992       8.95478058      20.28611183
C       20.10872650       8.49533939      20.27038956
C       25.83715820      11.36692524      16.79529762
H       22.21873283       7.51992130      18.40340996
H       23.78276062      10.43368149      18.69884491
H      -11.99945354      12.58067608      18.76275253
H       26.01342392       9.80971813      18.30125237
H       23.39015770       9.13325691      16.96467972
H       22.43354988      11.98680973      20.06415367
H       26.44624519      11.03143787      20.12339783
H       27.30920601       8.27890491      16.86528969
H       20.06602859       9.82767296      21.95258331
H       25.87764931      12.70842075      15.13741970
H       -9.92628574      10.54440117      15.07015038
H       23.99954224       7.70273829      21.99820518
H      -10.48781395      11.14688778      17.38569450
H       24.56822395       8.28506374      19.70063019
H       20.73677063       9.15869617      19.69106674
H       25.26795006      12.05441380      17.42578888
C       17.73481750       7.57270813      24.37939072
C       18.77909470      10.30548382      26.91373062
C      -16.97949219      12.82237625      26.87455559
C       21.83366394      10.05971527      24.47073746
C       18.54802895       8.38044643      23.64626312
C       17.95971489      11.11862850      27.63581848
C      -17.72356033      11.97391510      27.63433456
C       22.58781815       9.20057678      23.71972466
C       18.94136810       8.01742458      22.33561325
C       36.43021393      10.80692291       0.45366764
C        0.71562040      12.32239914       0.43884093
C       22.91563416       9.51548862      22.37770271
C       33.58832169       8.76331425       0.12466462
C       21.69803429      11.60835648      22.63294601
C      -14.09498405      11.43053818      22.67371368
C       37.77117920       8.78150082       0.24433133
C      -14.45008850      11.77467728      23.94819069
C       19.28613663       9.11261654      27.48621941
C       15.14748955       8.46239090      27.36536217
C       21.37947273      11.28212261      23.92377090
H       17.42679024       7.86503172      25.36142540
H       19.03372002      10.56966686      25.89534378
H      -16.69029045      12.55254841      25.88824463
H       21.59029770       9.80854893      25.50177383
H       18.89623261       9.33262157      24.03710365
H       17.56414413      12.02772140      27.19574165
H       21.72122765      11.02092838      27.25523376
H       22.93637085       8.26454544      24.11955643
H       33.93047333       9.68282604       0.58949363
H       21.36305618      12.53600407      22.20278740
H      -14.38298893      10.47302532      22.25832558
H       38.13893127       7.87207270       0.69677955
H      -15.02715397      11.09603405      24.55926132
H       19.91523361       8.45405102      26.90585327
H       15.78275299       9.13056278      26.79340935
H       20.77803612      11.97365856      24.52093315
C       31.71862984      13.01080704       3.01718831
C       32.87749481      15.71194935       5.40806723
C       -2.91104460      18.14966583       5.49649334
C       35.64249802      15.45497227       2.97973943
C       32.47446823      13.86710739       2.26437354
C       32.08153915      16.52898216       6.15501738
C       -3.71778011      17.32109833       6.22837687
C       36.46451569      14.64481735       2.24904585
C       32.85126495      13.52882957       0.94275749
C       31.73434830      16.19150162       7.48608923
C       -4.06027985      17.63806343       7.56066465
C       36.85279465      15.00280094       0.92803389
C       28.90305710      14.32877827       7.20311356
C       35.57525635      17.06117058       1.17660367
C       -0.12478331      16.95398712       1.14690042
C       33.00824738      14.12570858       7.21562243
C       -0.48504835      17.31864357       2.41313601
C       33.34402847      14.48914242       5.94196606
C       29.23130035      13.98425102       5.92254305
C       35.18758392      16.68212509       2.43900204
H       31.41551018      13.29685116       4.01967859
H       33.15707779      16.00164604       4.40415096
H       -2.64151645      17.87096024       4.47742796
H       35.34343338      15.14912701       3.96887040
H       32.77480698      14.81411076       2.65990877
H       31.71232224      17.46339989       5.77000093
H       35.68508530      16.39776993       5.79801655
H       36.82475662      13.70836258       2.63773990
H       29.25436211      15.26245022       7.63301134
H       35.22699738      17.99300957       0.75670314
H       -0.44042015      16.01204681       0.72198498
H       33.33640671      13.20109272       7.63760138
H       -1.10174775      16.64638901       3.01103210
H       33.97251892      13.84014225       5.33923244
H       29.84293747      14.64650536       5.32942724
H       34.51358414      17.30826759       3.01288486
C       27.00158310      12.94810009      10.08902550
C       28.16100883      15.74573898      12.59218025
C       -7.66063595      18.31328011      12.64301300
C       31.10497665      15.47933578      10.12210560
C       27.77921486      13.78767395       9.34565830
C       27.43164253      16.60839081      13.36298656
C       -8.44099617      17.48435974      13.40131283
C       31.87915039      14.64132881       9.36219978
C       28.11644554      13.46696281       8.00611115
C       27.09925652      16.28600121      14.69713306
C       -8.76821041      17.82268715      14.73855591
C       32.20549393      14.96912956       8.02009201
C       24.28154945      14.40324211      14.37622643
C       30.96094322      17.04892731       8.29844093
C       -4.87334538      16.78577232       8.35065842
C       28.26353073      14.16622162      14.40345573
C       -5.21012068      17.12405586       9.62927246
C       28.57264709      14.50401974      13.12230873
C       24.60544968      14.06059933      13.09531212
C       30.63748932      16.70409012       9.58053112
H       26.75021172      13.22378922      11.09131050
H       28.41537285      16.02055931      11.56809902
H       -7.40555429      18.02991295      11.62053108
H       30.86797142      15.22121429      11.13914299
H       28.14888954      14.71737862       9.76032257
H       27.09998322      17.58005905      12.95726299
H       30.95680428      16.54733086      13.00024509
H       32.25401306      13.71866322       9.76938915
H       24.64844322      15.33911133      14.79857826
H       30.62145424      17.98853111       7.88495827
H       -5.21535492      15.86870575       7.92518330
H       28.57628822      13.21829796      14.80622482
H       -5.83888102      16.46920013      10.21725082
H       29.15522003      13.82247448      12.51137543
H       25.22160149      14.71346474      12.50829506
H       30.03661346      17.38216019      10.17892075
C       22.45186996      13.00280094      17.30397224
C       23.54459381      15.75577545      19.77351570
C      -12.19566441      18.36858177      19.78582382
C       26.47802162      15.59328461      17.34184456
C       23.19508934      13.85891819      16.53012657
C       22.80699730      16.60417938      20.55230141
C      -12.98313427      17.52980614      20.51091385
C       27.20672798      14.72675228      16.57353210
C       23.50630760      13.54164410      15.18883038
C       22.46481133      16.25840378      21.88247681
C      -13.34667969      17.84863281      21.84204674
C       27.52126694      15.04289055      15.23091793
C       19.67450905      14.43003845      21.52418137
C       26.37063026      17.16833305      15.52610207
C       -9.54402733      16.96272087      15.55847454
C       23.63658333      14.14341927      21.55992317
C       -9.87068272      17.32695389      16.83481026
C       23.96116638      14.50754166      20.28384018
C       20.02639008      14.07593441      20.25194931
C       26.05708504      16.83276176      16.81200409
H       22.21715736      13.26054001      18.32100296
H       23.79517555      16.03532791      18.75878143
H      -11.90489578      18.08862305      18.75953102
H       26.24618530      15.32038593      18.34870148
H       23.55158424      14.78444386      16.93161201
H       22.45439911      17.55989265      20.18010712
H       26.42872810      16.58261490      20.08909416
H       27.53769112      13.77903557      16.96025848
H       19.99739647      15.37872314      21.93522072
H       26.06200600      18.12191010      15.11880112
H       -9.88538265      16.01706505      15.15500450
H       23.94481468      13.18251705      21.96326637
H      -10.48539543      16.66686440      17.44106483
H       24.56624794      13.83416843      19.66516113
H       20.63758278      14.75987148      19.65970802
H       25.50705147      17.51265717      17.43158913
C       17.75210571      13.05254745      24.40159225
C       18.80386353      15.76372623      26.87382507
C      -16.94947433      18.28952408      26.81573868
C       21.76675415      15.48241615      24.48627281
C       18.52431107      13.90688324      23.65169716
C       17.99359131      16.58424377      27.60674286
C      -17.75232697      17.46078873      27.55347824
C       22.52228355      14.64792824      23.71273422
C       18.89883995      13.55851650      22.33331680
C       36.40485382      16.22624016       0.39593157
C        0.67229301      17.80939484       0.34712544
C       22.88237953      15.00554562      22.38951683
C       33.61478424      14.40250015       0.14049429
C       21.71161652      17.12294960      22.71304321
C      -14.14755821      16.98489189      22.63133621
C       37.67446136      14.16039848       0.14512350
C      -14.48942852      17.32714081      23.90568542
C       19.25333405      14.53815174      27.40967369
C       15.17982483      14.05584145      27.39729691
C       21.35381699      16.74052620      23.97249794
H       17.46993065      13.33331394      25.42342377
H       19.11105728      16.05578423      25.87870216
H      -16.66847420      17.98620224      25.81384087
H       21.47802353      15.18443012      25.46633530
H       18.86304474      14.86349106      24.03951263
H       17.62366104      17.52435493      27.20521164
H       21.67119408      16.51895905      27.14871216
H       22.84332275      13.68714428      24.09427834
H       33.91537094      15.35717869       0.56114149
H       21.40390205      18.06965446      22.32859421
H      -14.47734928      16.06285095      22.19207954
H       38.00635529      13.23030949       0.56397074
H      -15.11743641      16.66193581      24.49003601
H       19.89960098      13.89170074      26.82677460
H       15.76411438      14.74006557      26.78674889
H       20.76301002      17.42092133      24.58782578
C       31.73138237      18.50906754       2.99762440
C       32.73933792      21.17850494       5.36286592
C       -3.27006364      23.29013443       5.42414856
C       35.61779404      20.97263718       2.92772746
C       32.48141479      19.35575867       2.23474455
C       32.03417969      22.03533745       6.15806389
C       -3.96346951      22.49982834       6.30187273
C       36.42211914      20.14431953       2.19603109
C       32.84665298      19.02041245       0.90381986
C       31.74665642      21.68968391       7.49940014
C       -4.30160093      22.98512459       7.59360647
C       36.85957718      20.50960541       0.90249002
C       29.03453445      19.81254196       7.23565578
C       35.65679932      22.61517525       1.15482485
C       -0.00602977      22.54040527       0.97105801
C       32.91129303      19.57662392       7.15523958
C       -0.45278800      22.83587074       2.22572637
C       33.18610764      19.92627144       5.86369419
C       29.32205391      19.48432350       5.93879414
C       35.22340393      22.22760010       2.39272213
H       31.45699883      18.79066658       3.99828458
H       32.96192169      21.46909332       4.33284664
H       36.78267670      22.89834976       4.45982170
H       35.28358078      20.66724968       3.92319965
H       32.80144882      20.30448341       2.62560463
H       31.67946243      22.98634338       5.78751516
H       35.51801300      21.48138237       6.04067802
H       36.72142792      19.19308281       2.60718107
H       29.38842964      20.72174072       7.68010807
H       35.35560989      23.57281494       0.74457055
H       -0.22241201      21.59729195       0.51779246
H       33.24515152      18.62697792       7.52541161
H       -1.03682506      22.10893250       2.78846812
H       33.74810410      19.24941635       5.22979784
H       29.91220474      20.16249275       5.33252621
H       34.59302139      22.88467026       2.97192359
C       27.24985504      18.39871407      10.17272758
C       28.31484604      21.37841225      12.71525860
C       -7.72473574      23.67277336      12.50494099
C       31.19418144      20.95507622      10.14658451
C       28.00650406      19.24612045       9.41260433
C       27.63292694      22.25059509      13.51632595
C       -8.44668293      22.88508034      13.36104012
C       31.91321182      20.10746956       9.35290718
C       28.27653694      18.94632149       8.05887985
C       27.25229836      21.88875771      14.83092880
C       -8.79735279      23.35942078      14.64973831
C       32.18383408      20.44573593       7.99789619
C       24.45094872      19.86485481      14.54755306
C       31.01124191      22.55456924       8.35004520
C       -4.95734119      22.17789459       8.55273819
C       28.30500793      19.72044754      14.46276760
C       -5.26786852      22.66510201       9.78572273
C       28.65117455      20.09228134      13.19910526
C       24.81713486      19.51753807      13.27994442
C       30.73136330      22.18814278       9.64213753
H       27.05234146      18.64470863      11.21758652
H       28.60666466      21.67043304      11.71588039
H       -7.43981600      23.28321075      11.52468967
H       31.00043869      20.67152786      11.17063332
H       28.41138077      20.16619682       9.84694958
H       27.38336754      23.24369049      13.17111397
H       31.01264381      21.87714577      13.09245110
H       32.28755188      19.14360237       9.72248554
H       24.79613113      20.80742073      14.97689343
H       30.66700745      23.51402855       7.97068787
H       -5.19651890      21.16985321       8.27026653
H       28.57089615      18.74425697      14.86144543
H       -5.78266621      22.02783775      10.48994637
H       29.20659256      19.39571762      12.57535172
H       25.47701263      20.15605736      12.71445560
H       30.15960884      22.85302544      10.27388668
C       22.49968147      18.47298622      17.39470673
C       23.58325195      21.32567596      19.78438568
C      -12.40569687      23.94278145      19.67421150
C       26.54124260      21.10521507      17.42308426
C       23.28202057      19.32332993      16.65662766
C       22.84967232      22.18138123      20.54608154
C      -13.07002354      23.08971787      20.50319099
C       27.24933624      20.24550056      16.63914871
C       23.63722420      19.00780869      15.32302570
C       22.50595665      21.86414337      21.88651848
C      -13.43268299      23.49345589      21.81474686
C       27.60156250      20.60582733      15.31416512
C       19.75127602      19.93835068      21.57622719
C       26.54196167      22.76630402      15.68363953
C       -9.50347042      22.54995155      15.56841278
C       23.69576263      19.74762917      21.60871124
C       -9.84600163      23.02180672      16.80521393
C       24.01801682      20.08396530      20.31833649
C       20.09462166      19.58798027      20.29474258
C       26.16903687      22.37710190      16.94090080
H       22.23429489      18.73474693      18.40392685
H       23.86336899      21.58721733      18.76300240
H      -12.12268829      23.61640358      18.67913055
H       26.28557396      20.81438828      18.43075180
H       23.64713860      20.26071167      17.10120964
H       22.48759079      23.12382507      20.15322113
H       26.42798424      22.08853340      20.19213104
H       27.53801155      19.27705574      16.99242783
H       20.09221458      20.88357544      21.99040985
H       26.27570915      23.76374626      15.31056404
H       -9.77137756      21.54919815      15.26414394
H       24.01850510      18.79798698      22.03910255
H      -10.39935112      22.39170837      17.48106384
H       24.59168243      19.41084671      19.70106697
H       20.70449638      20.26026535      19.70224953
H       25.59979820      23.05234718      17.55576324
C       17.86178589      18.54854584      24.45769691
C       18.88406563      21.27994728      26.86523819
C      -16.83316612      24.11076736      26.76981926
C       21.83816338      21.14702988      24.50576973
C       18.63040924      19.39487648      23.71416664
C       18.08282661      22.12069702      27.59165192
C      -17.55440712      23.18647003      27.46954536
C       22.59961128      20.29758644      23.75113297
C       18.96558762      19.07477760      22.36999893
C       36.46527863      21.76026535       0.36974502
C        0.76455981      23.47175026       0.23912111
C       22.93999672      20.62712860      22.41677284
C       33.60944748      19.88075638       0.08790586
C       21.73808479      22.73291397      22.69301414
C      -14.10017490      22.61874008      22.71360016
C       37.67618179      19.66287041       0.11651149
C      -14.41983986      23.02746391      23.97655869
C       19.28883362      20.03804398      27.39908028
C       15.17085648      19.51179886      27.35198402
C       21.40284729      22.38397217      23.97276878
H       17.61860847      18.81460381      25.48810196
H       19.22174835      21.56467628      25.87850571
H      -16.46582794      23.85665512      25.77796936
H       21.57203293      20.87413979      25.51582146
H       19.00841522      20.30650520      24.12450409
H       17.75813675      23.08278275      27.17816925
H      -17.76354790      22.20972252      27.04993057
H       22.94709396      19.35762978      24.14983368
H       33.92906189      20.82738113       0.48071340
H       21.39667320      23.68073082      22.26534843
H      -14.35389328      21.60278702      22.36126328
H       37.96474457      18.70157433       0.52957374
H      -14.92031097      22.35753822      24.63668060
H       19.93035316      19.36112595      26.82319260
H       15.76606083      20.17873383      26.73732948
H       20.80814171      23.04989052      24.57729530
C       -0.14632665      24.08534050       2.81325173
C       -0.06412743      26.86675835       5.11165810
C        4.37389231       1.14197886       5.18783522
C        3.82874489      27.21367836       2.86725211
C        0.59606564      25.00809288       2.11930561
C       -0.90615320      27.57549667       5.91206837
C        3.45305586       0.53559768       5.99634361
C        4.55567598      26.33378029       2.11284614
C        1.05821991      24.73252106       0.81494319
C       -1.01817286      27.26791382       7.28889322
C        3.13365960       1.07733238       7.26770401
C        4.96688223      26.67936707       0.79629552
C       -3.29606462      25.11894035       6.98367405
C        3.86297321      28.83833694       1.08763897
C        7.15546370       0.95975471       0.60384154
C        0.55293304      25.44227982       6.95530319
C        6.86218023       1.35789680       1.88071585
C        0.68372530      25.79337883       5.63901949
C       -2.93241978      24.61421204       5.76881838
C        3.49548578      28.49442101       2.35008121
H       -0.51227361      24.33129501       3.81333065
H        0.02457836      27.12582779       4.05977058
H        4.63960123       0.70248091       4.23183346
H        3.50986290      26.93742561       3.87038898
H        0.82694101      25.97046280       2.56381202
H       -1.47739780      28.41096687       5.51763916
H        2.98417711      58.52796555       5.68841648
H        4.81079435      25.36128616       2.49692893
H       -3.07910609      26.13976097       7.24668646
H        3.61168075      29.80106735       0.68601292
H        6.61615419       0.13514085       0.16475104
H        1.08947611      24.59413338       7.34296226
H        6.10785103       0.82902431       2.43751216
H        1.37563217      25.22695160       5.00038767
H       -2.37895989      25.24183083       5.09122467
H        2.93704104      29.18560600       2.96503592
C       -4.91467667      23.98709106      10.14253330
C       -3.76833200      26.83072472      12.61417389
C       -0.30217081       1.55142462      12.38721085
C       -1.29609776      26.56498337       9.98275471
C       -4.26239204      24.78855705       9.23916626
C       -4.42798996      27.76436043      13.36440468
C       -1.19195867       0.81675661      13.13080120
C       -0.44701594      25.84737968       9.19024277
C       -3.95118666      24.31131744       7.94690704
C       -4.91222239      27.44343758      14.65496826
C       -1.48431206       1.17509043      14.47089767
C       -0.28986540      26.18211937       7.81582022
C       -7.68681002      25.46784782      14.11923218
C       -1.88778603      27.98896980       8.13553524
C        2.24612880       0.43034631       8.15946388
C       -3.84540153      25.25851250      14.42970276
C        1.98118949       0.95892280       9.38337135
C       -3.47868204      25.56187630      13.14369774
C       -7.34004164      24.97398567      12.89786434
C       -2.02691603      27.64913940       9.45253658
H       -5.15668440      24.38323021      11.11952972
H       -3.45248747      27.08477402      11.61545277
H       -0.10441764       1.26583338      11.36515713
H       -1.40650320      26.30018616      11.03505707
H       -3.98634243      25.82210732       9.48084927
H       -4.61338520      28.73780632      12.95843601
H       -1.67684257      58.87738800      12.70111465
H        0.10710993      25.00752831       9.58079720
H       -7.40146208      26.46368790      14.40958786
H       -2.43715191      28.83589935       7.71025372
H        1.75826013      58.41559601       7.85531044
H       -3.60850501      24.29364777      14.85806084
H        1.32094216       0.44876879      10.08273792
H       -2.95076108      24.82081604      12.54368877
H       -6.75577927      25.57863045      12.21000481
H       -2.67958236      28.24306107      10.07419205
C       -9.47152901      24.32972908      17.18868637
C       -8.82367611      26.83761215      19.64437103
C       -4.77383232       2.49676585      19.74667358
C       -5.84947252      26.70690918      17.18921089
C       -8.77588463      25.13269615      16.32541847
C       -9.65802860      27.64219284      20.36835670
C       -5.66580963       1.66017389      20.34501266
C       -5.02739239      25.86645508      16.52212334
C       -8.41462708      24.67023849      15.03674412
C       -9.81259346      27.44091034      21.76128769
C       -5.84725952       1.66672409      21.74761391
C       -4.57480335      26.18761826      15.21086121
C      -12.46297646      25.67443848      21.34807968
C       -5.78154182      28.30302048      15.38128281
C       -2.41896796       0.46018711      15.24090576
C       -8.30572510      25.52610207      21.60054970
C       -2.67191458       0.81238461      16.53658867
C       -8.15239525      25.75261116      20.25958443
C      -12.10167599      25.25184059      20.09919929
C       -6.27309132      27.92295456      16.59602356
H       -9.75404835      24.70305061      18.16839409
H       -8.68479347      27.02296066      18.58572578
H       -4.61501265       2.47323346      18.68672562
H       -6.20630598      26.45970345      18.18514824
H       -8.48553753      26.14569855      16.60909653
H      -10.16816330      28.48012733      19.89648438
H       -6.25870371       0.96805412      19.76318550
H       -4.71295738      24.92072487      16.93674469
H      -12.26473427      26.67687798      21.68923378
H       -6.09040356      29.23209381      14.94439316
H       -2.95501423      58.57759476      14.77260971
H       -7.82799339      24.68619728      22.08191490
H       -3.39441657       0.21852021      17.10937309
H       -7.51926470      25.09998894      19.66781425
H      -11.57665157      25.91555023      19.42984772
H       -6.97719049      28.56802750      17.11532593
C      -14.07046223      24.32941627      24.41321564
C      -13.09655762      27.38459015      26.71805763
C       -9.32083988       1.85766840      26.37851524
C       -9.99334335      27.07511711      24.53639030
C      -13.43493843      25.19049454      23.56973457
C      -13.81700039      28.26724625      27.46704674
C      -10.31625175       1.22336197      27.06411552
C       -9.22499466      26.22088051      23.79397583
C      -13.11134338      24.79705811      22.24291039
C        4.60205698      27.94492340       0.27487338
C      -10.63299656       1.60915244      28.38649178
C       -9.11304760      26.38452339      22.38345718
C        1.79176009      25.68111420       0.05871691
C      -10.62409687      28.29416847      22.55359077
C       -6.74301338       0.78385562      22.40008354
C      -13.07606888      25.79160881      28.52631950
C       -6.98773146       0.92510217      23.74163246
C      -12.71349335      26.13611603      27.25356102
C      -16.55356026      25.37598038      27.33591270
C      -10.70112419      28.12464905      23.90628433
H      -14.28660011      24.65638542      25.42122078
H      -12.81618118      27.64589310      25.70486259
H       -9.08191872       1.56748033      25.38097000
H      -10.04994011      26.94129562      25.61814880
H      -13.18038559      26.20406151      23.88531685
H      -14.10047436      29.23512650      27.07627678
H      -10.85795403       0.40570650      26.62091255
H       -8.68413258      25.41209602      24.25984573
H        1.99738467      26.65290451       0.50189453
H      -11.15161419      29.11102676      22.09103203
H       -7.25188684       0.02773173      21.81083107
H        6.01580620      24.80923271       0.39964822
H       -7.70776463       0.28206921      24.22035980
H      -12.12309742      25.45905113      26.64684296
H      -15.97902584      26.10426712      26.77176285
H      -11.28780270      28.78697205      24.49188042
C       -0.67606986       1.86803794       2.59362864
C        0.66351080       4.47691536       5.15548325
C        4.86247349       7.14480782       5.23406219
C        3.50537682       4.08981562       2.79107404
C        0.23475146       2.59010673       1.89020383
C        0.10034662       5.37953281       6.01505041
C        4.04929209       6.30457401       5.93076277
C        4.13676310       3.32273841       1.84566677
C        0.61669350       2.19954515       0.58572996
C       -0.35183763       4.97785807       7.30195427
C        3.69172382       6.59083843       7.27570486
C        4.57567453       3.89738417       0.62915659
C       -3.30285096       2.91623235       6.72709608
C        3.70614982       6.04329062       1.38700712
C        7.64762259       5.89991999       1.13172078
C        0.30914181       2.69928837       6.74563503
C        7.33837366       6.24455786       2.41767979
C        0.76193231       3.11461902       5.52416563
C       -2.99372697       2.48031116       5.46475697
C        3.26928711       5.46547651       2.54347777
H       -0.94207311       2.16869998       3.60453773
H        1.00698888       4.80684137       4.18454790
H        5.12640429       6.91193867       4.20410395
H        3.17264366       3.62742400       3.73450780
H        0.68760616       3.48342013       2.32860446
H        0.00948060       6.42591810       5.74902964
H        3.66304231       5.38897038       5.46474218
H        4.28782034       2.26663566       2.02015853
H       -2.89392805       3.85080147       7.09944105
H        3.52788806       7.09426022       1.20533156
H        7.21328926       5.02115059       0.67633110
H        0.36726338       1.65473461       7.02591467
H        6.68596840       5.60925770       2.99091840
H        1.20522177       2.40549397       4.82015800
H       -2.33969140       3.07038808       4.84749985
H        2.74118209       6.07356882       3.28403640
C       -5.36490202       1.88073599       9.62293625
C       -3.75189376       5.16039467      12.60988235
C        0.24913679       7.20651960      12.64149761
C       -1.18299937       4.13248491       9.83774662
C       -4.51030731       2.60275006       8.85324001
C       -4.54829884       5.96197319      13.39432240
C       -0.49596480       6.37367296      13.42261982
C       -0.67070299       3.22055554       8.95900440
C       -4.16953135       2.16626692       7.55009651
C       -4.97077656       5.53554916      14.67476177
C       -0.80678791       6.72523832      14.76257420
C       -0.23248665       3.61831379       7.67413139
C       -7.56896019       3.51081634      13.83208942
C       -0.90731031       5.89451742       8.21531963
C        2.83107400       5.74295425       8.01313305
C       -3.83706975       3.41959071      14.26843166
C        2.47806692       6.05619574       9.29465485
C       -3.38564706       3.88177514      13.07166481
C       -7.24250889       3.04752541      12.59616470
C       -1.31046915       5.49079657       9.45840263
H       -5.59087944       2.20618606      10.61611366
H       -3.41274571       5.52006149      11.63728046
H        0.48666182       6.90768576      11.61728477
H       -1.48461068       3.82151031      10.82423306
H       -4.07558012       3.52357864       9.22560215
H       -4.85057592       6.93368149      13.05196190
H       -0.84489894       5.43031931      13.04632759
H       -0.57040441       2.17709780       9.23433685
H       -7.32190943       4.51662111      14.13358498
H       -1.00315869       6.93889952       7.93045998
H        2.44779038       4.85125923       7.54704523
H       -3.58187342       2.43110108      14.61281109
H        1.80559790       5.41268873       9.85632420
H       -2.74506712       3.25711393      12.46874619
H       -6.70321131       3.68601799      11.90931034
H       -1.72887921       6.21113014      10.16549778
C       -9.32486725       2.31771755      16.88517761
C       -8.71784401       4.73790312      19.50770187
C       -4.57232571       7.28057051      19.65604019
C       -5.79903269       4.61895323      17.19431496
C       -8.64951706       3.13506317      16.03564262
C       -9.30777931       5.60435629      20.37837791
C       -5.37437344       6.41417599      20.35081291
C       -5.05175161       3.80244660      16.38494682
C       -8.25011921       2.67761278      14.75576496
C       -9.65197849       5.19505978      21.69539070
C       -5.62976837       6.61438799      21.72668457
C       -4.62069845       4.24321795      15.11587143
C      -12.37554169       3.04534984      21.33731461
C       -5.74066639       6.36374664      15.52186108
C       -1.58953357       5.88300848      15.60315132
C       -8.83271313       2.96403885      21.13650894
C       -1.89552343       6.25982714      16.88096237
C       -8.46306038       3.39276314      19.90022659
C      -12.11879158       2.72531939      20.03543091
C       -6.15298271       5.91678858      16.75096703
H       -9.66256523       2.69508433      17.84836006
H       -8.45227051       5.05575895      18.50597000
H       -4.36460781       7.10474586      18.60851288
H       -6.11770201       4.25669622      18.14658165
H       -8.43112850       4.17299271      16.31271935
H       -9.51182079       6.62602425      20.08785629
H       -5.82804155       5.55304861      19.86318588
H       -4.79400492       2.80599570      16.70289421
H      -12.11345577       4.03185749      21.72694206
H       -6.00540495       7.35252428      15.17673969
H       -1.95362341       4.94669533      15.20713043
H       -8.70127392       1.92672193      21.43550301
H       -2.50631642       5.61866188      17.51101494
H       -7.99329662       2.72108126      19.20875359
H      -11.62496185       3.45234513      19.38695145
H       -6.74403286       6.54479027      17.39509201
C      -13.60971451       1.44114196      24.45145607
C      -13.23066235       5.13058519      26.83694839
C       -9.04958248       7.13110209      26.83722305
C      -10.30426025       4.31724405      24.27110672
C      -13.15720844       2.40228558      23.59261131
C      -13.94909573       5.86392164      27.73634529
C       -9.92293835       6.35602093      27.54908371
C       -9.75577641       3.44190168      23.37496376
C      -12.92664337       2.09410501      22.22719765
C        4.37680960       5.27906609       0.40119517
C        8.53374577       6.69346952       0.35556290
C       -9.40903282       3.85345817      22.07041931
C      -17.24918556       2.94165778      28.34473038
C      -10.23283577       6.07669306      22.62129593
C       -6.45599079       5.72920656      22.46125793
C      -13.58835316       3.13894320      28.14130592
C       -6.71492624       5.96181345      23.78820419
C      -13.05057430       3.74413300      27.04547501
C      -16.86958694       2.51258039      27.10761452
C      -10.54701614       5.65716457      23.88601875
H      -13.77950382       1.65075004      25.48521996
H      -12.82179832       5.59418392      25.95092011
H       -8.77884007       6.85203362      25.84001923
H      -10.54330349       3.98678684      25.26438522
H      -12.94773102       3.41518331      23.94779587
H      -14.13352203       6.90878773      27.54141998
H      -10.34403515       5.44799280      27.12298393
H       -9.59459305       2.39905953      23.64263535
H        1.96054971       3.83487916       0.24847189
H      -10.42649746       7.09052896      22.31510162
H       -6.86550140       4.86277056      21.95980263
H      -13.51446152       2.09102225      28.28585625
H       -7.36331940       5.27824163      24.34228134
H      -12.49166203       3.16488004      26.32086945
H      -16.14368248       3.07869744      26.52780914
H      -10.98378658       6.36725569      24.59041595
C       -0.01293507       7.44637728       2.98755336
C        1.03058672      10.24422646       5.40458298
C        5.03427410      12.69712925       5.44904804
C        3.95960021      10.10299587       3.06550145
C        0.78384668       8.29651928       2.27356219
C        0.27963719      11.09408283       6.17311716
C        4.25878048      11.85363388       6.19167995
C        4.75121260       9.28424072       2.31756735
C        1.14198029       7.99982452       0.93651694
C       -0.07523531      10.74556065       7.49932194
C        3.90243626      12.17532158       7.52852535
C        5.10582829       9.63619423       0.99266064
C       -2.74560833       8.85472488       7.26185560
C        3.84775734      11.70030880       1.26229107
C        7.94310331      11.39076233       1.30051196
C        1.05865443       8.61760902       7.17989492
C        7.58567524      11.77682686       2.56734848
C        1.41579497       8.98830128       5.91451502
C       -2.39138365       8.49204350       5.98743916
C        3.50160503      11.33465672       2.53190684
H       -0.29221821       7.69270182       4.00398445
H        1.31021798      10.54429054       4.39081764
H        5.29275084      12.41976738       4.43621874
H        3.67654705       9.81771278       4.07541370
H        1.12745285       9.20773411       2.71348596
H       -0.05393665      12.04535484       5.79071331
H        3.90013552      10.91688633       5.78393078
H        5.10668802       8.35727882       2.71690154
H       -2.40997958       9.79090500       7.68365002
H        3.51611853      12.64279079       0.84173638
H        7.63374853      10.41791821       0.90516579
H        1.35849333       7.65117264       7.57641983
H        6.98578262      11.10845089       3.18829966
H        2.01215410       8.30587196       5.29681301
H       -1.74652231       9.15063763       5.40978813
H        2.88519859      11.98231411       3.12521696
C       -4.69957733       7.52717400      10.12970543
C       -3.60808396      10.35734367      12.61644459
C        0.28645062      12.78368378      12.62451077
C       -0.73997134      10.01848125      10.12329388
C       -3.89222980       8.34404945       9.38602924
C       -4.41364050      11.17919922      13.35708618
C       -0.43873736      11.93388557      13.40944576
C       -0.02242574       9.14855480       9.34645653
C       -3.55520082       8.00619411       8.05678272
C       -4.74414492      10.84920025      14.69146538
C       -0.77013558      12.28210545      14.74130535
C        0.32380265       9.48950863       8.00925827
C       -7.57234859       9.07687378      14.42914009
C       -0.82959324      11.61283588       8.31942654
C        3.10826397      11.31115532       8.31364250
C       -3.46439695       8.79273415      14.44235134
C        2.75167370      11.66342068       9.58493519
C       -3.12565517       9.14982128      13.17150211
C       -7.24321699       8.78572655      13.14345741
C       -1.15734494      11.26655865       9.60340881
H       -4.94730091       7.81319046      11.13652802
H       -3.34141803      10.63513660      11.58946800
H        0.56144589      12.48930073      11.61931229
H       -0.99274731       9.77483654      11.14155102
H       -3.52304888       9.27943707       9.80074120
H       -4.77911186      12.10770893      12.95340538
H       -0.76239067      10.97660065      13.04578686
H        0.28150705       8.20067692       9.72657871
H       -7.20344877       9.96724892      14.90755463
H       -1.14671195      12.56576920       7.89439583
H        2.78520966      10.36074066       7.87384748
H       -3.10347581       7.86800861      14.86381054
H        2.11719131      11.00512505      10.18373775
H       -2.48702359       8.50107574      12.57852840
H       -6.59764671       9.46235466      12.59305573
H       -1.72439659      11.96017742      10.20045090
C       -9.51725960       7.60909081      17.24433517
C       -8.38839626      10.32841015      19.78356934
C       -4.41684103      12.76312923      19.81274796
C       -5.41006136      10.12199593      17.31499290
C       -8.71552086       8.46311569      16.54566002
C       -9.10923004      11.17064095      20.57192421
C       -5.12285900      11.88353729      20.57920647
C       -4.61230278       9.30398178      16.57193184
C       -8.39806938       8.20363522      15.18336868
C       -9.43747425      10.81611633      21.90426826
C       -5.47450304      12.21202087      21.91765404
C       -4.27245808       9.64053440      15.24199867
C      -12.13106346       8.89951038      21.55831337
C       -5.56427050      11.69327927      15.49071980
C       -1.49671102      11.41047573      15.58563328
C       -8.28101635       8.69476986      21.55922317
C       -1.83069634      11.77370358      16.86573982
C       -7.96998930       9.06874752      20.28451538
C      -11.82561302       8.58111763      20.26935387
C       -5.89549685      11.33380890      16.76133728
H       -9.74528885       7.81190205      18.26863670
H       -8.13406372      10.61976147      18.76858902
H       -4.16093111      12.50056076      18.78510284
H       -5.67986965       9.82183552      18.33449554
H       -8.29417610       9.34582996      16.98888779
H       -9.44139862      12.13341713      20.21291542
H       -5.42529583      10.93240929      20.18740273
H       -4.22838068       8.38576412      16.97263718
H      -11.79992104       9.83497620      21.98703575
H       -5.92506409      12.61431885      15.06543732
H       -1.80337358      10.43210316      15.20226097
H       -7.96408319       7.71848249      21.93484879
H       -2.39454699      11.10314846      17.50303268
H       -7.39503908       8.38911343      19.64877319
H      -11.24502945       9.27425289      19.64335632
H       -6.52779913      12.00107288      17.35787392
C      -13.96135235       7.46782970      24.46326447
C      -13.03962231      10.36368752      26.89236069
C       -9.02991390      12.75828934      26.89079857
C      -10.08037090      10.05965042      24.52364731
C      -13.19771671       8.31692123      23.71657181
C      -13.82995987      11.18735409      27.64337349
C       -9.75556087      11.90174103      27.67274475
C       -9.35197258       9.20715713      23.73540878
C      -12.87939739       8.00858593      22.37116241
C        4.63602638      10.85456371       0.45379850
C        8.69346046      12.25898933       0.46914896
C       -9.01617527       9.56477356      22.40377235
C        1.95803022       8.87045860       0.17040433
C      -10.18108845      11.68414879      22.74515533
C       -6.19548416      11.31917191      22.73874855
C        5.91246796       8.79802799       0.18672842
C       -6.55946732      11.67728424      24.00726509
C      -12.56054497       9.14239693      27.43596840
C      -16.47707558       8.54317856      27.42208672
C      -10.50312614      11.30643940      24.02104378
H      -14.22350216       7.72079563      25.48867035
H      -12.79842472      10.63124657      25.87955475
H       -8.76084900      12.45484638      25.89737129
H      -10.32750797       9.77111626      25.54352760
H      -12.82089710       9.26064301      24.12569237
H      -14.19968891      12.12126637      27.23144913
H      -10.08184910      10.93257999      27.29369354
H       -9.01021576       8.22985554      24.11393547
H        2.28444409       9.81554508       0.61654067
H      -10.49277020      12.64890575      22.35195351
H       -6.47193241      10.36404324      22.33078003
H        6.27003956       7.85951090       0.61934084
H       -7.11971045      10.99146461      24.63041115
H      -11.93209076       8.48595428      26.83567238
H      -15.82060146       9.21185398      26.86376381
H      -11.08238220      11.98998356      24.64552498
C        0.01576746      13.06794548       3.04108858
C        1.07895958      15.65865040       5.48673201
C        5.03025627      18.05469704       5.49780321
C        3.95099616      15.53965664       3.03553271
C        0.75438368      13.91736794       2.27639580
C        0.32985044      16.51951408       6.24276495
C        4.24089718      17.22153282       6.24018049
C        4.73845959      14.70363712       2.30126405
C        1.11486566      13.57089138       0.95169985
C       -0.03336501      16.18118858       7.57171583
C        3.88003778      17.54362488       7.57309246
C        5.10823250      15.04253006       0.97608507
C       -2.80392528      14.37136364       7.24667883
C        3.88577008      17.13422203       1.23830736
C        7.86863470      16.98583031       1.18396640
C        1.13411403      14.05556583       7.28875732
C        7.51255321      17.35837555       2.45704436
C        1.49609244      14.40962410       6.01678991
C       -2.49840546      14.00628090       5.96217442
C        3.51918101      16.77371788       2.50095487
H       -0.26140070      13.35345840       4.06101894
H        1.36642277      15.94536304       4.47574663
H        5.29241610      17.79632759       4.48578167
H        3.67359400      15.25469112       4.04003143
H        1.07888734      14.87647343       2.64835739
H        0.02069573      17.47293472       5.85447741
H        3.88909531      16.27789688       5.81042147
H        5.07957125      13.76603413       2.69528699
H       -2.47951102      15.31350613       7.64037466
H        3.55395031      18.08136559       0.80168098
H        7.57109690      16.01619720       0.78540158
H        1.43233466      13.12407684       7.69515324
H        6.92782259      16.67491531       3.06928611
H        2.09610295      13.73183537       5.41825581
H       -1.92408466      14.66674614       5.34914541
H        2.88751507      17.44914627       3.10488224
C       -4.63378286      13.03630161      10.19656754
C       -3.68081236      15.73983192      12.64566708
C        0.16460705      18.19384766      12.59172249
C       -0.77957493      15.43452358      10.17029858
C       -3.87632394      13.86353493       9.41474915
C       -4.45385456      16.58263016      13.39501381
C       -0.57960403      17.34066010      13.36081696
C       -0.01520061      14.58946705       9.41496563
C       -3.55611181      13.51539516       8.08759594
C       -4.80650425      16.25763321      14.72368813
C       -0.90282273      17.67509651      14.69629097
C        0.35825923      14.92642784       8.09515190
C       -7.59131002      14.44637871      14.41292286
C       -0.79251051      17.05803299       8.38524151
C        3.06599498      16.70152283       8.36257744
C       -3.58660388      14.15625191      14.47325134
C        2.69892812      17.05198288       9.62663460
C       -3.23365760      14.51446819      13.19870472
C       -7.26061535      14.10615826      13.13488579
C       -1.17043114      16.69287872       9.64941311
H       -4.88255787      13.34681797      11.20953178
H       -3.40665889      16.02745819      11.63887310
H        0.42357227      17.91983795      11.58580685
H       -1.09375405      15.13976383      11.17234898
H       -3.52958679      14.81582832       9.79918194
H       -4.79206085      17.51220703      12.99610043
H       -0.92172319      16.38462067      12.97346115
H        0.29034635      13.60584259       9.81774330
H       -7.28374100      15.40150356      14.82147121
H       -1.08827758      18.01302338       7.97773457
H        2.72283673      15.76341248       7.93514347
H       -3.27135515      13.21536541      14.88325405
H        2.04040766      16.41273689      10.20003414
H       -2.61933851      13.82200623      12.60660362
H       -6.65938282      14.78390408      12.53100014
H       -1.76122975      17.36162567      10.25431824
C       -9.43298531      13.05076885      17.32530975
C       -8.29937935      15.77087116      19.76074028
C       -4.36783075      18.36346436      19.75144958
C       -5.48505068      15.55735779      17.34980011
C       -8.68736744      13.89960861      16.56252098
C       -9.03025722      16.63921738      20.52553940
C       -5.13579082      17.52228737      20.50569534
C       -4.72727013      14.70172596      16.60215569
C       -8.35036087      13.58011246      15.22670841
C       -9.38294983      16.30790138      21.86056900
C       -5.50145531      17.88605499      21.83293533
C       -4.37332439      15.02287197      15.26478958
C      -12.19459152      14.44458008      21.57792854
C       -5.57582569      17.13278198      15.52934456
C       -1.64955127      16.79942894      15.52817822
C       -8.21217537      14.18376541      21.57286072
C       -1.96550405      17.15019608      16.80479240
C       -7.87829113      14.53208542      20.29133797
C      -11.85416698      14.09561920      20.29952431
C       -5.91670895      16.79374695      16.80125046
H       -9.69572926      13.33056450      18.34150505
H       -8.04261875      16.04107094      18.75061417
H       -4.07272577      18.06117249      18.74874496
H       -5.75944328      15.28450108      18.36116409
H       -8.34035397      14.86309052      16.97747612
H       -9.36437702      17.59523964      20.14570045
H       -5.48255587      16.58109474      20.13161087
H       -4.37582541      13.75382805      17.00247955
H      -11.88333988      15.39310551      21.99234962
H       -5.89897823      18.07847595      15.10194302
H       -1.96863055      15.86037540      15.11993885
H       -7.89211416      13.24320221      22.00065613
H       -2.53666496      16.46373558      17.42961693
H       -7.29889202      13.85453701      19.68522072
H      -11.24816990      14.80105495      19.70421219
H       -6.52335072      17.48592567      17.40839767
C      -14.05664349      13.02985001      24.47625923
C      -12.99199677      15.76214790      26.88821030
C       -9.07282734      18.36170006      26.80092812
C      -10.08172512      15.58694649      24.47141838
C      -13.31341934      13.89048100      23.71466827
C      -13.75676346      16.61207199      27.63683701
C       -9.81328583      17.50411987      27.56772804
C       -9.31877995      14.73087692      23.71936798
C      -12.94950485      13.55841064      22.38923264
C        4.67653465      16.27502632       0.43847698
C        8.61748314      17.85945320       0.35839286
C       -8.96938705      15.06658649      22.38787460
C        1.88333774      14.43823051       0.13411051
C      -10.13456631      17.18458748      22.67512512
C       -6.27038527      17.01349831      22.64134789
C        5.89924860      14.17468166       0.17685829
C       -6.61748600      17.37714005      23.91462135
C      -12.55935955      14.52826500      27.42475700
C      -16.56502914      14.07606220      27.39221001
C      -10.49063206      16.83257103      23.94768906
H      -14.35089207      13.31087780      25.48952675
H      -12.70005798      16.04371834      25.87638092
H       -8.78951168      18.07327080      25.78389359
H      -10.35257435      15.31067181      25.48251534
H      -13.01069832      14.85253525      24.11017609
H      -14.09607029      17.55603027      27.25066757
H      -10.11868286      16.53080750      27.19039917
H       -8.99261379      13.79303741      24.11253738
H        2.19764662      15.39737988       0.52302617
H      -10.43643856      18.14210320      22.27232170
H       -6.57573557      16.06674767      22.22628403
H        6.23118782      13.22781563       0.60084742
H       -7.24344492      16.69628906      24.52010727
H      -11.95306301      13.86662483      26.84143448
H      -15.96281910      14.74526215      26.78417015
H      -11.09031868      17.51573753      24.54748917
C       -0.05259825      18.55241203       2.95080161
C        0.89709944      21.26593590       5.32225657
C        4.52252388      23.41188622       5.31938457
C        3.89416575      21.11977768       2.85304284
C        0.73386699      19.38682175       2.20146132
C        0.10936534      22.08231544       6.07647944
C        3.98911357      22.55215454       6.23747921
C        4.69304323      20.28518486       2.11641479
C        1.11068523      19.04245186       0.88360709
C       -0.19598649      21.76384926       7.41927958
C        3.52774000      23.03730011       7.49003124
C        5.09669590      20.64864349       0.80599707
C       -2.79341817      19.70263672       7.33578348
C        3.90286851      22.76132202       1.09022653
C        7.80166912      22.60394096       1.04346979
C        1.10609269      19.71739960       7.16020441
C        7.39801025      22.87956619       2.31694722
C        1.40433121      20.05961800       5.87280607
C       -2.44502234      19.36297417       6.06205893
C        3.48985219      22.36601639       2.33015966
H       -0.32972997      18.83890533       3.96931291
H        1.13120747      21.53541946       4.30529928
H        4.92116976      23.03950310       4.36804724
H        3.58898282      20.82988739       3.85510182
H        1.07133400      20.33892441       2.60004234
H       -0.29160506      22.99832726       5.66463757
H        3.93470097      21.49381256       6.04022551
H        5.02973843      19.33369827       2.50446773
H       -2.44946313      20.63315010       7.76252890
H        3.61002135      23.72340012       0.68714249
H        7.53125620      21.66419983       0.58135140
H        1.50318515      18.80310059       7.58049059
H        6.80640793      22.16056824       2.87834239
H        2.03471875      19.40470886       5.26417875
H       -1.83557427      20.02728653       5.47102261
H        2.85705686      23.01037979       2.92849350
C       -4.72759151      18.33300209      10.19688988
C       -3.73736334      21.16166496      12.56070042
C       -0.09687483      23.55589867      12.42338753
C       -0.80397922      21.05359268      10.05757713
C       -3.93307066      19.16011238       9.46736145
C       -4.49873304      22.03696442      13.29110718
C       -0.75314814      22.74744797      13.30980587
C       -0.00315977      20.23480797       9.31218052
C       -3.59190249      18.84322357       8.12864017
C       -4.84464598      21.74372101      14.63499355
C       -1.10518050      23.22562027      14.59963226
C        0.30850959      20.56186485       7.96581650
C       -7.53268766      19.89748192      14.45296192
C       -1.01384950      22.59740067       8.21725750
C        3.01928306      22.16111565       8.47534180
C       -3.62301731      19.64447212      14.42824936
C        2.60469437      22.62882233       9.69235420
C       -3.28828073      19.94983101      13.14187050
C       -7.19462156      19.53541946      13.17785454
C       -1.32671237      22.24373436       9.50210857
H       -5.01462030      18.61223602      11.20962048
H       -3.47143173      21.40512085      11.55315876
H        0.18177824      23.17559242      11.43560410
H       -1.04588449      20.78089142      11.08227539
H       -3.55178046      20.08756828       9.89234638
H       -4.83932734      22.95788574      12.85766792
H       -1.01153231      21.72336006      13.06285667
H        0.40370053      19.33505630       9.71774769
H       -7.20304441      20.85501671      14.86722851
H       -1.40882277      23.51064682       7.78238630
H        2.96636128      21.10639381       8.23472595
H       -3.26898766      18.72994995      14.88044167
H        2.17953086      21.93455315      10.41077995
H       -2.69209361      19.26568985      12.55457211
H       -6.57837343      20.18777275      12.57958603
H       -1.96893418      22.89414406      10.09053135
C       -9.42242146      18.56247520      17.35848618
C       -8.45964527      21.42778778      19.63457489
C       -4.63969946      23.81013489      19.62637329
C       -5.51308441      21.09945869      17.28365517
C       -8.65341759      19.39528275      16.59945488
C       -9.20073414      22.29228783      20.39488029
C       -5.34321976      23.02589798      20.50513268
C       -4.74057341      20.24191284      16.55370903
C       -8.32074547      19.04570007      15.26668072
C       -9.47787189      21.99401665      21.75328064
C       -5.56810522      23.46073914      21.83342361
C       -4.40594053      20.53091240      15.20599842
C      -12.11580563      19.93747902      21.60671234
C       -5.63755751      22.62824440      15.41342735
C       -1.76042581      22.39663696      15.54615021
C       -8.26191998      19.89825821      21.48720169
C       -2.10633039      22.88459015      16.77113724
C       -7.98292923      20.21762276      20.18360329
C      -11.75383854      19.59186935      20.34118271
C       -5.97499609      22.30702972      16.69743347
H       -9.67927265      18.84873962      18.36104393
H       -8.24295235      21.66905022      18.62197304
H       -4.46788120      23.45477676      18.62944984
H       -5.78074646      20.85823441      18.31150818
H       -8.29639053      20.35101891      16.98439407
H       -9.57362652      23.21932030      19.98115921
H       -5.72728348      22.07532501      20.19722176
H       -4.38972092      19.31769943      16.96928597
H      -11.80752659      20.88107681      22.03013802
H       -5.97532177      23.54645348      14.96374512
H       -1.97764587      21.38509369      15.26213932
H       -7.90813923      18.97218895      21.93041992
H       -2.63272476      22.25350952      17.48806000
H       -7.41557598      19.51531982      19.58573151
H      -11.12951374      20.26432228      19.75508308
H       -6.60553789      22.98113251      17.27155113
C      -14.03767872      18.53524208      24.46682167
C      -12.89763737      21.44117928      26.76919174
C       -9.07610607      24.17484093      26.80315590
C      -10.04513931      21.34457588      24.41382980
C      -13.25856209      19.38735962      23.73307037
C      -13.66858959      22.28222275      27.52375221
C       -9.82534504      23.26995277      27.50440598
C       -9.30519009      20.48121071      23.65839958
C      -12.90679646      19.07278252      22.39758873
C        4.70652151      21.91571426       0.28681120
C        8.55858135      23.53870201       0.29931313
C       -9.01487827      20.78337860      22.30272675
C        1.92106438      19.89400864       0.08578493
C      -10.23266125      22.88202286      22.56849098
C       -6.28584719      22.67123413      22.76020050
C        5.87920713      19.79494286       0.00143416
C       -6.51875877      23.12552261      24.02666473
C      -12.51669216      20.17158127      27.28038025
C      -16.51132774      19.52192497      27.35311890
C      -10.51442242      22.56116295      23.86239815
H      -14.30496883      18.79392815      25.49155808
H      -12.57086277      21.75035286      25.79878807
H       -8.74739075      23.94143677      25.79065132
H      -10.27504730      21.09669685      25.44283676
H      -12.90362930      20.32467079      24.15421104
H      -13.96248913      23.25421143      27.13718987
H      -10.09629536      22.32314682      27.05926514
H       -8.94696522      19.55755615      24.06552505
H        2.26582670      20.82950020       0.50933176
H      -10.58755875      23.80918503      22.14867973
H       -6.65504456      21.70433617      22.44783211
H        6.17518425      18.83690071       0.39988598
H       -7.09701967      22.51802635      24.73193169
H      -11.91003037      19.51035309      26.67556953
H      -15.87048817      20.17501450      26.76914597
H      -11.10877705      23.25463104      24.47823334
C        7.76068830      24.10657692       2.91396165
C        7.47500801      26.74742699       5.15219641
C       12.78601837       1.59836411       5.18852806
C       11.75437927      27.19359016       2.85644698
C        8.50921440      25.02816582       2.23305297
C        6.57699823      27.34348869       5.99143076
C       12.19292641       0.66619885       5.99482107
C       12.59433842      26.40390778       2.12311220
C        8.91075611      24.77143288       0.89714116
C        6.55306816      27.02334404       7.36703110
C       11.96150780       0.94684923       7.36810446
C       12.88809395      26.71251678       0.76822072
C        4.04522753      25.29270744       6.75258589
C       11.41359234      28.65034676       0.96198738
C       15.79302597       0.25643736       1.46160519
C        8.32608318      25.40438080       6.96499157
C       15.26511955       0.79556710       2.60031033
C        8.37903023      25.79077721       5.65380764
C        4.52961063      24.80052757       5.57723522
C       11.15626717      28.33619690       2.26946688
H        7.42454100      24.32139015       3.93547893
H        7.47899008      27.03935814       4.10702276
H       12.94540501       1.38127196       4.15699100
H       11.52000713      26.94331551       3.87824345
H        8.81204510      25.96117401       2.69397187
H        5.89194775      28.08444977       5.63110113
H       11.86884499      58.64388275       5.60274076
H       13.06222248      25.52650261       2.55897689
H        4.01693916      26.34173393       6.94129038
H       10.94407845      29.51683807       0.50265062
H       15.54495716      58.17289734       1.17618775
H        8.96199226      24.61356544       7.32626009
H       14.60683727       0.20653200       3.20662689
H        9.10596180      25.32368469       4.98716927
H        4.92535019      25.48936081       4.80425930
H       10.47994328      28.94413376       2.85616517
C        2.70652699      24.00526428       9.98231506
C        3.58528399      26.33822823      12.64214039
C        8.27736664       2.73361778      12.23629761
C        6.43854284      26.24313354      10.06243420
C        3.17254829      24.87951851       9.03630829
C        2.76739621      27.11220551      13.40285301
C        7.30914879       1.94093823      12.76840782
C        7.32055140      25.62937355       9.22078609
C        3.59362555      24.41131020       7.76558447
C        2.56188107      26.82154655      14.78157902
C        6.94174480       2.06782436      14.13796997
C        7.41099262      26.01139259       7.85393095
C       -0.15798388      25.38157463      13.99067402
C        5.66650867      27.65555954       8.26391888
C       11.39781094      58.91751480       8.23667049
C        4.07211447      24.91942978      14.52557850
C       11.12239170       0.31036809       9.52997398
C        4.25227356      25.22892952      13.20826054
C        0.19910331      24.88786316      12.76511002
C        5.61453390      27.27855682       9.57051659
H        2.39235926      24.39197922      10.96191216
H        3.71845913      26.55290413      11.59886265
H        8.60940647       2.59605765      11.21011353
H        6.37012768      25.94787979      11.10145664
H        3.22581673      25.93660927       9.24883842
H        2.24845362      27.97158623      12.96340942
H        6.82560968       1.14564383      12.17337227
H        7.95053053      24.83360863       9.57327843
H        0.05821810      26.38629532      14.26236916
H        5.02228546      28.43186760       7.86981869
H       11.17144966      57.91988754       7.83886194
H        4.55951452      24.06897545      14.95546627
H       10.64699936      58.51454926      10.18375587
H        4.90759039      24.62024879      12.58344746
H        0.73156500      25.52476120      12.05721569
H        4.93083429      27.75882149      10.25760078
C       -1.80311978      24.22070885      17.11954880
C       -0.79803807      26.55654526      19.78800964
C        2.66657019       1.36346507      19.97645950
C        2.06461668      26.06263733      17.42393875
C       -1.17443097      25.03899384      16.22895432
C       -1.51463020      27.45066261      20.53084373
C        2.30703282       0.39266184      20.87216759
C        2.94402814      25.34266472      16.67350578
C       -0.80082893      24.54937744      14.94312477
C       -1.57520413      27.33345985      21.94043732
C        2.29780316       0.66835588      22.26147652
C        3.21290159      25.69649887      15.33288383
C       -4.35455894      25.50780678      21.30943871
C        1.69471920      27.58432198      15.59606457
C        6.05780745       1.16924620      14.77506447
C       -0.21018144      25.32256126      21.76334000
C        5.71681738       1.34630537      16.08154488
C       -0.13359255      25.47682762      20.41278267
C       -4.14649105      25.06803894      20.03694534
C        1.43960309      27.20553970      16.87921715
H       -2.09760785      24.59437942      18.08976364
H       -0.74473459      26.67910767      18.72091103
H        2.68974853       1.14253569      18.90382195
H        1.83646739      25.76235962      18.44125938
H       -0.94467032      26.07414436      16.46024513
H       -2.02780247      28.27039146      20.05264282
H        2.04533601      58.32353973      20.53768921
H        3.43727064      24.46822929      17.07807922
H       -3.96804976      26.45073891      21.64156532
H        1.20698297      28.45268631      15.17768097
H        5.65593290       0.34106234      14.21289062
H        0.24172270      24.45311928      22.25671387
H        5.01281738       0.67937654      16.55863380
H        0.41416341      24.77316666      19.81661987
H       -3.59471893      25.67745972      19.33125877
H        0.76772040      27.79223061      17.49276924
C       -6.01722908      24.37694168      24.44421005
C       -5.40078211      27.36139870      26.62306213
C       -0.66466463       1.23468065      27.26853943
C       -1.68170202      27.00175285      24.72802544
C       -5.29736567      25.15036392      23.57118797
C       -6.25531101      28.13815689      27.35159111
C       -1.48734450       0.47225019      28.04161072
C       -0.98879814      26.10554886      23.96639442
C       -5.07320786      24.71812248      22.23952866
C       12.27807903      27.84459114       0.18412259
C       16.71419716       0.99539214       0.68388230
C       -0.91639030      26.25549507      22.56292152
C        9.67353058      25.70218277       0.14418857
C       -2.29999590      28.24316597      22.75328255
C        2.05103183      58.59709930      23.22718811
C       -5.04633570      25.90428352      28.50884438
C        2.06182575      58.90326691      24.55710220
C       -4.78150606      26.23641205      27.21208191
C       -8.72280121      25.41168022      27.40251541
C       -2.34279132      28.08586884      24.11093140
H       -6.18357277      24.72534370      25.44477272
H       -5.19282055      27.63042068      25.58519173
H       -0.23891149       0.80855405      26.35435677
H       -1.74753976      26.88594627      25.80867386
H       -4.88689661      26.09651947      23.88149071
H       -6.73537493      28.99482918      26.89739609
H       -1.70274520      58.38240814      27.78152657
H       -0.48592380      25.26545143      24.42085648
H        9.91297340      26.65199471       0.61034232
H       -2.83030748      29.04410362      22.26913834
H        1.86289883      57.59163284      22.90166473
H       14.21120930      25.02175522       0.43819061
H        1.87137663      58.14208603      25.29349709
H       -4.10024357      25.61661911      26.63363647
H       -8.11932945      26.12232780      26.85941124
H       -2.87717915      28.76928520      24.73077011
C        7.57980442       2.41119289       2.48063612
C        9.04310036       4.34000063       5.26055431
C       12.91394520       7.13863516       5.30355501
C       11.86204433       4.06061649       2.78439760
C        8.57239151       3.04397082       1.79007661
C        8.23147202       5.16940975       5.97533274
C       12.10071182       6.27954245       5.98881722
C       12.61300373       3.28642321       1.95425701
C        8.88104916       2.66637659       0.45892924
C        7.70908499       4.76748896       7.22637892
C       11.70764160       6.56008244       7.31678152
C       13.08810520       3.78657365       0.72119039
C        4.69930696       2.89608860       6.80792522
C       11.97222137       5.90156603       1.24207628
C       15.86776447       5.83267021       1.24493229
C        8.85087204       2.62587786       6.95137548
C       15.47276974       6.16140652       2.50556898
C        9.37102699       3.05582047       5.76345158
C        5.00304317       2.33391857       5.59796333
C       11.53949833       5.39328671       2.43131042
H        7.36431694       2.70910144       3.50485110
H        9.44953346       4.66464615       4.32207918
H       13.19476891       6.90129328       4.29069042
H       11.50259304       3.66233087       3.72288561
H        9.13271904       3.85323691       2.23183155
H        7.98982620       6.17133284       5.63145542
H       11.75500298       5.36790276       5.51655817
H       12.88123608       2.27193236       2.23766804
H        5.19222307       3.82162499       7.13392115
H       11.73226261       6.90863276       0.95228648
H       15.55903339       4.87494373       0.80002761
H        9.10575294       1.65007317       7.35779667
H       14.86315632       5.47178316       3.09354496
H       10.04484844       2.41974640       5.22021627
H        5.72136688       2.80279350       4.95577145
H       10.91555214       6.00347233       3.07811379
C        2.59471464       2.16944242       9.79125214
C        3.87688041       4.67946005      12.34544277
C        7.95810175       7.25356579      12.37584305
C        6.65267992       3.89743376       9.67050362
C        3.48063612       2.79214120       8.96222305
C        3.27055502       5.50287437      13.25422287
C        7.12734079       6.45589304      13.11560249
C        7.42263126       3.04330873       8.93875599
C        3.76557040       2.26716280       7.67711735
C        2.88075638       5.01977158      14.52741814
C        6.83841419       6.77952480      14.46705341
C        7.99359179       3.46443653       7.70926666
C        0.05541594       3.04961801      14.24776268
C        6.90743256       5.63040781       8.01833344
C       10.87411976       5.68287516       8.05124283
C        3.67199898       2.82017469      13.86266422
C       10.45912457       6.00704050       9.31340981
C        4.08125973       3.30736899      12.65809250
C        0.31956407       2.68858027      12.95399094
C        6.40247059       5.21237659       9.21163940
H        2.39551115       2.58667374      10.75955772
H        4.18005419       5.06066179      11.38896751
H        8.18717194       6.97068262      11.36410236
H        6.23381281       3.57327056      10.60967064
H        3.96796274       3.69441915       9.26974201
H        3.08491135       6.55503416      13.01256752
H        6.69911242       5.56017971      12.68635750
H        7.61217546       2.03816414       9.28673744
H        0.52211672       3.92595696      14.68379688
H        6.70801401       6.63141203       7.66162157
H       10.54804420       4.75833321       7.58535242
H        3.76803899       1.76562285      14.09823227
H        9.81622410       5.33756733       9.85046005
H        4.55471373       2.65504766      11.94254112
H        0.99278885       3.28856230      12.37277126
H        5.77286291       5.88537979       9.82381344
C       -1.98787844       1.89416361      17.13740730
C       -0.61505032       4.34446859      19.69398117
C        3.41043186       7.15988779      19.71802330
C        2.12196708       4.00940228      17.02754021
C       -1.08664560       2.61398411      16.40512276
C       -1.09557807       5.25962067      20.58661652
C        2.70107269       6.36560583      20.57202911
C        2.72310424       3.17692924      16.12299538
C       -0.82864362       2.28196669      15.04785919
C       -1.32070851       4.90299797      21.93695068
C        2.47796178       6.78349161      21.91524696
C        3.10881448       3.66412973      14.84874249
C       -4.24798346       3.50332093      21.86992645
C        2.25805640       5.85773659      15.48178196
C        6.00547600       5.95170259      15.26443291
C       -0.54134768       2.65696836      21.40873718
C        5.71389341       6.29390335      16.55590820
C       -0.35075560       3.02178717      20.10557938
C       -4.04501295       3.42497516      20.51828003
C        1.86974001       5.36136150      16.69561005
H       -2.17196321       2.15616655      18.17849541
H       -0.46479771       4.62011480      18.64983940
H        3.58177948       6.82601643      18.69685364
H        1.81420136       3.63087463      17.98426819
H       -0.55863923       3.46056366      16.84207344
H       -1.32452261       6.28460979      20.27822495
H        2.28168035       5.40912867      20.26321983
H        2.89061975       2.13387346      16.36671638
H       -3.76588154       4.23318958      22.46683121
H        2.06018329       6.89998531      15.21740437
H        5.60789585       5.05083847      14.81999207
H       -0.31387788       1.62675285      21.73309135
H        5.08140945       5.65684032      17.15299034
H        0.02172711       2.28992653      19.38742447
H       -3.35935545       4.10522079      20.03012466
H        1.35511053       6.01696730      17.40746689
C       -6.31510592       1.90938771      24.49408531
C       -4.85677099       4.84078312      26.79259300
C       -0.98398966       7.28072929      26.96308136
C       -1.73864293       4.14706469      24.60310554
C       -5.40211105       2.72405338      23.89470291
C       -5.62581396       5.60371685      27.62592316
C       -1.73851848       6.39493418      27.67853928
C       -1.21259320       3.24081969      23.72344398
C       -5.14938402       2.62499952      22.51440239
C       12.74391651       5.10716581       0.35304022
C       16.64928627       6.71224689       0.47763509
C       -1.01388144       3.58874726      22.35959816
C       -8.92361355       3.33429408      28.23988342
C       -1.88735378       5.81402493      22.86440277
C        1.73259497       6.00012112      22.83601952
C       -4.90641165       3.01264811      28.37020874
C        1.49395072       6.44726562      24.09759903
C       -4.48160887       3.52556515      27.18049049
C       -8.62341499       2.94014025      26.96093750
C       -2.10505867       5.44236231      24.15852737
H       -6.51468086       1.99156058      25.52970505
H       -4.53515530       5.22674704      25.84563637
H       -0.67468542       7.02663612      25.96302032
H       -1.88436377       3.85770369      25.63324165
H       -4.88569260       3.47914934      24.45909500
H       -5.90606070       6.61215448      27.34461212
H       -2.03542638       5.45021057      27.26802254
H       -0.93270355       2.24707341      24.04974747
H       10.38016605       4.19136143       0.16114725
H       -2.17865181       6.77805758      22.51029968
H        1.32734239       5.03653002      22.51463699
H       14.18619919       1.99265993       0.14586216
H        0.89115345       5.83030510      24.77420616
H       -3.85951161       2.92265844      26.52974892
H       -7.87574005       3.47806978      26.39525032
H       -2.56591797       6.14010906      24.84995842
C        7.90396690       7.40238190       2.99377203
C        8.90421581      10.15920544       5.30534315
C       12.99654865      12.70058250       5.46493626
C       12.03510952      10.00716305       3.08239222
C        8.75014591       8.19252968       2.27332735
C        8.13946056      10.98773575       6.07561255
C       12.22337437      11.85016441       6.19909334
C       12.80928898       9.18470573       2.32515430
C        9.08892822       7.85732269       0.93344873
C        7.78578424      10.62030506       7.40777969
C       11.87528610      12.15620041       7.53512621
C       13.13672352       9.52061176       0.98839337
C        5.01578331       8.63196850       7.12536907
C       11.87657356      11.58910465       1.26802957
C       15.84876347      11.43312740       1.35706580
C        8.96541595       8.52301502       7.06857157
C       15.49056244      11.82195282       2.61771607
C        9.32990074       8.90682220       5.81432390
C        5.35367632       8.33679008       5.83244228
C       11.55675602      11.22804546       2.54921913
H        7.65392637       7.67242479       4.00362158
H        9.18157387      10.45941830       4.30797958
H       13.24649715      12.43349552       4.43626118
H       11.78842354       9.73242950       4.10571909
H        9.19847679       9.08507061       2.71145535
H        7.77928305      11.94523048       5.70527124
H       11.86039734      10.92239094       5.79244614
H       13.18374062       8.23886395       2.73142982
H        5.38111496       9.52790642       7.60368013
H       11.50711250      12.51970959       0.85426575
H       15.54661655      10.47587585       0.96691358
H        9.26887512       7.55227947       7.46322918
H       14.88144112      11.15130329       3.22963929
H        9.93458939       8.24534512       5.18463898
H        5.99711323       9.00934029       5.27240896
H       10.94656754      11.88836765       3.15990448
C        2.98351192       7.22829962       9.90379620
C        4.13850069      10.33498192      12.56582546
C        8.25751591      12.72880650      12.56731033
C        7.12185574       9.85404491      10.01649189
C        3.81901789       8.06343365       9.21493626
C        3.41371655      11.18922806      13.35310268
C        7.46213007      11.90717125      13.31122112
C        7.85595989       9.00693321       9.22333813
C        4.18621635       7.76906872       7.87368870
C        3.07580113      10.84190083      14.68346596
C        7.11466360      12.25057983      14.64578724
C        8.20649052       9.37539291       7.90239382
C        0.41257125       8.80806732      14.43783188
C        7.03890276      11.48116302       8.23939610
C       11.07457447      11.28929234       8.32044888
C        4.18358994       8.70780659      14.34548283
C       10.74444485      11.61721802       9.60751915
C        4.52023220       9.06978703      13.07013893
C        0.71433246       8.44527054      13.15740395
C        6.71292210      11.11334419       9.51216030
H        2.70043707       7.47262955      10.93030262
H        4.40011930      10.61052799      11.55288601
H        8.52877998      12.44837284      11.56664944
H        6.86976480       9.56436729      11.01266766
H        4.20410299       8.96223831       9.65689373
H        3.10463405      12.16630363      12.96938705
H        7.10720634      10.97886181      12.89735889
H        8.16791248       8.04454994       9.58455467
H        0.75797439       9.75637054      14.84391880
H        6.73202610      12.43602180       7.83464766
H       10.71630001      10.36320686       7.88011742
H        4.46975327       7.73298264      14.74609852
H       10.11210251      10.94296074      10.19780064
H        5.08955526       8.38688755      12.45501328
H        1.32048988       9.11045265      12.52722740
H        6.12412024      11.79376221      10.14081955
C       -1.40697730       7.48503971      17.40124130
C       -0.43876058      10.20400810      19.75418091
C        3.42475772      12.87092018      19.70214272
C        2.40840292      10.10726261      17.30463409
C       -0.64314663       8.30790234      16.61727142
C       -1.19896865      11.02870560      20.52606392
C        2.70185781      12.02214527      20.48224831
C        3.12918472       9.23977089      16.51958656
C       -0.34177083       7.95080233      15.27438450
C       -1.51451612      10.69056129      21.86493874
C        2.37241364      12.37337112      21.82002449
C        3.46739721       9.59140205      15.18698502
C       -4.26130867       8.63124943      21.62496567
C        2.34301448      11.72008991      15.51476765
C        6.31324387      11.40485477      15.44738579
C       -0.27645627       8.61784077      21.56253624
C        5.96462345      11.77211952      16.71762276
C        0.03359052       8.97578335      20.27815819
C       -4.00987291       8.40676880      20.30330086
C        2.00768447      11.36171913      16.78722954
H       -1.63844049       7.77794552      18.41896820
H       -0.20098399      10.48197651      18.73908615
H        3.66730857      12.59320927      18.67838097
H        2.15809512       9.82731247      18.32184601
H       -0.26991463       9.24104118      16.98335266
H       -1.56247962      11.97015381      20.12616920
H        2.37122369      11.05447769      20.10918045
H        3.42781973       8.28052139      16.89223099
H       -3.86143517       9.50012016      22.12518120
H        2.04578185      12.68666840      15.11661339
H        5.96565676      10.46893787      15.02928543
H        0.07678100       7.68448782      21.96730423
H        5.33992195      11.13243198      17.32154083
H        0.62502766       8.31719017      19.65307045
H       -3.39808273       9.09966373      19.74236298
H        1.44097424      12.05314064      17.40715981
C       -6.15401030       7.09369850      24.42939949
C       -5.03333473      10.24681187      26.88577843
C       -1.07605624      12.75449276      26.95621109
C       -2.08528113       9.97818470      24.51039886
C       -5.34190559       7.95059681      23.74615288
C       -5.81183147      11.07265282      27.64233017
C       -1.82636333      11.91576958      27.73148537
C       -1.33602214       9.13748264      23.73712730
C       -5.05942631       7.73963213      22.37012100
C       12.66656113      10.73826122       0.45587581
C       16.61571693      12.28510952       0.52382725
C       -1.03732812       9.47044182      22.38850021
C        9.95677376       8.66776752       0.16034381
C       -2.27595949      11.54977608      22.69190788
C        1.66739833      11.48836422      22.66470718
C       13.93048000       8.67461872       0.18253431
C        1.36293399      11.83836842      23.95307922
C       -4.55128813       9.02797604      27.43125534
C       -8.50709343       8.31259918      27.41309929
C       -2.56849003      11.19970417      23.98163414
H       -6.37153578       7.26450157      25.47743225
H       -4.79034805      10.50148582      25.85003853
H       -0.80563444      12.45261574      25.94576073
H       -2.32063007       9.69722557      25.53430939
H       -4.89736414       8.79927731      24.23980904
H       -6.18784237      11.99740601      27.23427773
H       -2.17317033      10.96006584      27.35191536
H       -0.95610923       8.22053146      24.13170242
H       10.34946537       9.58563423       0.58642042
H       -2.62562108      12.47438431      22.27845955
H        1.36356437      10.52209187      22.26537514
H       14.28212643       7.74619627       0.59937632
H        0.83133996      11.15486717      24.59869003
H       -3.92737961       8.36761284      26.82942200
H       -7.81845284       8.92560101      26.84523392
H       -3.16643071      11.86120129      24.61179924
C        7.99971390      13.02536392       3.07063341
C        8.99019623      15.64804649       5.48232698
C       12.96242332      18.04319191       5.47988224
C       11.90852261      15.55930233       3.03677821
C        8.75368881      13.86876678       2.29576707
C        8.26176548      16.48905373       6.27987576
C       12.17489338      17.21269989       6.23996592
C       12.69986057      14.72824001       2.30609441
C        9.09833431      13.51234722       0.97243929
C        7.92491198      16.10824776       7.60833120
C       11.84799480      17.55150414       7.57504749
C       13.04105473      15.05557728       0.96909922
C        5.14804554      14.26032639       7.27845860
C       11.76602840      17.12070847       1.20660114
C       15.77495670      16.99787140       1.13102734
C        9.07548237      13.98768616       7.22494364
C       15.43253708      17.34696960       2.40387416
C        9.40875149      14.39266014       5.96248341
C        5.48964310      13.91780281       6.00589037
C       11.43347359      16.77721787       2.49076128
H        7.74150991      13.33301544       4.07267237
H        9.24396706      15.95021439       4.48748302
H       13.20694256      17.77844238       4.45656776
H       11.64932060      15.29082203       4.06021786
H        9.06437397      14.82314205       2.68894196
H        7.93932962      17.45799637       5.92969751
H       11.80198669      16.28097153       5.84451962
H       13.07401371      13.79640961       2.72964263
H        5.49792528      15.18632698       7.71629238
H       11.40244579      18.05656815       0.77813649
H       15.47259426      16.05570602       0.73043340
H        9.38430500      13.02995205       7.59242678
H       14.82101059      16.65857315       3.02583718
H        9.99441528      13.71221066       5.32988262
H        6.09782600      14.58540916       5.41995859
H       10.79096794      17.43384743       3.07444763
C        3.21163559      12.89306355      10.14043999
C        4.17617798      15.70482540      12.60738659
C        8.25011158      18.09735680      12.59594822
C        7.27392483      15.29276943      10.20507908
C        3.99879217      13.71987820       9.41221237
C        3.41433311      16.54040718      13.37256241
C        7.45008612      17.27700996      13.34043217
C        7.99756765      14.46067715       9.40443325
C        4.34878349      13.39834785       8.07468700
C        3.11200142      16.22047424      14.71828938
C        7.11381483      17.61176491      14.67715740
C        8.33470058      14.84387016       8.08273125
C        0.37138671      14.40597820      14.40863609
C        7.19896126      16.95827103       8.46731567
C       11.04864597      16.70522881       8.38005161
C        4.33858252      14.12579823      14.42212486
C       10.70985603      17.06980896       9.65091705
C        4.64424467      14.47911167      13.14036942
C        0.69626659      14.04004669      13.12934780
C        6.86509228      16.56123924       9.73498631
H        2.91740727      13.16079617      11.14077568
H        4.40996933      15.96932411      11.57420540
H        8.49741650      17.82114029      11.58910275
H        7.01333046      14.97081661      11.19940090
H        4.35830927      14.65052319       9.83359718
H        3.03972840      17.47866058      12.96626759
H        7.07026434      16.35804558      12.92383099
H        8.32372761      13.49201393       9.74395847
H        0.67066073      15.36808109      14.78625298
H        6.89076138      17.93490982       8.09792423
H       10.70394325      15.76528263       7.94736195
H        4.68551445      13.18460464      14.83002758
H       10.06652641      16.42327690      10.24231625
H        5.23317575      13.80442619      12.53495598
H        1.26227915      14.72289848      12.50967026
H        6.29195023      17.22912788      10.38924313
C       -1.41093028      13.03249741      17.36490631
C       -0.47127727      15.81780624      19.75321198
C        3.50447035      18.35067749      19.76424980
C        2.50359511      15.50016594      17.35152817
C       -0.68437618      13.88101387      16.58547401
C       -1.21384430      16.67586136      20.51752853
C        2.70407033      17.53734016      20.51156235
C        3.25543880      14.66284561      16.59237480
C       -0.35749051      13.53333855      15.24849224
C       -1.56923878      16.33578873      21.84599876
C        2.38135076      17.86866951      21.85272408
C        3.57087970      14.99432850      15.24989319
C       -4.35241508      14.36320686      21.60910797
C        2.36021852      17.07924843      15.54118919
C        6.30979490      16.76172256      15.47700405
C       -0.41384473      14.21225166      21.54430771
C        5.98912621      17.10700989      16.75594902
C       -0.06168228      14.56586742      20.27659225
C       -4.01924706      14.01962757      20.32966995
C        2.05173969      16.73179436      16.83308220
H       -1.66892326      13.30877209      18.38122940
H       -0.18803823      16.10871887      18.73869133
H        3.75956035      18.06858826      18.74972534
H        2.23970699      15.22427940      18.36866951
H       -0.36483130      14.83194447      16.94619370
H       -1.52898026      17.63357353      20.13047600
H        2.29653668      16.61220551      20.10986137
H        3.62624860      13.72320461      16.98572922
H       -4.06508255      15.31450748      21.99823761
H        2.00293708      18.01730919      15.13873863
H        5.97157717      15.82742214      15.04742718
H       -0.11489064      13.25422764      21.94040298
H        5.36644506      16.43073273      17.36760139
H        0.53084403      13.90822887      19.65189171
H       -3.45385170      14.70514679      19.71495247
H        1.45561945      17.39339638      17.42809677
C       -6.17929602      12.93777180      24.52677155
C       -5.12124491      15.74242496      26.86193657
C       -1.15660310      18.38554764      26.76241302
C       -2.25532985      15.61452389      24.45750046
C       -5.45202875      13.80632210      23.76066017
C       -5.90209723      16.58199692      27.60440826
C       -1.90420306      17.53122139      27.52069283
C       -1.51500690      14.75329876      23.69543076
C       -5.08446026      13.47046375      22.43097305
C       12.56810284      16.26602936       0.41628870
C       16.53584671      17.87509727       0.32153416
C       -1.16651988      15.08569813      22.36404610
C        9.84539795      14.37804413       0.14004482
C       -2.32058096      17.21257591      22.65933990
C        1.57775736      17.02322388      22.65643501
C       13.83742809      14.19386387       0.17212600
C        1.27572334      17.36366844      23.94570732
C       -4.64841986      14.52739620      27.41134262
C       -8.61468792      14.01226330      27.39237595
C       -2.66865492      16.86256218      23.93317032
H       -6.47141218      13.23359489      25.52718353
H       -4.86884928      16.00718308      25.84240913
H       -0.87419295      18.10345268      25.77281761
H       -2.52524424      15.34014416      25.46477699
H       -5.15744877      14.77811527      24.12539864
H       -6.26853991      17.51974297      27.17743301
H       -2.23213983      16.59016037      27.12524223
H       -1.18217182      13.80531597      24.09760857
H       10.13901806      15.35286331       0.53395122
H       -2.61429620      18.17573547      22.23320770
H        1.21399188      16.10835648      22.23715019
H       14.18144417      13.27936268       0.59871662
H        0.64002591      16.71687698      24.54878807
H       -4.02968788      13.85678577      26.82462502
H       -8.03668976      14.68028927      26.77054024
H       -3.23452282      17.51919556      24.54042244
C        7.89363575      18.62679100       2.95927215
C        8.80466938      21.27783775       5.27469873
C       12.48800850      23.35971451       5.31454039
C       11.69334984      21.21851730       2.84489632
C        8.62332535      19.47940636       2.18209815
C        7.95704937      22.05860329       6.00870323
C       11.98239994      22.52027893       6.25979328
C       12.47298145      20.37353706       2.12272644
C        9.00455189      19.12856674       0.86861157
C        7.66618586      21.74281692       7.36169958
C       11.48652554      23.03282356       7.48228979
C       12.93676758      20.73147202       0.82975441
C        5.15187502      19.60371208       7.33726263
C       11.81094742      22.88346291       1.09929252
C       15.80188942      22.65237617       0.87222910
C        9.08312225      19.76227379       7.12609339
C       15.32491398      22.96286201       2.11600280
C        9.36610603      20.11150742       5.84004307
C        5.48581791      19.26522255       6.05924845
C       11.35211563      22.49454308       2.32569695
H        7.60167027      18.91561890       3.95440769
H        9.02698421      21.55039024       4.24634218
H       12.91660976      22.97907257       4.39095116
H       11.33824730      20.92630577       3.82168603
H        8.91016102      20.45187950       2.54076719
H        7.50097322      22.95092392       5.57265615
H       11.97749519      21.45899391       6.09314013
H       12.73631763      19.39225769       2.51940322
H        5.49776793      20.54296875       7.76931763
H       11.54415607      23.85840225       0.70366466
H       15.59476566      21.70220947       0.41666618
H        9.49455547      18.86065483       7.57098055
H       14.71019077      22.23622131       2.64553142
H       10.01599407      19.47601318       5.25331068
H        6.10091305      19.94517899       5.46703005
H       10.73620892      23.16917229       2.91960764
C        3.16374588      18.27091408      10.18094444
C        4.08052444      20.99021530      12.49298000
C        7.83339930      23.36777306      12.47928333
C        7.08661604      21.02910614       9.99758816
C        3.98840451      19.08586693       9.45541286
C        3.29520178      21.85146523      13.19580841
C        7.19376993      22.54918861      13.36362267
C        7.93291569      20.24779511       9.26955700
C        4.34215403      18.75028992       8.13264465
C        2.97546864      21.60040665      14.54965115
C        6.92131329      22.99577141      14.68604374
C        8.23727131      20.57943535       7.92399406
C        0.27155840      19.78108406      14.39192581
C        6.80051851      22.54096413       8.13995171
C       11.00908279      22.17566109       8.51395035
C        4.29267788      19.54947853      14.41350269
C       10.60763454      22.67508888       9.71246147
C        4.58461189      19.82015610      13.10576153
C        0.59644657      19.43212509      13.10824966
C        6.50083446      22.18955040       9.42620277
H        2.87623215      18.53892136      11.17967415
H        4.30344820      21.20387650      11.46266747
H        8.04112720      23.00824547      11.47203541
H        6.83777046      20.74969101      11.03275394
H        4.36284447      20.00687981       9.86578941
H        2.87568617      22.74671555      12.72687340
H        6.87103748      21.56550217      13.09664059
H        8.37903023      19.35699463       9.70166874
H        0.58305669      20.72544670      14.79591274
H        6.33993530      23.41667557       7.69439602
H       10.97399807      21.13184357       8.31079865
H        4.66136217      18.64497375      14.89288425
H       10.24532223      22.03649521      10.47914028
H        5.20721769      19.14464188      12.54871845
H        1.17570448      20.11260605      12.50274658
H        5.83100319      22.80472946      10.00424671
C       -1.52680326      18.39335060      17.33377075
C       -0.49263373      21.40161324      19.63376045
C        3.36828828      23.67082787      19.69577789
C        2.36003304      21.02859688      17.22529411
C       -0.79717493      19.24071503      16.55960846
C       -1.22377861      22.26960945      20.39251137
C        2.69622231      22.88557053      20.59319305
C        3.16766286      20.18362999      16.52545929
C       -0.47186151      18.90561676      15.22217655
C       -1.51178813      21.97914696      21.74683380
C        2.44625831      23.35067749      21.90548134
C        3.48166943      20.43699455      15.16670895
C       -4.28902960      19.98070145      21.54548073
C        2.14045668      22.46426773      15.30658150
C        6.26614761      22.16283989      15.63097000
C       -0.32160267      19.86989403      21.49002266
C        5.97995424      22.62204933      16.89159966
C       -0.01925154      20.17897606      20.19341278
C       -3.93362451      19.60226059      20.27532768
C        1.83326221      22.18416405      16.60422707
H       -1.78739989      18.65899277      18.36720085
H       -0.27273157      21.64264679      18.60367584
H        3.56366467      23.29882050      18.70334816
H        2.12597752      20.80857086      18.26492500
H       -0.45123890      20.20327759      16.95240021
H       -1.59108377      23.20151329      19.97513580
H        2.35792828      21.89708138      20.32864952
H        3.60049391      19.28618813      16.99877167
H       -3.95240045      20.92738914      21.95122910
H        1.74008882      23.34862328      14.81181240
H        5.98669004      21.14723015      15.33132839
H        0.01482692      18.95494461      21.91498566
H        5.47129154      21.98489761      17.58983421
H        0.56975091      19.48237228      19.58061028
H       -3.32878757      20.25690079      19.66288757
H        1.17488635      22.83995628      17.17407227
C       -6.18272591      18.60813904      24.44906616
C       -4.98840570      21.49868393      26.81126976
C       -0.83036530      24.15316200      26.77825356
C       -2.11762095      21.31891823      24.39705467
C       -5.41602230      19.45778465      23.68768120
C       -5.73284435      22.36566925      27.54946709
C       -1.65428150      23.27375984      27.41371536
C       -1.38016748      20.44580841      23.64625931
C       -5.06948853      19.11719513      22.35804367
C       12.59911537      22.00248909       0.31470072
C       16.60598183      23.57716942       0.15770450
C       -1.07208717      20.75618362      22.29975700
C        9.76381874      19.99883270       0.04268880
C       -2.25015736      22.87774467      22.56772232
C        1.76761389      22.55558014      22.85905838
C       13.71287155      19.84717369       0.03852714
C        1.53507698      23.02592468      24.11829758
C       -4.66518831      20.22218513      27.32176590
C       -8.67516899      19.61387062      27.30565453
C       -2.55077982      22.55203819      23.85797310
H       -6.44168282      18.90544128      25.45124054
H       -4.62746572      21.79672623      25.82776260
H       -0.41767663      23.88507843      25.81952667
H       -2.37554836      21.04791260      25.42869949
H       -5.08425331      20.42070198      24.10003853
H       -5.98232269      23.35803986      27.18040085
H       -1.89288139      22.31201935      26.95090103
H       -1.03931284      19.50114822      24.05791664
H       10.06692123      20.96175194       0.44445094
H       -2.57716084      23.81470299      22.14865303
H        1.43339241      21.58519363      22.57635689
H       13.97090149      18.86509323       0.42775425
H        1.00605774      22.39926720      24.82973671
H       -4.06065273      19.54579163      26.73374558
H       -8.08243847      20.29395866      26.68925858
H       -3.12498641      23.22908783      24.45211029
C       15.61866760      24.21085739       2.70169353
C       15.81909084      26.63945007       4.85269403
C       21.05893517       1.42802608       5.55152750
C       19.98168945      27.00460243       2.69020724
C       16.38158035      25.12509918       2.01807737
C       14.95905876      26.74733353       5.90767765
C       20.06440926       0.78445196       6.23809195
C       20.75719833      26.18833733       1.92111349
C       16.90572548      24.82706070       0.74133134
C       15.29602718      26.19809341       7.16340446
C       19.67176056       1.22730398       7.51810598
C       21.10918808      26.55996704       0.59722447
C       11.90725040      25.26874733       6.65367603
C       19.83051300      28.62252426       0.90417767
C       23.30034637      58.86128616       1.32231915
C       17.42068672      25.45887756       6.22083092
C       23.14886475       0.18408871       2.65495706
C       17.04624558      25.95525742       5.01106930
C       12.42760372      24.75521088       5.50385237
C       19.50572968      28.23244667       2.17214680
H       15.24331760      24.44836044       3.68169951
H       15.55734920      27.08920479       3.90130520
H       21.36920166       1.02370965       4.58721113
H       19.74262428      26.73601341       3.70342493
H       16.60644722      26.09210205       2.43138647
H       14.01449013      27.27400780       5.78318834
H       19.61487389      58.83953094       5.82688904
H       21.10791588      25.25409508       2.31025743
H       11.82229805      26.33825111       6.79294348
H       19.48034859      29.58469391       0.50763577
H       22.85684586      57.98204041       0.87488502
H       18.38598633      24.97745705       6.33029795
H       22.60490036      58.43600464       3.28535104
H       17.72335052      25.84906387       4.17938757
H       12.80416679      25.41240120       4.74132252
H       18.89040184      28.88348579       2.78450751
C       10.67545891      24.06546021       9.95778084
C       11.57311821      26.45715141      12.78209114
C       15.31862068       1.73231208      12.39445114
C       16.11282921      25.33735657       9.69614697
C       11.09380531      24.92153549       8.97887802
C       10.78336048      27.29225922      13.52754211
C       14.47734165       1.17732930      13.31816101
C       16.96048164      25.20867729       8.63652611
C       11.49466610      24.42833328       7.71118212
C       10.53569984      27.02614594      14.89957047
C       14.53143597       1.57686889      14.67872334
C       16.56507301      25.60914230       7.34335756
C        7.96025848      25.11742210      14.12375832
C       14.42317772      26.26499939       8.27374077
C       18.66501427       0.56831086       8.27116776
C       11.95966339      25.04838943      14.69567585
C       18.27067757       1.05945218       9.48078632
C       12.18658543      25.32877922      13.37792492
C        8.22855949      24.66480446      12.86757278
C       14.80364800      25.83834076       9.51085472
H       10.38400269      24.44444084      10.93802452
H       11.74464607      26.67516518      11.73391438
H       15.26562309       1.40519571      11.35853577
H       16.43950462      25.06207466      10.67553139
H       11.11061478      25.98969460       9.14104652
H       10.34959316      28.17587471      13.08588409
H       13.74418354       0.43510789      13.02634048
H       17.96345139      24.83350563       8.76953125
H        8.27338505      26.10321236      14.43236542
H       13.44358826      26.69974136       8.10479450
H       18.19803238      58.63616943       7.85373783
H       12.42720985      24.18471336      15.16423321
H       17.48574829       0.59013516      10.03798580
H       12.83606243      24.70162773      12.78192616
H        8.71773243      25.32428741      12.14359570
H       14.13736916      25.92420387      10.33864021
C        6.36093235      23.92964935      17.26877022
C        7.09307384      26.47739792      19.73400879
C       11.06075287       2.48720121      19.41770363
C       10.06842327      26.41890907      17.59976959
C        7.01099730      24.73822784      16.38851357
C        6.26624060      27.34054756      20.38663101
C        9.90260220       2.05458641      19.98591232
C       10.84781647      25.58441162      16.84404182
C        7.30648470      24.29490852      15.07380962
C        6.13621855      27.29386902      21.79735947
C        9.65669441       2.24524283      21.37133408
C       11.11386108      25.87390137      15.48477459
C        3.48659348      25.47220612      21.29288483
C        9.73281765      27.87643433      15.70286751
C       13.67999840       1.00451696      15.64692307
C        7.62409019      25.36968040      21.80171394
C       13.72067642       1.42225850      16.94354820
C        7.78322029      25.47350121      20.45055580
C        3.75375319      24.97926521      20.04487991
C        9.50891972      27.58064461      17.01644135
H        6.11694574      24.29907989      18.25755882
H        7.19870663      26.54900360      18.66120911
H       11.23370075       2.34170842      18.35815811
H        9.90464306      26.21129227      18.64265442
H        7.31796551      25.74831390      16.70237541
H        5.71741486      28.10492897      19.85057449
H        9.13659287       1.57269073      19.37167358
H       11.30607796      24.70070648      17.27244186
H        3.76747608      26.48266029      21.55625725
H        9.32432747      28.76971245      15.26855469
H       13.00561714       0.22318757      15.34681606
H        8.10808945      24.57234955      22.35059357
H       13.07363987       0.98196501      17.67626572
H        8.42088222      24.77419662      19.91115379
H        4.22308779      25.61116219      19.30522537
H        8.90869045      28.27621460      17.61531448
C        1.98344541      24.31016159      24.49059296
C        2.98677731      27.34422302      26.52927017
C        5.96530485       1.54923987      26.83441734
C        5.93345356      27.16044044      24.58593178
C        2.62754059      25.11030579      23.58934593
C        2.19606209      28.15707970      27.28385353
C        5.30119944       0.65128505      27.61629486
C        6.67887354      26.22979736      23.91954231
C        2.86246204      24.64533806      22.27070618
C       20.64037704      27.79547501       0.08373152
C       24.03084373       0.82054842       0.49236983
C        6.81780481      26.28199005      22.51451111
C       17.75260925      25.73150063       0.05487323
C        5.34295702      28.22426224      22.51078033
C        8.49564266       1.77956724      22.00429916
C        3.11029553      25.72722626      28.30683327
C        8.28687954       1.99921072      23.32975388
C        3.45595574      26.11236191      27.04535675
C       -0.50359565      25.39681435      27.37663460
C        5.27036905      28.17966652      23.86906624
H        1.80276370      24.68029404      25.49232101
H        3.24182200      27.63305283      25.51067734
H        6.00421047       1.40690589      25.76290131
H        5.86522722      27.11120033      25.67437553
H        2.96213913      26.09848213      23.85022545
H        1.82928085      29.09376144      26.87345886
H        4.80748463      58.72464371      27.17899323
H        7.16394186      25.42657661      24.46008110
H       18.00195312      26.67978668       0.52912688
H        4.84140396      28.99377060      21.97202301
H        7.79299736       1.19153965      21.42754936
H       22.25600052      24.78173637       0.18940778
H        7.42627954       1.59497452      23.81224442
H        4.09498358      25.47304726      26.43602180
H        0.17310001      26.06498718      26.89535713
H        4.69171572      28.92542267      24.40442467
C       15.65581322       2.08187270       3.03558421
C       16.90163612       4.76538134       5.26399946
C       20.94875336       6.99286699       5.45434284
C       20.00638199       4.29666710       3.18271136
C       16.54627228       2.80763245       2.30557680
C       16.17011452       5.58632803       6.06942129
C       20.15898895       6.15609503       6.19507408
C       20.73584366       3.51634717       2.32480979
C       17.06213760       2.30698442       1.08484459
C       15.72468948       5.14789009       7.34398937
C       19.76549912       6.50855064       7.51087809
C       20.97518730       3.93773341       0.99682993
C       12.90812588       3.16632557       7.00990057
C       19.74262619       5.98518419       1.48113322
C       23.77909851       5.72887659       1.21134126
C       16.74386406       2.98548293       6.87766123
C       23.44252396       6.06104851       2.49494553
C       17.20713043       3.44793916       5.68180752
C       13.16628933       2.85648990       5.71017981
C       19.49412918       5.54165792       2.74847198
H       15.29827881       2.46374488       3.98379231
H       17.23361397       5.13158131       4.29936886
H       21.23381615       6.70398808       4.44440699
H       19.82691193       3.93531799       4.19047737
H       16.86442184       3.78901529       2.63836527
H       15.93224621       6.61250734       5.77136850
H       19.82344246       5.21786880       5.80294228
H       21.16050529       2.58501649       2.64909339
H       13.16439247       4.14130497       7.41041851
H       19.35086441       6.92991734       1.15411925
H       23.49404335       4.77760267       0.79151905
H       16.94113731       1.96196246       7.19746685
H       22.86818504       5.36610174       3.08883810
H       17.77567863       2.80285287       5.03862572
H       13.63995457       3.60236430       5.06990671
H       18.92810631       6.16092968       3.42217970
C       11.41087914       1.59508049      10.03329849
C       12.19370937       5.09497881      12.26924706
C       16.25117493       7.23400831      12.54083347
C       14.91842747       4.26750469       9.86776638
C       11.99107075       2.52997589       9.22402287
C       11.59763050       5.99300861      13.11561489
C       15.46825409       6.40767717      13.28071117
C       15.58886147       3.40751696       9.03966713
C       12.29387283       2.22264910       7.87204695
C       11.23633862       5.60826445      14.42440128
C       15.17553425       6.71791315      14.64099503
C       16.01585007       3.82658243       7.75425005
C        8.48938560       3.93038511      14.30450439
C       15.02605915       6.01239777       8.21540546
C       18.91554070       5.67805004       8.28538036
C       12.04103851       3.36764216      13.93303013
C       18.55191803       6.04770041       9.54754734
C       12.40404701       3.76173115      12.68507671
C        8.87395287       3.74227142      13.01459503
C       14.63359737       5.58893824       9.45009899
H       11.17317677       1.83006072      11.05644035
H       12.46672630       5.40097857      11.26784420
H       16.48131561       6.99096107      11.50727177
H       14.60135555       3.94395828      10.84035015
H       12.21725845       3.53067446       9.59212589
H       11.40616703       7.00591135      12.79038906
H       15.06654263       5.49301529      12.85162640
H       15.78480339       2.40209770       9.35381413
H        8.90808296       4.73716021      14.89787483
H       14.80802059       7.01793385       7.88261175
H       18.55793571       4.74626923       7.85778618
H       12.13555336       2.31537771      14.24252319
H       17.88491058       5.41000605      10.12157440
H       12.86256218       3.06827784      12.00097656
H        9.62986183       4.39152527      12.56272221
H       14.10273933       6.27663803      10.11347675
C        6.25079298       2.41017556      16.83228302
C        7.00258350       5.49836874      19.80016327
C       11.53979301       7.09352779      19.70421982
C       10.53757381       4.80091095      17.01841736
C        7.16697645       3.24714351      16.26630402
C        6.50141430       6.23086691      20.82877159
C       10.67753506       6.30771971      20.43289185
C       11.13273811       3.90520644      16.17180252
C        7.53406286       3.08795023      14.90981579
C        5.99010086       5.59688616      21.98485184
C       10.32472038       6.66186142      21.74987221
C       11.48301888       4.28645182      14.85326862
C        2.92093015       2.96986914      21.73937416
C       10.58414936       6.50039244      15.31484222
C       14.36915302       5.86850309      15.43873119
C        6.34420633       3.45570469      20.89222145
C       14.09749985       6.18440580      16.73568344
C        6.91955280       4.09049940      19.82654572
C        3.00584006       2.65398884      20.41319466
C       10.24261665       6.10808802      16.58111191
H        5.92231417       2.54935360      17.85235023
H        7.47953033       5.98626137      18.94493484
H       11.82110023       6.80421495      18.71013260
H       10.25114059       4.48722887      18.01089859
H        7.59601688       4.05742836      16.83644676
H        6.49639702       7.31795597      20.77326393
H       10.26131248       5.39958048      20.01337051
H       11.34111118       2.89021921      16.45383644
H        3.18739986       3.96422768      22.06602478
H       10.33662796       7.48366547      14.92842102
H       13.97259521       4.95749855      14.98798752
H        6.21098757       2.39473009      20.87904167
H       13.48712349       5.51760960      17.34005356
H        7.31062460       3.50950670      19.00191307
H        3.32141519       3.39586663      19.70011902
H        9.71458435       6.79004526      17.22727394
C        2.24888873       1.29952431      24.99203300
C        2.69031715       4.84896183      26.93100929
C        6.75013971       7.21192598      26.81935501
C        5.16271687       4.29557419      24.31892967
C        2.47422481       2.28856063      24.07779503
C        1.94783342       5.62225246      27.77473640
C        6.04615402       6.31789684      27.57840347
C        5.52851295       3.55395913      23.22688675
C        2.55539894       1.98887563      22.69715691
C       20.48279572       5.19237709       0.57344764
C       24.50383186       6.63038254       0.39288446
C        5.94140339       4.19351149      22.03306770
C       17.92601204       3.07523108       0.26751322
C        5.55452204       6.34250498      23.11392593
C        9.40852737       5.89334154      22.51294708
C       21.70308495       3.13712573       0.08980508
C        9.07378578       6.26776981      23.78553581
C        3.17483044       3.59404373      27.35687637
C       -0.36350384       2.55965662      27.63614845
C        5.14654255       5.70341110      24.25360107
H        2.21037745       1.53023255      26.04828262
H        2.89766765       5.20634651      25.92850304
H        6.99582624       6.94854832      25.78547096
H        4.86943054       3.79954553      25.23263168
H        2.61452436       3.31841731      24.37900925
H        1.55493438       6.58876562      27.46947098
H        5.72794867       5.36876583      27.16957474
H        5.48824072       2.47756505      23.26423645
H       18.17676735       4.09801483       0.57941467
H        5.55258942       7.42781830      23.04999161
H        8.97993279       4.99307919      22.06230164
H       22.06325912       2.16801810       0.42126936
H        8.37795448       5.65748930      24.34510040
H        3.75026464       2.98133636      26.68730545
H        0.27864432       3.13484287      27.01115417
H        4.80973768       6.27966452      25.08932114
C       15.87324333       7.38893557       3.07675481
C       16.97466850      10.16966343       5.49062014
C       20.94549942      12.71731663       5.48124599
C       19.86904335       9.98303509       3.15748596
C       16.65204620       8.26329231       2.35980392
C       16.19913292      11.01705360       6.23450232
C       20.23132515      11.86453533       6.27215910
C       20.62823486       9.13173199       2.40199852
C       17.04454041       7.94797039       1.03494358
C       15.85507679      10.68990040       7.57100248
C       19.87906075      12.22949696       7.59249640
C       21.00810814       9.47553539       1.08065343
C       12.97796822       8.64918709       7.18254900
C       19.82442284      11.59021091       1.35580301
C       23.74249458      11.48574924       1.27371120
C       17.07154274       8.60256481       7.31979370
C       23.37191391      11.87671089       2.53191447
C       17.42010498       8.94368744       6.03481913
C       13.36238575       8.33772945       5.90257072
C       19.45934486      11.23100471       2.62185168
H       15.56593800       7.65801668       4.06237793
H       17.25476837      10.44715500       4.48678303
H       21.22571182      12.43145657       4.45989323
H       19.57538605       9.69062805       4.16127825
H       16.97328567       9.20073509       2.77247500
H       15.87637329      11.96289635       5.82299805
H       19.92619896      10.89183521       5.90313530
H       20.95353317       8.18337822       2.79860115
H       13.31191826       9.56182671       7.64402246
H       19.50485611      12.55303574       0.94145876
H       23.41968727      10.53524399       0.88145030
H       17.38278580       7.66361666       7.73482513
H       22.73528099      11.22901154       3.12787747
H       18.02634621       8.26941586       5.44633341
H       14.00253010       9.01926994       5.37051058
H       18.84939957      11.89827156       3.22447610
C       10.89419174       7.21368504       9.91063976
C       12.27602291      10.30253601      12.62564659
C       16.38270760      12.75924397      12.64829350
C       15.21921253      10.02351475      10.21333122
C       11.72747993       8.06513119       9.24119472
C       11.45325470      11.11701965      13.35057449
C       15.67083454      11.90964985      13.44602585
C       15.95849133       9.15551376       9.45637417
C       12.14516735       7.76703453       7.92054319
C       11.16076374      10.83313751      14.70610714
C       15.32257652      12.28940678      14.76830959
C       16.28962517       9.47001648       8.11993122
C        8.23283768       8.77047253      14.24118900
C       15.09385967      11.57412624       8.37688255
C       19.13812256      11.35177994       8.43966484
C       12.56741333       8.86138439      14.53615284
C       18.79736519      11.73978233       9.70038891
C       12.83897781       9.15507603      13.23332119
C        8.51826096       8.42675686      12.94363689
C       14.77537823      11.25221920       9.66335297
H       10.55111694       7.47138071      10.90187263
H       12.48453045      10.52532196      11.58577728
H       16.65097046      12.44370461      11.63451385
H       14.98233891       9.77543831      11.24699593
H       12.06097221       8.98768616       9.69787502
H       10.99990368      11.98767948      12.91500854
H       15.37605476      10.91952610      13.10942841
H       16.29785156       8.22482109       9.88329601
H        8.65721512       9.65940762      14.66844845
H       14.77992725      12.52296257       7.93236017
H       18.83863449      10.39482403       8.05024147
H       12.97410393       7.96174955      14.99928951
H       18.22060966      11.07546425      10.32352448
H       13.48391533       8.48962975      12.65281773
H        9.15534687       9.04210091      12.36162376
H       14.19999409      11.95009136      10.26525307
C        6.25729895       7.47313881      17.11707687
C        7.46531630      10.52677727      19.70020294
C       11.74750328      12.77269459      19.82795334
C       10.59099865      10.23319149      17.38283157
C        7.09047174       8.26605511      16.37914848
C        6.63346767      11.31494045      20.45223045
C       11.00779629      11.94628048      20.62332344
C       11.42927647       9.41874504      16.67242241
C        7.39544392       7.94131136      15.03623581
C        6.38026190      11.01338959      21.81368637
C       10.60578251      12.35904789      21.92149925
C       11.72527790       9.69210720      15.30988693
C        3.70371437       8.83452606      21.42053795
C       10.31497097      11.67493057      15.47393990
C       14.60812187      11.41922665      15.63552856
C        7.84013224       9.07403851      21.58542824
C       14.26472855      11.81889153      16.89683533
C        8.07471943       9.39085579      20.28478050
C        3.91511893       8.40423393      20.14330673
C       10.03133583      11.37595272      16.77930450
H        6.03082514       7.74412107      18.13896561
H        7.65323830      10.78486443      18.67815781
H       12.05607033      12.44156456      18.84648895
H       10.38123226       9.99454212      18.40589333
H        7.52916098       9.16872406      16.81284714
H        6.15713263      12.20258808      20.03617477
H       10.73038864      10.95482731      20.30462837
H       11.87243843       8.52073765      17.12484360
H        4.09253740       9.78517246      21.74100494
H        9.91887188      12.56354809      14.99359894
H       14.32625103      10.43379402      15.24481297
H        8.29839706       8.19980812      22.04206848
H       13.72721291      11.15972042      17.53524971
H        8.72499752       8.75197697      19.68992996
H        4.48778009       9.03097630      19.44789886
H        9.38350201      12.03552628      17.35698509
C        2.00768161       7.69106770      24.52338982
C        2.93461204      10.20631504      27.00776482
C        6.87809277      12.80695534      26.90738678
C        5.84707928      10.32864475      24.47639656
C        2.73851633       8.46261120      23.66859817
C        2.16568327      11.05955219      27.75097466
C        6.10277939      11.98118019      27.66867638
C        6.70809221       9.56014729      23.74429321
C        2.97945857       8.03317070      22.33745766
C       20.59683609      10.71877766       0.54602408
C       24.53709030      12.33757496       0.46517581
C        6.98295498       9.87072086      22.39107132
C       17.82399940       8.84658241       0.26368701
C        5.53579712      11.81693172      22.60935974
C        9.86148453      11.51174450      22.77561951
C       21.78160667       8.60563087       0.27910343
C        9.45557022      11.94098282      24.00707245
C        3.34515667       8.96132088      27.54508591
C       -0.59691232       8.52309227      27.52162743
C        5.25746965      11.48617744      23.90456581
H        1.80036485       8.03166866      25.53343010
H        3.22429013      10.49344730      25.99032211
H        7.16001558      12.51774883      25.91523743
H        5.63087749      10.07005215      25.50223541
H        3.15148687       9.42350388      23.97076035
H        1.81867170      11.99677753      27.34485626
H        5.76521063      11.03093147      27.28798676
H        7.19302893       8.68984413      24.18501282
H       18.12670708       9.78706551       0.71708155
H        5.12072802      12.72074127      22.17007637
H        9.61384964      10.52775192      22.43258858
H       22.08457565       7.65763998       0.69374341
H        8.86126995      11.28896618      24.63797569
H        3.96660566       8.29443741      26.95578384
H        0.00673919       9.21443462      26.95487785
H        4.61313009      12.10528755      24.50990295
C       15.90636349      13.07896805       3.11964178
C       16.98453712      15.74799156       5.48655176
C       20.99400330      18.46296501       5.45593119
C       19.88028336      15.63577843       3.05525994
C       16.67064857      13.90861130       2.34591222
C       16.24799538      16.57630539       6.28767061
C       20.22417068      17.61210251       6.19594192
C       20.64513969      14.79339695       2.30286980
C       17.03105354      13.53687572       1.02432179
C       15.94151306      16.20884323       7.62313652
C       19.92077446      17.90531540       7.54972506
C       20.98462296      15.12958813       0.96562976
C       13.13003540      14.23529625       7.31755209
C       19.75200081      17.21754456       1.24422467
C       23.72164536      17.04969978       1.20337760
C       17.13444138      14.11286736       7.24907875
C       23.35041428      17.40695381       2.46439147
C       17.44249344      14.50106812       5.98205423
C       13.45320797      13.90981483       6.02877808
C       19.42664719      16.86964035       2.52649498
H       15.62738228      13.36406040       4.12218046
H       17.21220207      16.05511284       4.49533796
H       21.21082878      18.21634865       4.42471170
H       19.63113785      15.35743141       4.08195353
H       16.98834419      14.88243961       2.72284293
H       15.89182854      17.51506424       5.91810226
H       19.84745216      16.70346069       5.78264809
H       21.00221825      13.83406734       2.71057439
H       13.49355888      15.15778732       7.76641607
H       19.41381645      18.17484665       0.81469673
H       23.39632225      16.11257172       0.78043664
H       17.47198486      13.15912247       7.64737368
H       22.71743202      16.74254227       3.05097222
H       18.02866745      13.84599781       5.34394598
H       14.06048870      14.58425522       5.44740200
H       18.81715775      17.54866791       3.13592792
C       11.22477818      12.82677555      10.17330647
C       12.34430504      15.68941212      12.68274975
C       16.41077423      18.29522705      12.61372757
C       15.33170223      15.40544987      10.23790455
C       12.00530910      13.67430496       9.44234085
C       11.57215881      16.52725410      13.44601917
C       15.60910606      17.45680809      13.33693886
C       16.07601166      14.58698940       9.44319534
C       12.33928013      13.36946678       8.10020351
C       11.21355248      16.17664528      14.76953030
C       15.24459267      17.77530098      14.66419792
C       16.38904190      14.95743084       8.10836029
C        8.37851810      14.32388210      14.37018490
C       15.20132256      17.05584908       8.48555660
C       19.13770676      17.02850342       8.33938217
C       12.43779850      14.08619881      14.49090576
C       18.85556030      17.33336449       9.64380646
C       12.78168201      14.45272160      13.21979523
C        8.72509766      13.95302963      13.10529613
C       14.89287281      16.66514015       9.75981998
H       10.95943546      13.08461952      11.18574142
H       12.60826778      15.96367645      11.69399643
H       16.72165680      18.02139473      11.58680725
H       15.08534622      15.08922482      11.25030899
H       12.38356686      14.58414555       9.86561012
H       11.23512459      17.46852303      13.06304359
H       15.23833179      16.52753639      12.91677952
H       16.41171074      13.63364029       9.79156971
H        8.72702026      15.26213932      14.79674339
H       14.86589527      18.01370621       8.10682774
H       18.76184463      16.11130142       7.88755512
H       12.76769733      13.15419197      14.90577126
H       18.24419212      16.67141342      10.24809456
H       13.38258934      13.78018093      12.60547733
H        9.34749126      14.60639477      12.49564266
H       14.31223202      17.31080627      10.40090466
C        6.43680716      12.99745750      17.25364304
C        7.56144381      15.76735687      19.75132561
C       11.51509380      18.17597008      19.74882889
C       10.47177792      15.41386318      17.36107063
C        7.22956944      13.81610966      16.51125145
C        6.78904819      16.61382103      20.49663544
C       10.69707394      17.39058495      20.50387001
C       11.26891327      14.58626461      16.62031364
C        7.57516193      13.47360516      15.17947197
C        6.42411041      16.28333282      21.82390785
C       10.36145687      17.75191307      21.82868767
C       11.64566898      14.93818474      15.29455566
C        3.53435040      14.49022961      21.48983002
C       10.42554188      17.03297424      15.57523918
C       14.43954277      16.91629028      15.44834995
C        7.66123009      14.19414425      21.57576942
C       14.09291553      17.25629807      16.72426033
C        8.00416374      14.54336166      20.29768181
C        3.85389519      14.12338924      20.21398735
C       10.04485130      16.65814400      16.83857918
H        6.16548061      13.28081417      18.26609230
H        7.86005259      16.04802704      18.73801231
H       11.76693058      17.86803436      18.76058769
H       10.17414284      15.10682678      18.34190559
H        7.62117958      14.74284935      16.91545105
H        6.44189024      17.55554390      20.09822273
H       10.28785706      16.47364426      20.10671425
H       11.59758282      13.64634800      17.00735855
H        3.85293365      15.44485283      21.88078880
H       10.11345100      17.98748207      15.16322899
H       14.09141159      15.97748280      15.01852036
H        8.01846504      13.26428127      22.00420952
H       13.45602798      16.57908440      17.31994247
H        8.63465977      13.88624954      19.71995926
H        4.44026804      14.80204678      19.58777618
H        9.43175983      17.32206154      17.41951561
C        1.78562665      13.09221077      24.46049309
C        2.84106731      15.85710430      26.86945915
C        6.89109945      18.40111923      26.87804222
C        5.76928377      15.59718513      24.45418930
C        2.48318887      13.95747375      23.66786385
C        2.07044458      16.69394302      27.62810516
C        6.09948015      17.56041908      27.61851883
C        6.52833271      14.74406242      23.70837021
C        2.79588223      13.62189484      22.32705307
C       20.53232002      16.35743141       0.43334079
C       24.52255630      17.90182304       0.41303632
C        6.86938524      15.05792809      22.37171936
C       17.79773903      14.39148617       0.20006882
C        5.65378141      17.15863991      22.62772560
C        9.53913021      16.93343544      22.63826561
C       21.75638580      14.26879311       0.15025038
C        9.21179867      17.30288696      23.91677284
C        3.28978181      14.62378120      27.40352631
C       -0.65187103      14.00789356      27.45534897
C        5.32275915      16.82156563      23.90940475
H        1.55898523      13.36686993      25.48688316
H        3.11130142      16.14451981      25.85859680
H        7.18423891      18.09949493      25.87611389
H        5.51034641      15.33774281      25.46807480
H        2.82211423      14.90239143      24.05990982
H        1.72137654      17.64369011      27.22419548
H        5.75991392      16.62043762      27.20569801
H        6.88292503      13.80196762      24.11899567
H       18.12019730      15.34927368       0.59663546
H        5.32742834      18.09519577      22.19773865
H        9.19000244      16.00057793      22.22496796
H       22.07739639      13.32230186       0.57902747
H        8.57848072      16.66374588      24.52575111
H        3.90807033      13.95344734      26.79035568
H       -0.05596723      14.67036724      26.85713196
H        4.72367716      17.50627327      24.50257874
C       15.84342289      18.59675980       2.93700743
C       16.71660805      21.37413979       5.34738255
C       20.75943184      23.60969543       5.29067898
C       19.72434235      21.22035217       2.92222333
C       16.58090019      19.45173073       2.17463422
C       15.95473862      22.18006516       6.14313173
C       20.05649757      22.84465981       6.17345142
C       20.53936005      20.39255142       2.20919681
C       16.94832039      19.11807823       0.84824866
C       15.70852661      21.83311462       7.49961424
C       19.97516632      23.21227837       7.54993010
C       20.95564842      20.74471664       0.90161496
C       13.14522457      19.59562874       7.31931257
C       19.72703743      22.83863640       1.13013351
C       23.81859207      22.71073532       1.23750925
C       17.05807686      19.83191681       7.17649412
C       23.53644943      23.07858467       2.51851439
C       17.27291298      20.17670059       5.86705589
C       13.45256805      19.25372696       6.03304291
C       19.30380249      22.45780563       2.37373352
H       15.56813240      18.85406685       3.95498490
H       16.89466095      21.64668083       4.31991386
H       20.80698967      23.33249855       4.25548649
H       19.39986992      20.95009613       3.92042732
H       16.90583038      20.41099739       2.56987786
H       15.52358055      23.10309029       5.73889971
H       19.56886292      21.94744301       5.85212421
H       20.87571526      19.45000458       2.61350751
H       13.51086998      20.51768112       7.74918222
H       19.43026352      23.78309250       0.69723630
H       23.45580673      21.76888657       0.83570302
H       17.47144127      18.90920448       7.57141161
H       22.94547462      22.40811920       3.16371655
H       17.87016487      19.53629112       5.22947597
H       14.07399273      19.92108917       5.42349911
H       18.64756393      23.12119293       2.93404269
C       11.19103622      18.27902603      10.19637775
C       12.27716637      21.10300446      12.59020805
C       16.36076355      23.61137390      12.76481247
C       15.25452900      21.10898209      10.16409016
C       12.00532627      19.09033394       9.45807266
C       11.44236755      21.92088509      13.31364727
C       15.51979542      22.86823654      13.54465199
C       16.04118156      20.32077599       9.37632751
C       12.33609772      18.75708389       8.12534809
C       11.11731911      21.61041260      14.65743732
C       15.12932301      23.32645035      14.82812500
C       16.27760506      20.65784454       8.02424908
C        8.40410709      19.66082001      14.42946625
C       14.89402199      22.64042854       8.32884312
C       19.26176262      22.42472458       8.48428440
C       12.49264145      19.60942268      14.45988369
C       19.20251846      22.79240799       9.79758835
C       12.80679893      19.93061447      13.17404938
C        8.72687149      19.31593513      13.14591026
C       14.66827011      22.28985023       9.63101482
H       10.92335987      18.56699181      11.22415066
H       12.53323364      21.35214996      11.55652332
H       16.67055321      23.21799469      11.80205822
H       15.08501816      20.86166000      11.20406532
H       12.39085007      20.01275635       9.88611889
H       11.03385544      22.81114578      12.86287117
H       15.17284584      21.88879013      13.20524979
H       16.50104523      19.41313744       9.78126431
H        8.76848602      20.57777786      14.86459255
H       14.45917606      23.54761124       7.93142509
H       18.77422905      21.51898384       8.14387226
H       12.85474873      18.70042419      14.90998936
H       18.66642952      22.18667412      10.51940632
H       13.44933224      19.27602959      12.60992718
H        9.36974335      19.96638489      12.54913712
H       14.07111454      22.92502022      10.26969433
C        6.47837162      18.31606865      17.30832291
C        7.54458666      21.27015495      19.76670837
C       11.43995667      23.56449699      19.76589203
C       10.50928593      20.94025993      17.30911064
C        7.27690172      19.14019203      16.56811714
C        6.80017567      22.15184021      20.48949814
C       10.70233727      22.79148102      20.62177086
C       11.33874226      20.13666344      16.58399200
C        7.59832096      18.81114197      15.23057461
C        6.45110083      21.87533760      21.83432770
C       10.37271500      23.25776863      21.92398643
C       11.65550423      20.44463348      15.23732090
C        3.68628383      19.91130257      21.60305595
C       10.25814343      22.43460655      15.43241692
C       14.37430096      22.51476669      15.70126152
C        7.63204145      19.74523354      21.62769127
C       14.05203533      22.96010590      16.95846939
C        7.97320414      20.04818726      20.34405708
C        4.00753450      19.55201912      20.31680107
C        9.95157433      22.10277557      16.72004127
H        6.22326565      18.59347725      18.33256722
H        7.81565046      21.50775146      18.74159813
H       11.69753742      23.17721176      18.81361580
H       10.26884270      20.69347763      18.33185959
H        7.65021896      20.04693413      16.98518753
H        6.46860838      23.08413887      20.05896950
H       10.36560631      21.79161072      20.32724190
H       11.76939392      19.23001862      17.02082062
H        4.04941750      20.83065605      22.02146149
H        9.83401775      23.32750702      14.98395443
H       14.06769562      21.52504539      15.37153339
H        7.95423841      18.82535553      22.08678818
H       13.49217892      22.30799294      17.61061478
H        8.56147766      19.35365105      19.75605965
H        4.62519360      20.20052147      19.72405434
H        9.26721573      22.72362900      17.27977180
C        1.77824497      18.57021904      24.49761009
C        2.96560431      21.48201942      26.85332870
C        6.85044384      24.01340103      26.80234909
C        5.78514242      21.25212288      24.48397827
C        2.57339263      19.39366150      23.74357033
C        2.17707443      22.33267021      27.57689476
C        6.10551500      23.19153404      27.59819984
C        6.52676392      20.36955452      23.75378609
C        2.88685083      19.06801224      22.40491676
C       20.55895042      21.98447418       0.35835573
C       24.57236290      23.55712318       0.39894670
C        6.87304401      20.65326118      22.40844727
C       17.73036766      19.98793221       0.04434542
C        5.69034052      22.78038979      22.61843681
C        9.63968563      22.46219635      22.83345795
C       21.76339340      19.88092995       0.11959687
C        9.32467365      22.92940903      24.07908630
C        3.36598063      20.23516464      27.38649750
C       -0.72498584      19.62867928      27.29649734
C        5.34780931      22.47127914      23.90929794
H        1.54004133      18.84423637      25.52894211
H        3.26678133      21.76628876      25.85215187
H        7.12030458      23.70339394      25.81167603
H        5.51254892      21.01728249      25.51697540
H        2.96261907      20.30988884      24.16990852
H        1.85790586      23.28176498      27.15746307
H        5.76256084      22.22795296      27.24917030
H        6.85413933      19.41909599      24.19134903
H       18.04400635      20.92329788       0.45144740
H        5.35717916      23.72220612      22.17831993
H        9.31121445      21.47857857      22.51051140
H       22.06177902      18.93407631       0.54801738
H        8.75314236      22.32238960      24.75803185
H        3.98933935      19.56969833      26.80901909
H       -0.11482460      20.29076767      26.69765663
H        4.74876642      23.15960884      24.48449135
C       24.01310158      24.30621719       3.03033161
C       24.74937439      26.81357002       5.79355383
C       28.77949715       1.49686158       4.94133949
C       28.16274071      26.34818840       3.06726623
C       24.72768784      25.15414810       2.23775387
C       23.98307419      27.58413124       6.61740732
C       28.30159187       0.77128512       5.98946285
C       28.90894699      25.57264328       2.22871065
C       25.02091026      24.80194473       0.88971871
C       23.86091995      27.27126312       7.99748373
C       28.23706627       1.35122275       7.28537035
C       29.19697952      26.00978661       0.91393715
C       21.34968376      25.15569496       7.04481554
C       28.03028488      28.08627319       1.39987540
C       31.11689568       1.02072382       1.41472673
C       25.23089790      25.29519653       7.60849953
C       31.19194603       1.10583103       2.76900864
C       25.38487053      25.65418434       6.29985189
C       21.41157722      24.79123497       5.72881651
C       27.74317169      27.63904762       2.65546894
H       23.82306862      24.57320976       4.07941627
H       24.86721420      27.07059097       4.75007820
H       28.76801872       1.07208705       3.93341184
H       27.90404701      25.99365425       4.05745172
H       25.09314728      26.10247231       2.62213826
H       23.43605614      28.45244598       6.24001551
H       27.96214867      58.68471527       5.84611034
H       29.24415970      24.60123253       2.52554178
H       21.84678078      26.06173134       7.37153578
H       27.71835709      29.06657791       1.07743061
H       30.41751862       0.34520131       0.95561504
H       25.66552544      24.38489914       7.98947382
H       30.60035515       0.43535239       3.38944960
H       25.97834206      25.03585815       5.64580393
H       21.94772911      25.41706657       5.02456474
H       27.17689133      28.27029800       3.34021258
C       19.86438179      23.95923424      10.24122143
C       20.63451004      26.75840950      12.75680733
C       24.72379684       1.28533530      12.70202637
C       23.60818291      26.58552742      10.70755005
C       20.56500435      24.73383522       9.35736942
C       19.81405830      27.56729698      13.49343777
C       24.60979462       0.28872967      13.63479042
C       24.33351898      25.78515244       9.86529732
C       20.63248253      24.38516998       7.98679733
C       19.38597679      27.16251373      14.77827644
C       24.42724228       0.60581428      15.00484276
C       24.48996353      26.11125374       8.49622726
C       16.38109207      25.37634468      14.40791512
C       23.09981537      28.06741333       8.88302803
C       27.72243118       0.65101594       8.39487457
C       20.66261101      25.10739517      14.49713039
C       27.45068169       1.29013228       9.56737328
C       21.05858421      25.51092148      13.25114632
C       16.80325508      24.87639046      13.20935631
C       22.99224091      27.75102425      10.20571709
H       19.81264496      24.24036598      11.29435825
H       20.99602699      27.05649185      11.77324581
H       24.83209991       1.03882670      11.66847134
H       23.50714493      26.32754135      11.74225712
H       21.07507706      25.62718201       9.68752766
H       19.47859955      28.53154182      13.12041283
H       24.62887383      58.17563629      13.34742355
H       24.79152107      24.88646317      10.21699524
H       16.72530556      26.34552574      14.74942780
H       22.58353043      28.91477776       8.47897625
H       27.47529411      58.52822113       8.29445362
H       20.96123314      24.14224625      14.87281418
H       26.98830605       0.76245135      10.38080788
H       21.70515060      24.88180161      12.65677929
H       17.51270294      25.45976067      12.60352898
H       22.41464233      28.38643074      10.85017204
C       14.45205402      24.24689293      17.37933731
C       15.78180313      26.75158691      19.70870399
C       19.95874214       1.75061810      19.82888222
C       18.58423996      26.28363609      17.32730103
C       15.17363167      25.04936600      16.54526329
C       14.92859554      27.52819061      20.43728828
C       19.29064751       0.80242026      20.55535126
C       19.44972992      25.52766800      16.59885788
C       15.54988575      24.60355759      15.25738144
C       14.50256157      27.11759186      21.72233009
C       18.82036781       1.09017444      21.86628723
C       19.83924866      25.93617249      15.29194164
C       11.52069664      25.34026527      21.39225197
C       18.49153900      27.93024635      15.56200409
C       24.33090782      58.52919388      16.00460243
C       15.89824867      25.14178276      21.48166656
C       24.06393051      58.85424423      17.29603195
C       16.25558090      25.52322960      20.22341537
C       11.85336304      24.85828018      20.16001129
C       18.07173157      27.47957039      16.77987671
H       14.20654869      24.59070396      18.36484528
H       16.09154701      27.08352661      18.71601868
H       20.32120132       1.49994159      18.83511543
H       18.29595947      25.97163963      18.32890511
H       15.46685028      26.04536629      16.87189293
H       14.57764530      28.46875381      20.05450439
H       19.10973549      58.75385666      20.12808228
H       19.84511948      24.60618019      16.97892571
H       11.84058762      26.31374931      21.67941093
H       18.09837151      28.86775780      15.17361546
H       24.40527534      57.50191879      15.70684528
H       16.25026703      24.20329857      21.89455605
H       23.93552971      58.08191681      18.04970360
H       16.91254425      24.91441536      19.63141632
H       12.43154240      25.46911812      19.48381042
H       17.32816696      28.05149651      17.31847382
C        9.76141834      24.22377586      24.47906685
C       10.80195713      26.83578491      26.79832840
C       14.26827335       2.14555001      26.99144745
C       13.78213310      26.27619553      24.31134033
C       10.47035503      25.00482750      23.61764717
C       10.12358665      27.65200806      27.66197014
C       13.31096840       1.51632917      27.73609161
C       14.68362045      25.55274582      23.58430862
C       10.79423904      24.54980278      22.31509590
C       28.72849846      27.26820564       0.48061574
C       31.99251175       1.77944112       0.58664352
C       15.03090572      25.93313599      22.26553154
C       25.76744080      25.66280174       0.04609386
C       13.53999233      27.83319855      22.47407341
C       18.14228058       0.13363749      22.66915703
C       11.10643959      25.19356918      28.52614975
C       17.67498016       0.48525921      23.89751625
C       11.31757832      25.60169792      27.23669624
C        7.28906107      25.27256966      27.30007935
C       13.18788338      27.42423821      23.72651100
H        9.51751804      24.59707069      25.47703171
H       10.93429852      27.15266418      25.76246452
H       14.40915775       1.84724009      25.94314384
H       13.52361965      26.00577736      25.32860947
H       10.80854702      25.99434853      23.91750336
H        9.69589233      28.59463120      27.31875420
H       12.69168949       0.73671532      27.28863144
H       15.14642906      24.65040970      23.99528313
H       26.09488487      26.60708618       0.41536200
H       13.13337421      28.71787453      22.04120827
H       18.00465393      58.06357956      22.29620743
H       30.25654411      24.23316765       0.31916994
H       17.15552139      58.70904922      24.49430084
H       11.86678696      24.95959091      26.55445099
H        7.87461662      25.92959785      26.65844345
H       12.48585033      27.99966431      24.29310417
C       23.74084854       1.33337331       3.22776580
C       25.03354263       4.49556112       5.47110796
C       28.79319954       7.37034369       5.34513903
C       27.54947853       4.09829617       2.72665644
C       24.47822952       2.18893576       2.45982361
C       24.26668549       5.32909727       6.24661016
C       28.01210022       6.55680466       6.11916256
C       28.15222359       3.28065252       1.80771267
C       24.63617134       1.95827734       1.06688106
C       23.93672752       4.98698092       7.57487774
C       27.70431328       6.90975904       7.45711756
C       28.49239159       3.76765871       0.52623069
C       21.30884552       3.02228975       7.32607126
C       27.58361053       5.93310642       1.17263472
C       31.47731209       5.81055164       1.00877917
C       25.20104408       2.91687250       7.28808403
C       31.12922287       6.10484123       2.29775548
C       25.51087189       3.27749157       6.00649071
C       21.69610786       2.55730462       6.10152578
C       27.24681664       5.43405342       2.40023661
H       23.63807869       1.51013327       4.29502678
H       25.27639008       4.77845573       4.46713018
H       29.05089569       7.08263206       4.33512831
H       27.28645134       3.71709561       3.70590425
H       24.92676353       3.07555604       2.89779019
H       23.89314270       6.27255201       5.86093140
H       27.63827324       5.61811638       5.71899128
H       28.36660194       2.24177694       2.04806876
H       21.75754547       3.90464258       7.75013638
H       27.36236954       6.96259117       0.91851127
H       31.11882973       4.89040852       0.54520714
H       25.57035255       1.99303257       7.71324968
H       30.47947693       5.43103457       2.85220909
H       26.13643456       2.62761045       5.40623665
H       22.49114418       3.05329227       5.55755281
H       26.74819946       6.06642199       3.13038611
C       18.90298271       2.20051217      10.03048420
C       19.97408676       4.78441811      12.45683289
C       24.05193710       7.19616652      12.58951950
C       23.19758224       4.18796587      10.15809536
C       19.89970589       2.82427883       9.34422588
C       19.35097694       5.62835312      13.32393646
C       23.37673950       6.29595327      13.36946106
C       23.99816704       3.38201237       9.41776466
C       20.30197716       2.36852288       8.06702518
C       19.09594536       5.23060846      14.66513157
C       23.05301666       6.60750580      14.71454430
C       24.39475632       3.75193405       8.10199547
C       16.26153374       3.18516707      14.07470798
C       23.13895988       5.82910395       8.38850403
C       26.92661095       6.06553650       8.28577614
C       20.09235954       3.06658459      14.14358807
C       26.63931656       6.42544508       9.57464409
C       20.34928513       3.48618627      12.86343384
C       16.21901894       2.75620580      12.78354645
C       22.77390862       5.44024467       9.65003490
H       18.57866287       2.57060528      10.99542236
H       20.16605186       5.10644007      11.44029522
H       24.32170868       6.95549822      11.56732082
H       22.87025070       3.87552261      11.14512444
H       20.39819336       3.68128037       9.77171707
H       19.03131866       6.64590788      13.01220894
H       23.08379745       5.33864594      12.96797276
H       24.32849503       2.40480924       9.80646610
H       16.93828392       3.97492123      14.36913967
H       22.80245399       6.77172899       8.00254345
H       26.60218239       5.12128878       7.88971138
H       20.33767509       2.07541466      14.46578693
H       26.03657150       5.76926470      10.19359779
H       20.81867599       2.80723786      12.16504192
H       16.85321426       3.21212482      12.04027176
H       22.12961388       6.08819008      10.24700642
C       14.61636734       2.44678044      17.33264732
C       15.85952568       4.50326824      19.78036690
C       19.67390823       7.26134729      19.74241638
C       18.62172127       4.39496994      17.29449654
C       15.45869255       3.01397729      16.41489220
C       15.07951450       5.33855391      20.51720047
C       18.89149284       6.42667484      20.49215317
C       19.23847771       3.54535460      16.42096138
C       15.43419266       2.59040761      15.05909157
C       14.67196941       4.98760223      21.82789993
C       18.50765038       6.77390385      21.81081581
C       19.48106956       3.93646002      15.07707596
C       11.83241272       3.32204604      21.52863121
C       18.44434357       6.08001757      15.58446312
C       22.36889076       5.68543100      15.55418587
C       15.84509087       2.86068702      21.54420471
C       22.07865524       6.01383877      16.85132980
C       16.26020241       3.24518538      20.30681419
C       12.04298019       3.13844395      20.19609261
C       18.20978737       5.68437433      16.86219788
H       14.62509441       2.78610587      18.35694313
H       16.15651894       4.80061436      18.77880287
H       19.95353127       6.96293211      18.73364830
H       18.45321274       4.07660437      18.31646538
H       16.13118362       3.82010388      16.70610619
H       14.75208092       6.28665638      20.11725807
H       18.53414726       5.47098207      20.09414291
H       19.52715111       2.54993963      16.72516823
H       12.56058788       3.84595633      22.14785576
H       18.13102341       7.04467106      15.23999786
H       22.07739067       4.72504377      15.14173126
H       16.12708473       1.89161670      21.95738220
H       21.55526543       5.31772327      17.47346497
H       16.87824249       2.59407401      19.70729446
H       12.95659351       3.51444888      19.72887802
H       17.70130348       6.34985256      17.56274796
C        9.24954605       2.66571927      24.10317802
C       10.43142223       4.81920528      26.56282616
C       14.68717957       7.26819181      26.76045990
C       13.88031387       4.22243214      24.39533424
C       10.41350174       3.07811737      23.53071594
C        9.79106235       5.62131357      27.45708466
C       13.87756824       6.41731644      27.45836830
C       14.63747978       3.36727095      23.64816093
C       10.64534378       2.88761854      22.15088654
C       28.21983910       5.11863136       0.20537603
C       32.30761719       6.68793344       0.26670283
C       15.06374741       3.72742629      22.34737587
C       25.34106827       2.86870003       0.23987517
C       13.88389397       5.84898376      22.62685585
C       17.70561218       5.93615484      22.60343933
C       10.30002880       2.95081210      28.06936646
C       17.30062294       6.32824183      23.84916306
C       10.68808365       3.47104907      26.87026024
C        6.61041260       2.66509390      27.42260361
C       13.49557400       5.47925520      23.88309479
H        9.07332420       2.78783774      25.14078331
H       10.72199726       5.22897911      25.60231972
H       14.98006821       7.00758028      25.73980713
H       13.53849220       3.93439603      25.37431908
H       11.19364452       3.56193185      24.11499596
H        9.55416489       6.65902805      27.23217583
H       13.53163338       5.49490976      26.99358559
H       14.94049740       2.38025618      24.02917862
H       25.78937531       3.75399375       0.68776160
H       13.56627560       6.80025911      22.20217705
H       17.38346863       4.97122431      22.18847656
H       10.44683075       1.89142251      28.26998711
H       16.64868546       5.68947554      24.42780876
H       11.15863132       2.82579923      26.14177704
H        7.16183424       3.37245584      26.81364059
H       12.88545322       6.13512230      24.45535088
C       23.82429504       7.31719017       3.02283716
C       24.72032928      10.28120232       5.37427568
C       28.76765251      12.77078915       5.37389469
C       27.72043037      10.04394436       2.91915631
C       24.54216766       8.20142078       2.26244164
C       23.99697876      11.12032890       6.17271280
C       27.99380875      11.93123913       6.11675501
C       28.45625114       9.17464828       2.16179824
C       24.89613533       7.88214970       0.93125033
C       23.68892288      10.75766850       7.51534796
C       27.65563011      12.25119686       7.45906878
C       28.85860443       9.52049732       0.84917778
C       21.02594757       8.58743382       7.26145697
C       27.74100685      11.66620445       1.14161539
C       31.68529511      11.39922428       1.21757209
C       24.85659409       8.64871311       7.14542294
C       31.31818008      11.76157093       2.48873305
C       25.16367531       9.02549744       5.87125731
C       21.37349129       8.23250580       5.99111176
C       27.35743904      11.30937767       2.39856863
H       23.55244064       7.57268095       4.03030157
H       24.94838905      10.58375263       4.36823225
H       29.02409363      12.49936104       4.34656048
H       27.40542030       9.76905823       3.92915368
H       24.84380531       9.15214539       2.66216803
H       23.65416718      12.09012032       5.81690359
H       27.62313843      11.00277805       5.70742702
H       28.74260712       8.19252110       2.54000187
H       21.34665871       9.52112865       7.67752695
H       27.47787857      12.63127422       0.73376042
H       31.39875984      10.44146252       0.81757438
H       25.18456268       7.68437529       7.53795719
H       30.72270584      11.07930756       3.08740926
H       25.75469017       8.36002445       5.23027754
H       21.99021339       8.88358688       5.38266611
H       26.77475548      11.98481560       2.99188352
C       19.05278015       7.24466991      10.11669827
C       20.21789169      10.18388176      12.58784962
C       24.14278412      12.83712101      12.55533695
C       23.08524513       9.99070072      10.13609982
C       19.88005066       8.05809879       9.39137936
C       19.49149704      11.04631901      13.36219311
C       23.38031578      11.99363899      13.31101227
C       23.80067062       9.14430141       9.33455276
C       20.23421669       7.72519875       8.05509663
C       19.17780113      10.72965431      14.70659637
C       23.05801010      12.31490707      14.65734768
C       24.11700439       9.50429058       8.00069618
C       16.48357391       8.76151848      14.38973427
C       22.97266197      11.62546825       8.36807728
C       26.86857224      11.38568974       8.26237965
C       20.36154175       8.61604500      14.40816307
C       26.53712845      11.72747517       9.53614330
C       20.66006660       8.95078373      13.11795330
C       16.76831245       8.43089199      13.10209560
C       22.66492844      11.25179291       9.65228367
H       18.78455162       7.52939129      11.13207245
H       20.45270538      10.46079540      11.56365013
H       24.39300156      12.58633900      11.53481960
H       22.83694649       9.68854713      11.13230515
H       20.25505257       8.97137547       9.81056213
H       19.14416504      11.99663925      12.96552658
H       23.00767708      11.06159210      12.89900970
H       24.12689590       8.17319584       9.70065784
H       16.87558174       9.67725468      14.82515430
H       22.66251564      12.58407402       7.99279165
H       26.52186584      10.46472836       7.82373858
H       20.69791985       7.66858816      14.81247044
H       25.91486549      11.05052757      10.15028286
H       21.23263359       8.27095795      12.49660015
H       17.39407158       9.08020592      12.50141239
H       22.09919739      11.93332672      10.26712799
C       14.62656593       7.37089443      17.30907059
C       15.67821884      10.23843002      19.70712090
C       19.60497093      12.84555817      19.71457863
C       18.59320831      10.02974415      17.35484505
C       15.40756226       8.20826149      16.55211639
C       14.89865780      11.07233810      20.45454216
C       18.83558846      11.99182701      20.47028542
C       19.32809258       9.17716408      16.58180237
C       15.69072533       7.90680885      15.20137882
C       14.51195431      10.71457195      21.76692390
C       18.47215080      12.32983875      21.78945732
C       19.62792778       9.49495411      15.23535538
C       11.74043274       8.64066505      21.54120445
C       18.43581390      11.59936428      15.53178406
C       22.30529404      11.43672085      15.47026920
C       15.70418262       8.60327053      21.48490524
C       22.00091934      11.77204800      16.76017952
C       16.09071922       8.98204708      20.22988129
C       12.06464195       8.27926350      20.26549912
C       18.13629532      11.25912285      16.82582092
H       14.39469433       7.64010096      18.34156609
H       15.98547649      10.53870583      18.71572113
H       19.85969162      12.57254124      18.70999146
H       18.36216354       9.76364613      18.39179993
H       15.81022167       9.12162304      16.98669624
H       14.59073734      12.03918362      20.06816864
H       18.49801254      11.05210400      20.06771088
H       19.69471741       8.23919010      16.97775650
H       12.13659191       9.54847527      21.97389603
H       18.10537148      12.55289078      15.12744904
H       21.98395157      10.50676823      15.04731655
H       16.02294350       7.64496231      21.87773132
H       21.41763687      11.11201477      17.39255524
H       16.71173286       8.31300926      19.61906624
H       12.73684502       8.91382980      19.67271233
H       17.55239677      11.93459320      17.42966270
C        9.64167213       7.42910147      24.36082268
C       10.84700775      10.26486397      26.79747009
C       14.78522301      12.81018162      26.86564827
C       13.75368118       9.94226360      24.35323715
C       10.52533627       8.19369411      23.64720726
C       10.11075878      11.13300705      27.54304886
C       14.02835560      11.94840145      27.61298180
C       14.52210140       9.09973621      23.60130692
C       10.87875080       7.83870840      22.32190514
C       28.49786758      10.78573418       0.33327207
C       32.45109940      12.28233051       0.41153452
C       14.91479301       9.46445465      22.29149246
C       25.62843323       8.78293037       0.11819448
C       13.72384071      11.57420826      22.58158684
C       17.68507767      11.46402645      22.59176064
C       29.61256981       8.63741016       0.04230507
C       17.32799149      11.82163143      23.86465454
C       11.20456696       8.99502563      27.30695915
C        7.15195751       8.45643520      27.35558128
C       13.34553909      11.19298077      23.84077835
H        9.36794567       7.70915651      25.37068176
H       11.16399670      10.55314445      25.78485870
H       15.07113171      12.55369949      25.85623932
H       13.45670319       9.62108803      25.35432434
H       10.95726204       9.10805607      24.08066177
H        9.83165836      12.10686970      27.16421890
H       13.72018528      10.99163055      27.20029640
H       14.83369637       8.13456058      23.99222946
H       25.91633797       9.74513340       0.51348549
H       13.42024612      12.52360725      22.17005157
H       17.35161591      10.51415443      22.18768883
H       29.87851334       7.65483809       0.44889820
H       16.71523094      11.16131973      24.45723534
H       11.80482006       8.31326389      26.71364975
H        7.71755886       9.14321709      26.75521088
H       12.73092747      11.85183144      24.42794418
C       23.81245232      13.12009335       3.04992676
C       24.79730225      15.72034645       5.39539337
C       28.83951950      18.27809334       5.39107752
C       27.78740120      15.58457565       3.01440310
C       24.60066223      13.93854904       2.29583478
C       24.06409264      16.57095528       6.16770887
C       28.06842804      17.43076324       6.15258741
C       28.55370903      14.75123882       2.26036525
C       24.96790886      13.57434845       0.97190231
C       23.77970696      16.25324440       7.51822186
C       27.78487968      17.74388504       7.50287390
C       28.93306732      15.10616970       0.94156975
C       21.00213051      14.36583138       7.24227667
C       27.74459267      17.21010780       1.23392391
C       31.65757370      16.90996742       1.19796824
C       24.96128273      14.15363312       7.21749973
C       31.31128311      17.26750946       2.47139096
C       25.25932121      14.48640537       5.92569017
C       21.33606911      13.98723888       5.97564411
C       27.36617470      16.83567429       2.49043059
H       23.51778030      13.42314053       4.04454565
H       25.01990700      15.99406338       4.36229515
H       29.07247353      17.99210739       4.38009453
H       27.49150276      15.28394032       4.02727079
H       24.94287872      14.87601376       2.67505956
H       23.70807266      17.49985504       5.75259590
H       27.70155907      16.50745201       5.74364567
H       28.87033653      13.79036140       2.65830016
H       21.30653954      15.33164310       7.64588261
H       27.43556404      18.15704727       0.83112949
H       31.34407997      15.95838261       0.77616906
H       25.29447746      13.22095966       7.62233686
H       30.70829010      16.58315086       3.08213615
H       25.85544777      13.80415821       5.31534147
H       21.91842079      14.64755249       5.34809875
H       26.74810028      17.49160194       3.09554529
C       19.20027733      13.00095940      10.19809341
C       20.25979805      15.77741146      12.61322689
C       24.35409355      18.30267906      12.71317768
C       23.22684860      15.57585716      10.18092823
C       19.92440796      13.85304165       9.41445446
C       19.54452705      16.64225388      13.39384937
C       23.54694366      17.47774887      13.42691422
C       23.93945885      14.71125221       9.40171337
C       20.27385521      13.48748207       8.08358288
C       19.18751526      16.30237579      14.72318172
C       23.18113708      17.79589462      14.76507378
C       24.23190308      15.02949333       8.04573727
C       16.43168068      14.42741299      14.39114189
C       23.06099892      17.14026833       8.35446358
C       27.01416779      16.88195038       8.31381321
C       20.30783844      14.16216946      14.40799522
C       26.74750900      17.19782829       9.62191582
C       20.65757942      14.51631737      13.12508774
C       16.77519798      14.02914429      13.12686539
C       22.78264999      16.81312752       9.64828205
H       18.94778252      13.30627060      11.21268463
H       20.55543709      16.05728149      11.60249996
H       24.62381554      18.02626419      11.69383907
H       23.01782417      15.31121922      11.21240234
H       20.24097633      14.81902695       9.77945232
H       19.23765564      17.59783173      13.02086544
H       23.15105629      16.53874397      13.01337814
H       24.30336761      13.76547241       9.77958584
H       16.72388077      15.40163422      14.76240730
H       22.73797798      18.08216095       7.94359493
H       26.64403534      15.94374084       7.88055277
H       20.61682510      13.20777988      14.81205177
H       26.14330864      16.52609062      10.22891331
H       21.23042107      13.83472157      12.50378609
H       17.33726311      14.68644428      12.50307369
H       22.21840477      17.49283028      10.28269863
C       14.63440895      13.10181808      17.36781883
C       15.61160469      15.83143711      19.78504944
C       19.64357948      18.36143494      19.74972534
C       18.47957039      15.56305695      17.32543182
C       15.34820652      13.95015526      16.56447220
C       14.86817837      16.68446922      20.54659653
C       18.85189438      17.52383041      20.49314880
C       19.21520233      14.70137978      16.55924416
C       15.70483303      13.56168365      15.24496269
C       14.50014877      16.33822441      21.86961937
C       18.50802231      17.85722542      21.82463264
C       19.57601738      15.04386997      15.23576546
C       11.74148083      14.48111248      21.53133774
C       18.44691849      17.17659760      15.54315758
C       22.38333130      16.92917061      15.54847813
C       15.66097164      14.21138000      21.56947708
C       22.04692459      17.25511360      16.82655144
C       16.01983833      14.58103943      20.30352020
C       12.11945915      14.06141281      20.28572464
C       18.09705162      16.82289505      16.81499100
H       14.34544373      13.42764568      18.35196877
H       15.89622879      16.13987541      18.78709984
H       19.92435646      18.06861877      18.74148750
H       18.20002365      15.29244328      18.34338951
H       15.62414265      14.92155266      16.91276169
H       14.55759907      17.65193558      20.14814186
H       18.49179077      16.59156418      20.08009911
H       19.51601601      13.73983097      16.95377922
H       12.02603149      15.47135735      21.89694977
H       18.17482758      18.14101410      15.13338852
H       22.04346657      15.99326801      15.10400200
H       15.96415806      13.24745464      21.98211670
H       21.43090057      16.58327293      17.41103935
H       16.61826897      13.89377594      19.70889091
H       12.71760368      14.73599815      19.65082359
H       17.49803543      17.50213623      17.42098045
C        9.81817341      13.23141575      24.46402931
C       10.86863422      15.86882210      26.87679482
C       14.75047970      18.26995277      26.83115005
C       13.73556614      15.57349968      24.45220184
C       10.57667828      14.05064487      23.67628670
C       10.10799885      16.71092033      27.62952042
C       13.98886585      17.42758369      27.58886337
C       14.49491787      14.72826004      23.69831467
C       10.97847176      13.63722897      22.37590218
C       28.52331352      16.35124969       0.42604110
C       32.42555618      17.77605629       0.38307315
C       14.88747215      15.08253193      22.38593864
C       25.75403404      14.42258263       0.16295446
C       13.73191357      17.20737076      22.68424034
C       17.70978737      16.99600220      22.62504387
C       29.71222305      14.24167824       0.13037533
C       17.39001274      17.33231163      23.90400696
C       11.28049183      14.61685944      27.39623070
C        7.30855465      14.04473495      27.42703247
C       13.34847355      16.83451080      23.93959045
H        9.50912476      13.56954575      25.44308853
H       11.16541672      16.17787933      25.87919235
H       15.04951954      17.97187042      25.83864784
H       13.42939663      15.25385666      25.45219994
H       10.86706924      15.02780914      23.99621773
H        9.78870487      17.65993500      27.26477623
H       13.65458488      16.46858978      27.20440865
H       14.78673172      13.75147820      24.07885933
H       26.06317520      15.37395477       0.56628865
H       13.43526745      18.17539597      22.27100372
H       17.35842323      16.07527733      22.18507957
H       30.03377151      13.28773499       0.52398127
H       16.75542641      16.65868759      24.49312782
H       11.88223839      13.95024014      26.79749870
H        7.92161655      14.70510864      26.82148361
H       12.73560047      17.52581596      24.54278946
C       23.79788017      18.63540077       3.01180363
C       24.94451141      21.38109016       5.51331377
C       28.99688148      23.85777283       5.50891876
C       27.88817024      21.22797585       3.04663205
C       24.58096313      19.47172165       2.28101110
C       24.30469894      22.21697617       6.38903570
C       28.28655243      22.97008896       6.26362705
C       28.67303848      20.38453484       2.31117749
C       24.96145439      19.13097191       0.95293218
C       24.04671860      21.80238914       7.72404099
C       27.91889763      23.28833580       7.59287214
C       29.00367928      20.69174767       0.97191316
C       21.21186256      19.95859337       7.33134127
C       27.74448586      22.76327133       1.19210601
C       31.95381355      22.70828056       1.25027311
C       25.07639503      19.65715027       7.18894148
C       31.63171005      23.05861664       2.53137279
C       25.33219337      20.07694626       5.92019844
C       21.49096489      19.65734863       6.02423334
C       27.41804504      22.43825722       2.48092151
H       23.51341248      18.90543175       4.00216818
H       25.14139175      21.72218323       4.50146103
H       29.29882240      23.58440781       4.50529289
H       27.61781883      20.96154022       4.07611752
H       24.94107819      20.41660690       2.68572712
H       23.99789047      23.19636536       6.09234905
H       28.00860214      21.99571037       5.86401701
H       29.02351952      19.45066833       2.73854256
H       21.58869362      20.85427475       7.79056358
H       27.39251137      23.70913506       0.74737757
H       31.62571526      21.77195930       0.82067931
H       25.35714912      18.66010094       7.49767351
H       31.04117966      22.38010788       3.14379835
H       25.82344055      19.41766930       5.20675087
H       22.10370445      20.34431267       5.43033600
H       26.80258560      23.11920166       3.07621551
C       19.37586212      18.51873398      10.22839165
C       20.41580200      21.25235748      12.80428123
C       24.54833603      23.95659447      12.90636158
C       23.57314491      20.92828560      10.34069538
C       20.15305519      19.36804771       9.48559093
C       19.61172295      22.08865356      13.52552223
C       23.77354431      23.09788704      13.63218498
C       24.19963837      20.09072304       9.46114922
C       20.42460251      19.08566093       8.11941910
C       19.23778915      21.76391602      14.86184025
C       23.38562584      23.42263603      14.95487785
C       24.44728470      20.50852585       8.12723160
C       16.49962807      19.85820007      14.44222927
C       23.40807915      22.64288139       8.66938496
C       27.21345711      22.36153984       8.41729927
C       20.49284363      19.68874168      14.62612820
C       26.89925575      22.67938232       9.70471668
C       20.85728645      20.02741051      13.35390186
C       16.86254692      19.51024055      13.17457199
C       23.16365623      22.22142029       9.93971729
H       19.17268562      18.74829483      11.27157688
H       20.71436691      21.52677536      11.80189896
H       24.85949707      23.67778587      11.90810776
H       23.38653183      20.59694481      11.34486008
H       20.55617714      20.26397514       9.93325520
H       19.25507164      23.02567482      13.11244011
H       23.43568802      22.15497208      13.21346188
H       24.51527214      19.09626198       9.74718571
H       16.83001900      20.78073502      14.89609432
H       23.11392212      23.63429832       8.35175228
H       26.94963455      21.41371536       7.98603630
H       20.81513023      18.74062347      15.05225277
H       26.37110138      21.96612167      10.31310844
H       21.47462273      19.37739372      12.77764797
H       17.50435066      20.17089081      12.58935356
H       22.65257835      22.87759972      10.63424969
C       14.54652691      18.47163582      17.29220581
C       15.62850380      21.34212112      19.77780533
C       19.70095825      23.99304390      19.86399460
C       18.52049637      21.03773880      17.47313881
C       15.33139992      19.31604195      16.56135178
C       14.81925583      22.17285347      20.50544548
C       18.95760536      23.15799332      20.64786911
C       19.31436729      20.20010567      16.73341179
C       15.68735504      18.99332428      15.22686577
C       14.46295738      21.84994316      21.84023285
C       18.62280273      23.51505280      21.97013283
C       19.69197845      20.53912354      15.40530491
C       11.69584846      19.76905251      21.55198669
C       18.41847610      22.61615372      15.64299870
C       22.59214783      22.55119896      15.72686958
C       15.77065754      19.80141258      21.62951279
C       22.20355034      22.90346336      16.99658394
C       16.11488533      20.13788223      20.35226440
C       12.02531815      19.38796234      20.28267670
C       18.07059669      22.25110054      16.92115784
H       14.28938389      18.74005699      18.29455948
H       15.88598156      21.60025597      18.76395416
H       19.95181656      23.69501495      18.84894371
H       18.24122429      20.75625229      18.47914696
H       15.67500496      20.24125481      16.98361588
H       14.44880104      23.09365654      20.08058548
H       18.62663651      22.19659805      20.27116966
H       19.66176033      19.25166321      17.13776970
H       12.08586216      20.69121933      21.96326447
H       18.07152939      23.54562759      15.21984386
H       22.26943016      21.61745453      15.31371593
H       16.10827065      18.88064194      22.07595253
H       21.55131149      22.23553276      17.58527374
H       16.74995804      19.46463203      19.76254272
H       12.67600727      20.00932503      19.68209267
H       17.44891167      22.91785049      17.51237106
C        9.72035027      18.51494980      24.44699860
C       10.84253407      21.34683800      26.84833527
C       14.94712734      24.13625145      26.84817123
C       13.76480961      21.15338326      24.46001434
C       10.53608704      19.31161690      23.69779778
C       10.06073093      22.19565201      27.58843040
C       14.23348999      23.26758766      27.61794281
C       14.57999229      20.32345772      23.74082947
C       10.86437130      18.95740700      22.36565781
C       28.53768539      21.89919090       0.40771705
C       32.69504929      23.59497833       0.42857364
C       14.94586468      20.64630890      22.40862083
C       25.76043320      19.98970413       0.16190264
C       13.63445377      22.69517708      22.61653328
C       17.87081528      22.66434669      22.80895615
C       29.79077530      19.81489563       0.18488215
C       17.52137375      23.05624008      24.06923294
C       11.30658340      20.14197350      27.42132187
C        7.32650518      19.62292290      27.41705322
C       13.28988361      22.35395241      23.89613342
H        9.47160721      18.82325745      25.46261597
H       11.08154011      21.60103416      25.82611656
H       15.20636272      23.85921097      25.84491348
H       13.49219704      20.86948013      25.47462845
H       10.92312717      20.22813416      24.10541916
H        9.68332005      23.11798859      27.16614342
H       13.93045902      22.29487610      27.22896767
H       14.93101501      19.39266968      24.16973114
H       26.09094429      20.90828705       0.58709764
H       13.28214550      23.60736084      22.16522217
H       17.55241203      21.69837952      22.41676903
H       30.11787033      18.87433815       0.61010349
H       16.91831398      22.39973068      24.69448090
H       11.90390205      19.45119286      26.81388855
H        7.96287680      20.29187584      26.82521057
H       12.63568974      23.00105667      24.47358894
C       30.93020821      51.44766235       9.26252842
C       -8.39698410      50.79520035      14.23763084
C       30.49338913      52.15896988      10.34568024
C       -7.96291494      50.09701157      13.15389538
C       30.84275627      51.76970673      11.65711403
C       31.58316231      50.58114624      11.84152985
C       30.49603462      52.51704788      12.81268501
C       32.03916550      49.87711334      10.70675850
C       31.73294258      50.30693054       9.44309807
C       -9.02136803      52.05286407      14.06459904
H       30.68499565      51.78128052       8.26039124
H       -8.24500465      50.41502380      15.22936726
H       29.90139198      53.05926895      10.21859455
H       -7.45306110      49.13056564      13.28199196
H       30.10307884      53.51728821      12.67764378
H       -7.15721846      48.97044373      10.87024403
H       32.08166122      49.74546051       8.57138824
H       -9.24531555      52.65968323      14.91532516
C        4.02834845      55.72981644       3.86417246
C        4.79139280      51.28742218       1.65888405
C        3.21165609      54.84227753       3.23719406
C        5.63337898      52.22225189       2.18973851
C        3.71208048      53.62023544       2.75198364
C        5.11304760      53.38628006       2.79933953
C        2.86160660      52.59598541       2.24686050
C        5.92508173      54.30485916       3.49026871
C        5.38143110      55.41721344       4.06618977
C        3.39714050      51.45322037       1.72886813
H        3.61961150      56.65273666       4.25416040
H        5.17594242      50.36369705       1.22426736
H        2.15781498      55.04738998       3.17157888
H        6.71324444      52.06533813       2.17403388
H        1.79938054      52.73871231       2.30472589
H        6.98076916      54.10554886       3.54987717
H        6.00574923      56.07159424       4.67431784
H        2.75048876      50.66227722       1.37042165
C       29.31358528      48.53362274      11.00260448
C       28.43745232      46.73864746      15.58863640
C       28.95362663      49.10666656      12.18107319
C       28.86538506      46.14972305      14.43339920
C       28.88781357      48.33643723      13.36629391
C       29.12111282      46.94561386      13.29072189
C       28.56327629      48.92257309      14.60951900
C       29.56274223      46.38471985      12.07430935
C       29.66170311      47.16062164      10.95523453
C       28.33639717      48.14082718      15.69911385
H       29.37527275      49.12677383      10.11433601
H       28.21837807      46.10924530      16.42676544
H       28.74901772      50.17605591      12.23397636
H       28.99544144      45.08047104      14.37581158
H       28.48149681      50.00188065      14.66401291
H       29.78267288      45.32073975      12.04065418
H       29.99975967      46.72452545      10.02961922
H       28.07046890      48.57809830      16.65054512
C       15.53833866      37.84744644      12.30840588
C       15.90190411      35.71176910      16.84096336
C       14.81969738      36.89765930      12.94545269
C       16.54120445      36.75579453      16.25128174
C       15.14648342      36.52353668      14.27781391
C       16.20781326      37.16345596      14.94253540
C       14.45683002      35.48906708      14.92933369
C       16.85164642      38.23609924      14.28828144
C       16.54238892      38.56256485      13.00869370
C       14.87130260      35.05905533      16.15187836
H       15.30306911      38.09928894      11.28574181
H       16.21246529      35.39084244      17.82602882
H       14.00506210      36.36644363      12.45586205
H       17.29344940      37.27692032      16.78083611
H       13.62620068      35.00298691      14.42815590
H       17.56396866      38.81248093      14.82015038
H       17.00103951      39.41665649      12.52918530
H       14.40423393      34.20840836      16.57622719
C       10.63083363      52.16839981      20.03870392
C       13.75269699      48.27288055      19.56172943
C       10.65689087      51.10510635      19.19456100
C       13.63953590      49.27507401      20.47675514
C       11.65277386      50.11435318      19.32869720
C       12.59249210      50.21276855      20.38132858
C       11.77652550      49.06038666      18.40847206
C       12.48828220      51.28709030      21.29041862
C       11.54704762      52.25566864      21.10184097
C       12.80434132      48.16918182      18.52336502
H        9.90772343      52.95600128      19.91044807
H       14.57400036      47.57981873      19.59414101
H        9.94222546      51.01473618      18.38512993
H       14.37022209      49.42034149      21.25942039
H       11.04807854      49.00516891      17.61092949
H       13.18335342      51.30940628      22.11080551
H       11.46962070      53.09254837      21.75526047
H       12.88813019      47.36302567      17.81048393
C        8.74637508      40.28627396      11.88987064
C       10.11885548      39.45486069      16.71244049
C        7.97304869      40.04042053      13.13392162
C       10.73735142      39.95545959      15.58476067
C        8.78450680      39.52625656      14.27736568
C       10.12481976      39.89440918      14.34439373
C        8.14734745      39.07910156      15.42413807
C       10.88872147      40.18773651      13.09190369
C       10.05580807      40.45022202      11.88727570
C        8.82929611      38.96269608      16.62315178
H        8.18187618      40.42910385      10.98887920
H       10.66586781      39.42538071      17.62457657
H        7.15827036      39.36420059      12.93346119
H       11.73382568      40.33875275      15.67310715
H        7.08293533      38.87642670      15.37975597
H       11.58377361      41.01098251      13.27539921
H       10.61879253      40.67277908      10.97417259
H        8.33554649      38.52568054      17.49381828
C        8.94767284      41.49329376       8.88723469
C        8.25439262      43.46653366       4.38864422
C        8.55526924      40.91148758       7.75166750
C        8.14683723      44.00046539       5.65255022
C        7.99158287      41.69426727       6.62469578
C        8.16771984      43.17681503       6.78862095
C        8.47714329      41.25254440       5.31922579
C        8.47128296      43.70851135       8.05160713
C        8.86345196      42.90160370       9.08089066
C        8.48447227      42.06826019       4.25548553
H        9.38553238      40.90073013       9.66704750
H        8.23635387      44.08478165       3.51142788
H        8.65442276      39.83142090       7.62577152
H        8.12833405      45.06832123       5.78133345
H        8.68942928      40.19676590       5.23411036
H        8.47189331      44.79616547       8.17547894
H        9.15150070      43.32801056      10.02417088
H        8.68379784      41.60136032       3.31576037
C        6.48495865      57.59035873      23.53642845
C       11.03729916       0.25335610      24.88103867
C        7.66618347      57.72303772      22.87038612
C        9.91473770      58.87359238      25.59341812
C        8.84590054      58.07558441      23.56092453
C        8.78636456      58.31847000      24.94614029
C       10.05245209      58.32971191      22.86542320
C        7.57206249      58.08507538      25.63211632
C        6.44908857      57.72621536      24.94468308
C       11.12539959      58.88157654      23.51311684
H        5.58373022      57.35058212      23.00494766
H       11.88676453       0.69531125      25.36759377
H        7.71523762      57.60303497      21.79267120
H        9.86504364       0.13874993      26.66729355
H       10.05917358      58.16968918      21.79174995
H        7.54029036      58.22211456      26.69848633
H        5.51313782      57.57891464      25.46688080
H       12.04678535       0.18485151      22.96438980
C       11.68171597      44.71854019       9.85962582
C       14.01826191      46.06872559      14.07533455
C       11.36269569      44.56995392      11.17659855
C       14.14476299      46.46713638      12.77465343
C       12.18543339      45.15405655      12.17657757
C       13.26224709      45.98035812      11.78208923
C       12.04881668      44.78673935      13.53933716
C       13.54712105      46.14580917      10.40936756
C       12.81104851      45.47434616       9.47395420
C       12.96997070      45.20426559      14.46203613
H       11.06123829      44.24692917       9.09337044
H       14.70850754      46.42576218      14.80539703
H       10.51247120      43.96485138      11.48323154
H       14.95022392      47.13765335      12.48737335
H       11.24862099      44.14049530      13.81210899
H       14.36976051      46.77358627      10.11109066
H       13.05810261      45.55873489       8.42866325
H       12.89669514      44.87369919      15.49960804
C       10.05537605      41.85168839      18.84982681
C       14.68007565      40.03030396      19.69113350
C       10.54931641      40.84439468      19.62122154
C       14.19494152      41.04941559      18.91652107
C       11.93018818      40.52466202      19.61393166
C       12.80490112      41.29880142      18.82747650
C       12.45090675      39.44865036      20.37335205
C       12.25783634      42.32441711      17.99961853
C       10.92564774      42.59342957      18.00995064
C       13.79691601      39.20373917      20.40529442
H        9.00005913      42.08885574      18.87100410
H       15.74256420      39.88877487      19.76181793
H        9.88998222      40.28229904      20.25332642
H       14.88421726      41.71078110      18.40872002
H       11.77377319      38.83686066      20.92938614
H       12.92926502      42.89538956      17.37319946
H       10.51612949      43.38727188      17.41301155
H       14.18790817      38.39086533      21.00293159
C       27.22865486      32.81812668      10.68351746
C       28.94349861      31.49297333       6.14540195
C       27.37579346      31.61512375      10.05791664
C       28.83371353      32.69004440       6.79347849
C       27.88758659      31.56171227       8.73709869
C       28.28919029      32.76065063       8.10363293
C       28.01350784      30.32852173       8.03824425
C       28.13198280      33.98530579       8.77739525
C       27.59189224      34.02160263      10.02598858
C       28.51785088      30.29951859       6.77268457
H       26.80661011      32.87060928      11.66745472
H       29.37611198      31.45676613       5.15777731
H       27.08000183      30.69223022      10.53863430
H       29.17754364      33.61174393       6.33632946
H       27.71195221      29.41073990       8.53756046
H       28.43757439      34.90306473       8.27726269
H       27.43486977      34.96378708      10.54263115
H       28.61207962      29.35371399       6.26861572
C       13.17994213      29.09585762      11.02851295
C       11.64945126      31.52768898       6.92587471
C       12.83738041      28.69055367       9.77291298
C       12.11340809      31.93737412       8.14100361
C       12.60173416      29.62653351       8.74298477
C       12.61604977      30.99772453       9.06731510
C       12.28058434      29.26168251       7.40668821
C       13.06117058      31.39834023      10.34597397
C       13.35060692      30.46983719      11.30299664
C       11.81861496      30.18735123       6.52316380
H       13.35814857      28.38094330      11.80036354
H       11.20546913      32.21531677       6.24988985
H       12.71654797      27.62635422       9.57504082
H       12.06940556      32.98918533       8.41737747
H       12.37314892      28.21774292       7.10554361
H       13.11836243      32.46428299      10.55312157
H       13.69149494      30.77267647      12.27213764
H       11.56318569      29.90370750       5.50673008
C       15.51446533      46.32068634      25.63465500
C       17.89459229      50.10548782      23.33308601
C       15.56310272      46.76679230      24.34933090
C       17.86484528      49.66777039      24.62006950
C       16.34109497      47.89200974      23.99010658
C       17.07420158      48.55682755      24.99567986
C       16.36082649      48.38512421      22.66758156
C       16.98379326      48.10052872      26.33047295
C       16.21714401      47.01184082      26.64675331
C       17.10324097      49.48214722      22.34338188
H       14.91141129      45.44939423      25.88813210
H       18.53775597      50.93635941      23.06501007
H       15.00519752      46.29652405      23.56592369
H       18.45969200      50.17160034      25.37037086
H       15.76293278      47.88566589      21.91942978
H       17.50823593      48.64254379      27.10473061
H       16.13852501      46.69017410      27.67830849
H       17.11570930      49.87112808      21.33788109
C        9.70881844      51.68325043       2.17492509
C        8.92235565      54.98595810       5.86213017
C        9.93481541      53.02304077       2.28325534
C        8.57850075      53.68016434       5.68422604
C        9.56573772      53.72087479       3.45920277
C        8.90062904      53.01543808       4.48572874
C        9.88361645      55.08418274       3.65613890
C        8.55974483      51.65554428       4.28827763
C        8.98947144      50.98923874       3.17315650
C        9.60747814      55.68248749       4.84366083
H       10.06286240      51.16035080       1.29824722
H        8.64783287      55.49094391       6.78470087
H       10.41788673      53.57607651       1.49140418
H        8.05821705      53.13253784       6.44370794
H       10.36854458      55.63783646       2.86651850
H        7.96088886      51.15518951       5.03563166
H        8.76732349      49.94963455       3.03717804
H        9.90649223      56.70401764       4.99547672
C       24.76466942      34.38828659      18.74806786
C       25.28562737      34.46709442      13.76771355
C       24.92333412      35.39108658      17.83329582
C       25.00520515      33.47631073      14.64804840
C       24.94073486      35.11447144      16.44588089
C       24.84150124      33.76707459      16.02193451
C       25.16323090      36.13741684      15.48757458
C       24.69054985      32.75056076      16.98729324
C       24.63590240      33.04843140      18.31986618
C       25.33775711      35.81385803      14.18254471
H       24.73514938      34.61981964      19.78600693
H       25.50701714      34.21948624      12.73551369
H       25.06100082      36.40772247      18.13842392
H       25.00126839      32.42715073      14.32991695
H       25.26031685      37.16144180      15.83237076
H       24.63384438      31.72509384      16.64934349
H       24.48247337      32.26928329      19.05633736
H       25.56391716      36.57583618      13.43737984
C       13.03006458      58.40505219      20.49228668
C       17.31346321      55.87105179      21.19340706
C       14.30559254      58.59156799      20.03494453
C       16.08116913      55.81468201      21.76330757
C       15.32571888      57.67029572      20.37637138
C       15.03993130      56.64521408      21.31025314
C       16.61618805      57.70599365      19.80412865
C       13.70796776      56.45201111      21.74117088
C       12.72773838      57.29116440      21.30305099
C       17.57312202      56.79952240      20.16699791
H       12.23212337       0.18446337      20.21406746
H       18.11548614      55.21909332      21.53141212
H       14.54121685       0.49201947      19.38987350
H       15.86253834      55.11796951      22.56943703
H       16.84009171      58.46060944      19.05440903
H       13.48473358      55.60860062      22.39182854
H       11.71609879      57.10572815      21.62504578
H       18.54625893      56.78868866      19.69267654
C       26.01304245      52.16566849      11.98847485
C       26.37914085      51.12428665      16.90314293
C       26.09656334      52.94716644      13.10562992
C       26.07763100      50.37591171      15.80902672
C       26.15185356      52.35577011      14.39943600
C       26.01313400      50.96067429      14.51706314
C       26.36027527      53.12004089      15.57980824
C       25.85359955      50.18296433      13.35538578
C       25.89045143      50.75755310      12.11240578
C       26.53940773      52.52184677      16.78459740
H       26.03693771      52.60375214      11.00439072
H       26.47427940      50.64941788      17.87347412
H       26.16539955      54.01957703      13.00722218
H       25.89576721      49.31917191      15.89450264
H       26.35890388      54.19877243      15.49438953
H       25.74615097      49.11868286      13.46513271
H       25.84977913      50.15849304      11.22007179
H       26.76982307      53.14105988      17.65626144
C       21.31844521       0.20538828      15.82194042
C       20.53780937      54.17692566      15.70701694
C       21.13648605      58.19668198      16.79239845
C       20.85350037      55.09811020      14.76128197
C       21.02633286      56.82783890      16.47695923
C       21.08042717      56.45146179      15.11545372
C       20.72696304      55.83955383      17.44663429
C       21.26515770      57.43402481      14.12442875
C       21.39176941      58.74656296      14.46658802
C       20.46807671      54.55186081      17.07426071
H       21.42049217       1.24308038      16.10495186
H       20.36701393      53.14949036      15.43444157
H       21.06872749      58.47655106      17.84460449
H       20.90746880      54.84542084      13.72041798
H       20.67209625      56.14543533      18.47402573
H       21.22143936      57.12026978      13.09195900
H       21.52899170       0.57258570      13.69872093
H       20.23286819      53.79419708      17.80481720
C       24.24070358      29.33212471       3.31907701
C       27.87992287      31.97306252       1.04520071
C       24.55333519      29.55654335       2.00749946
C       27.60706329      31.68111992       2.34508753
C       25.67165184      30.35767364       1.65445364
C       26.48684883      30.89159584       2.68635750
C       25.96718788      30.69601440       0.31177431
C       26.15025711      30.62072754       4.03795719
C       25.04592133      29.88274193       4.34457541
C       27.04122925      31.49207878       0.01370477
H       23.35785294      28.73603058       3.58080959
H       28.74726486      32.57972336       0.80163878
H       23.92226219      29.17104912       1.20414519
H       28.24739647      32.05186081       3.14824843
H        6.52867794      30.31572151      28.05789566
H       26.76742744      31.02856636       4.81926155
H       24.80525208      29.72025490       5.36954546
H        8.43244457      31.77462769      27.50389099
C       22.74756813      39.49176788      15.14438915
C       23.83597183      43.23812866      18.30449867
C       22.61062813      40.84444809      15.07569027
C       24.03437996      41.88238144      18.34743881
C       23.05961418      41.66527176      16.13122368
C       23.65888786      41.07181931      17.25829697
C       22.86678505      43.06883240      16.11230278
C       23.76897049      39.65364838      17.31303406
C       23.30493164      38.88849258      16.29274750
C       23.24703789      43.83629608      17.17178535
H       22.44767761      38.87213898      14.32127762
H       24.12057495      43.85923004      19.16024017
H       22.16531754      41.32329941      14.20020866
H       24.45169640      41.42068481      19.21381760
H       22.39705086      43.49691772      15.24081707
H       24.18396759      39.21526337      18.19754410
H       23.30325890      37.80767441      16.34765434
H       23.11160088      44.92066956      17.14278984
C       -4.87879419      37.71446228      20.91069603
C       -2.47317743      34.75190353      17.65475082
C       -4.85049725      36.36771393      20.73282623
C       -2.67385292      36.09952164      17.74042511
C       -4.13121557      35.79021835      19.65969849
C       -3.46841049      36.65018082      18.75589943
C       -3.95916820      34.39554214      19.51449203
C       -3.55113697      38.05430603      18.93594933
C       -4.21759892      38.56723022      20.00573158
C       -3.13038659      33.88626480      18.55201530
H       -5.37919998      38.13335419      21.77424622
H       -1.83417940      34.33708954      16.86638260
H       -5.33224249      35.70347977      21.47211647
H       -2.20809245      36.76641083      17.03845215
H       -4.43246031      33.72730637      20.23496056
H       -3.01368237      38.70259857      18.25346375
H       -4.24744034      39.63169861      20.17117119
H       -2.98618460      32.81809616      18.49743080
C       13.60594654      42.61355591      12.67770767
C       17.68994904      42.89948654      15.69770908
C       13.91228199      41.88268280      13.92716980
C       17.38898277      43.32871628      14.43351364
C       15.16428661      42.37015915      14.59504127
C       16.12723732      43.06899643      13.85668278
C       15.45402908      42.01700211      15.90418434
C       15.81206799      43.54211426      12.55832100
C       14.55112934      43.32302856      12.00532436
C       16.70466232      42.25294876      16.45151520
H       12.64811707      42.44207382      12.21278954
H       18.67186928      43.10216141      16.13425446
H       13.07052994      41.87858582      14.59702587
H       18.12023544      43.86351776      13.83970547
H       14.67858791      41.52692032      16.48224831
H       16.54505920      44.09326553      12.01149273
H       14.31887817      43.73852158      11.05107880
H       16.90745354      41.95475388      17.46092033
C       -9.33033371      50.47070312      24.86992073
C       -9.96208382      45.56521225      25.73548317
C       -8.48093891      49.43422699      25.13277245
C      -10.81964588      46.61288834      25.69560242
C       -8.98903465      48.13422394      25.30445480
C      -10.37330818      47.92391205      25.40115547
C       -8.12103176      47.02616501      25.27202034
C      -11.23446178      49.00829697      25.10371017
C      -10.72050285      50.23530960      24.79960442
C       -8.58692551      45.75547409      25.48669624
H       -8.93718624      51.44939041      24.62435341
H      -10.33503151      44.55797195      25.93065071
H       -7.41228151      49.58904648      25.11877823
H      -11.89886379      46.45237732      25.82876587
H       -7.10585308      47.22745895      24.99085426
H      -12.31578445      48.84711456      25.07502365
H      -11.37517834      51.05401611      24.51726723
H       -7.92996168      44.89774323      25.45124626
C        4.06108475      43.85184860      17.56071472
C        1.57030749      46.32817078      13.97511005
C        4.07115030      45.14888382      17.14089394
C        1.52123499      45.04828262      14.44229889
C        3.16721296      45.58345795      16.14695930
C        2.30611706      44.64130020      15.54623508
C        3.15459895      46.92291641      15.68848515
C        2.28540778      43.32475662      16.04352570
C        3.13498688      42.93846893      17.02877045
C        2.38168049      47.28538895      14.62155724
H        4.77821779      43.51291275      18.30072594
H        0.99955177      46.60287476      13.10649681
H        4.75607681      45.86371994      17.56950188
H        0.91588551      44.29705811      13.95499134
H        3.77056098      47.64672852      16.18933487
H        1.57039607      42.62123871      15.63202477
H        3.12329769      41.92751312      17.39912796
H        2.39982772      48.30720139      14.27025795
C        5.71571541      57.06504440      16.55492020
C        0.92186362      58.63647842      16.42675781
C        4.81353426      57.25843430      15.55214405
C        1.77489197      58.30068970      17.43839645
C        3.52741146      57.78662109      15.83060169
C        3.11562991      57.92480469      17.17630386
C        2.65813327      58.24679947      14.81462383
C        4.08004904      57.74046326      18.19660950
C        5.35983992      57.37916565      17.88622093
C        1.39234304      58.64958954      15.09666347
H        6.71166611      56.71222687      16.32604599
H       -0.10170612      58.90615463      16.64682198
H        5.06749582      57.06999207      14.51756477
H        1.42723608      58.31319809      18.46683502
H        3.02364159      58.25869370      13.79672432
H        3.82434630      57.94321823      19.22388268
H        6.09274578      57.33721542      18.67545509
H        0.75447661       0.03266580      14.29858875
C       16.96892548      42.51943588      25.34909248
C       21.82502556      41.26296997      25.64428329
C       18.11152267      43.23384094      25.55779076
C       20.69514656      40.59244919      25.26298141
C       19.39470100      42.63453674      25.40659142
C       19.45369339      41.26208878      25.11261559
C       20.60408592      43.33822632      25.62705803
C       18.25937653      40.58107376      24.75550652
C       17.04566383      41.18703461      24.89050293
C       21.78928375      42.67224121      25.77115440
H       15.99827194      42.98167038      25.52798271
H       22.75628090      40.73514938      25.78417969
H       18.04252434      44.25469208      25.86783028
H       20.74029350      39.54315948      25.08085442
H       20.57186127      44.42618561      25.71227074
H       18.31518555      39.54217529      24.40513039
H       16.14287376      40.64876175      24.68258667
H      -17.08109093      43.21635437      25.96078110
C       14.22217941      30.95700645      19.59610176
C       13.67839146      28.19489479      15.42161083
C       14.94987965      30.86019707      18.44330597
C       12.96394539      28.32642746      16.57230759
C       14.55703163      29.97674179      17.40955353
C       13.36563015      29.22550964      17.58674431
C       15.26599121      29.84136963      16.18710518
C       12.59643936      29.39953995      18.76274872
C       13.02480984      30.23322105      19.74761391
C       14.83084202      28.97353363      15.22106457
H       14.57024288      31.59012794      20.38743591
H       13.33132267      27.51698112      14.62992287
H       15.84852982      31.44572830      18.31322479
H       12.07695103      27.75700569      16.75680923
H       16.14841080      30.46043777      16.02737808
H       11.67052460      28.82533836      18.86998558
H       12.45548820      30.33292770      20.64948082
H       15.37274933      28.88238907      14.27435780
C      -17.07917595      51.47474670      26.28341293
C      -15.50601864      56.19166946      25.57268715
C      -16.40009689      52.09408569      25.27040291
C      -16.14358521      55.55427551      26.60081100
C      -15.98591900      53.44561005      25.40872574
C      -16.36861038      54.16510391      26.56193161
C      -15.23695278      54.10795212      24.40484428
C      -17.00683975      53.47519302      27.62242126
C      -17.33039284      52.15897369      27.49377251
C      -15.00530720      55.45236969      24.47483635
H       22.32862282      50.45826340      26.15108299
H      -15.40260506      57.26615524      25.60778809
H       23.59743500      51.56082153      24.36444473
H      -16.51726151      56.09908676      27.43852234
H      -14.86929798      53.53300095      23.55527115
H        1.57322311      54.01725769       0.01102945
H      -17.82360268      51.63687897      28.31400871
H      -14.44793797      55.94249725      23.69942665
C       -8.19538879      29.98234177      21.96848297
C       -5.05069876      30.37722778      18.08615303
C       -7.05755711      29.31366730      21.62704468
C       -6.33086443      30.80612946      18.29944611
C       -6.39706373      29.57359123      20.40331078
C       -7.02293253      30.42718315      19.47271156
C       -5.10021210      29.07962990      20.11454582
C       -8.30537605      30.93706894      19.78165627
C       -8.85278416      30.78107071      21.01426315
C       -4.43582869      29.49379921      18.99629211
H       -8.63068962      29.87004280      22.94812775
H       -4.52365112      30.68800545      17.20143127
H       -6.62791061      28.59029770      22.31488991
H       -6.83214712      31.44166946      17.58765984
H       -4.63791180      28.39692116      20.83091927
H       -8.82903004      31.48408318      19.02520180
H       -9.79694843      31.24220276      21.25325966
H       -3.44550109      29.10899353      18.78628922
C        3.71249747      46.91073608      11.77625465
C        3.28590608      47.54893494       6.82168484
C        3.75028801      46.05361176      10.72011280
C        3.27015424      48.40994263       7.87610722
C        3.63135648      46.54478836       9.39225006
C        3.45202041      47.92807007       9.19245815
C        3.67810631      45.68173599       8.27358055
C        3.37547612      48.79608154      10.31435966
C        3.51234198      48.30036163      11.57757854
C        3.50461221      46.16979980       7.00301790
H        3.81216717      46.51956940      12.77797508
H        3.14109230      47.93325424       5.80662012
H        3.88330150      44.98939896      10.86988163
H        3.07696366      49.47362137       7.73210287
H        3.82533693      44.61593246       8.43792915
H        3.18145967      49.86339569      10.16972828
H        3.43896294      48.96976471      12.44231606
H        3.51614308      45.49581528       6.15945816
C       -0.11533545      34.99781799      25.91016197
C        0.81998312      39.32466888      23.51839638
C        0.04181198      36.28408813      26.33826256
C        0.81623077      38.01306534      23.14460564
C        0.37567380      37.32004166      25.42245674
C        0.58608896      36.97660828      24.07474518
C        0.50010145      38.68370438      25.80927849
C        0.47863510      35.62596512      23.67417717
C        0.11619007      34.65476608      24.56227684
C        0.69925416      39.65718079      24.87548256
H       -0.41291389      34.22193909      26.61446762
H        0.94782531      40.08951569      22.77713585
H       -0.11643617      36.52700806      27.38215065
H        0.95070052      37.74096298      22.11141586
H        0.42691815      38.95306015      26.84543610
H        0.61552346      35.39162827      22.65200996
H       -0.01519058      33.62643433      24.23388672
H        0.76762074      40.70079422      25.19499588
C       32.05575943      38.01092911       2.12212086
C       28.17273140      41.15650558       1.73239899
C       30.73185921      37.83950043       1.83971655
C       29.51762962      41.34877777       1.83683157
C       29.85239220      38.94091034       1.75364923
C       30.39333725      40.24066162       1.86875439
C       28.44532394      38.77188492       1.64927244
C       31.79546738      40.39231110       1.99945426
C       32.60880661      39.31021881       2.16101885
C       27.62945747      39.85522842       1.66170800
H       32.68054199      37.15867615       2.31810522
H       27.52265739      42.01988983       1.69119143
H       30.31452370      36.84915161       1.75560832
H       29.94973755      42.35626984       1.89218724
H       28.02276802      37.77935791       1.58600092
H       32.19728470      41.39231873       1.99407315
H       33.66869736      39.42988586       2.30508757
H       26.53875542      39.72871780       1.60973501
C        8.94727993      55.25404739      25.48214340
C       13.11138248      54.46418381      28.15279388
C       10.25218868      54.98577499      25.14053726
C       11.76408863      54.31577683      28.45112038
C       11.19321918      54.62003708      26.09614754
C       10.78347206      54.51029968      27.44067383
C       12.63686275      54.42045593      25.72049141
C        9.42922401      54.75717926      27.77062798
C        8.53108883      55.15046692      26.81331444
C       13.53705406      54.67020416      26.86137962
H        8.25940704      55.63666153      24.74976921
H       32.63487625      54.50826263       0.43601364
H       10.58061314      55.12086868      24.08539391
H       30.21687698      54.26146317       0.95318592
H       12.87594604      55.08702850      24.87904930
H       27.94069099      54.70905304       0.28334501
H        7.51103067      55.43100357      27.08585930
H       14.57408142      54.90197754      26.65824890
C        2.21416664      58.36757278       2.22903490
C       -1.91464782      56.44075012       4.36834192
C        1.53986728      58.62976074       3.38417172
C       -1.20500636      56.11443329       3.24256802
C        0.40723529      57.86296463       3.74842858
C       -0.02932146      56.82530212       2.89970279
C       -0.34295756      58.17818069       4.91623545
C        0.69463909      56.56834412       1.70785356
C        1.79035079      57.31521225       1.39086831
C       -1.47701120      57.48934174       5.21283531
H        3.05513835       0.03705275       1.94194591
H       -2.79395270      55.87754822       4.64016342
H        1.85054874       0.53183651       4.02636003
H       -1.53202331      55.28493500       2.60528111
H       -0.02518881       0.06366627       5.52748108
H        0.35453272      55.76000214       1.03775072
H        2.35777903      57.11771393       0.47139108
H       -2.05590987      57.74275970       6.10004854
C       32.33754730      55.94891357       3.33535028
C       29.54189110      56.90803909       7.39817810
C       32.36710358      56.94063950       4.27734804
C       29.49925041      55.94575882       6.43346262
C       31.40050697      56.97796631       5.30851889
C       30.40504074      55.97758484       5.34921122
C       31.40316200      57.98016357       6.31186771
C       30.34011841      55.01974869       4.31169081
C       31.29686356      54.99255753       3.34062958
C       30.49257469      57.94707108       7.32645369
H       33.09425735      55.87347794       2.57430029
H       28.80548286      56.88180542       8.17146587
H       33.14213943      57.69878006       4.25766659
H       28.76986504      55.15217209       6.49169540
H       32.13351822      58.79530716       6.24103117
H       29.53604889      54.29664230       4.31279755
H       31.29298973      54.22313309       2.58426166
H       30.46641159      58.72779465       8.08303165
C       16.37943077      28.49214172      10.26375198
C       19.69970512      28.00359726       6.53379059
C       16.33275795      28.80747414       8.94054413
C       19.77412987      27.86345482       7.89002419
C       17.46264458      28.60348511       8.12027931
C       18.65600014      28.13167572       8.71123981
C       17.42278099      28.76979446       6.71864986
C       18.69447708      27.88423157      10.10074902
C       17.57808876      28.03398132      10.86070919
C       18.50121498      28.45649528       5.94767904
H       15.49179363      28.58885002      10.87101173
H       20.55459023      27.78462410       5.91733122
H       15.41810036      29.16075706       8.50152016
H       20.68223763      27.52515602       8.37011242
H       16.51571274      29.10816574       6.25745535
H       19.60977936      27.52226067      10.52404499
H       17.59471321      27.82169724      11.92062187
H       18.42558670      28.55360031       4.87147856
C        1.86743522      33.08720779      28.28316879
C       22.54591179      33.33313751       4.41577435
C       21.84674072      32.68667984       0.31451887
C       21.31773186      33.60062408       3.89459276
C       22.07243919      32.84107971       1.70639551
C       21.05261421      33.38499069       2.52299094
C       23.34200287      32.58518219       2.27441883
C       19.83345604      33.76082611       1.92129445
C       19.65577126      33.64260483       0.57451719
C       23.57322502      32.83993149       3.59320641
H        1.70825791      33.03748703      27.21821022
H       22.75628281      33.50077438       5.46594429
H        3.84394932      32.32037735      28.22024536
H       20.51329041      33.98201752       4.53935480
H       24.12294197      32.25896454       1.61962628
H       19.03548050      34.16960144       2.54279757
H       18.75477028      33.97940826       0.12267008
H       24.57194328      32.69568634       4.01141691
C       -5.82157183      44.41360092      18.67928886
C       -2.09758210      41.13485718      19.50949478
C       -5.18897295      43.96947098      19.79957199
C       -2.69595551      41.60065079      18.37835693
C       -4.13702583      43.02666473      19.70315170
C       -3.73084640      42.56227112      18.43495178
C       -3.46708202      42.56209564      20.85204506
C       -4.38701296      43.05764389      17.27920151
C       -5.41277933      43.95304489      17.40280724
C       -2.47071481      41.63860703      20.77018547
H       -6.63955212      45.09981537      18.75437164
H       -1.31631780      40.38700867      19.45176125
H       -5.48466873      44.32830048      20.78437233
H       -2.36979342      41.23837280      17.41359520
H       -3.71864915      43.03531265      21.77673340
H       -4.09109879      42.70849228      16.29285240
H       -5.93669319      44.30268478      16.51992798
H       -1.93610275      41.32415771      21.65766907
C       36.06697845      53.41141891       2.65998292
C       34.08167267      51.56676865       6.89120054
C       36.01018524      52.15020370       3.18633986
C       34.18348694      52.81497955       6.36089993
C       35.38317490      51.92265701       4.42776108
C       34.83514404      53.02684402       5.11927748
C       35.27285004      50.63476181       5.01270580
C       34.91473389      54.32249069       4.56760597
C       35.50560761      54.50440216       3.34538317
C       34.63607407      50.46598816       6.20324564
H       36.56789398      53.60233688       1.70168400
H       33.57810211      51.40313339       7.83644390
H       36.44754791      51.30474854       2.68812251
H       33.78742981      53.69028473       6.85581255
H       35.69263077      49.80151749       4.45959139
H       34.50737000      55.14591217       5.11544657
H       35.57386780      55.48580933       2.90459347
H       34.53227234      49.48178864       6.62857819
C       17.10064888      30.97099495      27.54319382
C       12.23117161      31.41125298      26.32270241
C       16.06693077      30.08017159      27.53576279
C       13.29394722      32.27785110      26.36089516
C       14.77005959      30.49606323      27.13414955
C       14.57282448      31.84465218      26.75499916
C       13.65824985      29.61463928      27.09826279
C       15.66673374      32.74718857      26.78271866
C       16.90739632      32.31553268      27.16523743
C       12.42461491      30.06829453      26.70822525
H       18.11061287      30.66308975      27.82536125
H       11.26128674      31.75685692      25.99445152
H       16.23041344      29.05005264      27.83430862
H       13.18426609      33.30613709      26.04538918
H       13.78525543      28.57795525      27.42158890
H       15.52031898      33.78411865      26.48522568
H       17.73032761      32.99574661      27.15458298
H       11.58883953      29.39200783      26.72752190
C        0.00721729      29.92725945       9.83002377
C       -0.38718900      31.11411095       4.94736624
C        0.73395127      29.60666847       8.72797298
C       -1.12185192      31.42801476       6.05009747
C        0.39254412      30.11964607       7.44975376
C       -0.73936999      30.95677567       7.34032679
C        1.12735879      29.80070496       6.28862429
C       -1.47950661      31.26741982       8.50546074
C       -1.12680972      30.76373672       9.71626472
C        0.75975335      30.29730606       5.06778097
H        0.27394944      29.50308609      10.79507923
H       -0.68042052      31.47058487       3.96998239
H        1.57236850      28.90877342       8.79557800
H       -2.00671291      32.05068970       5.97145319
H        1.98481524      29.12163544       6.38031960
H       -2.38079858      31.88558388       8.42195892
H       -1.75359023      30.96376801      10.57195091
H        1.30712259      30.01890373       4.18586636
C       16.21221542      35.37549210      10.27288532
C       16.31779099      33.03528976      14.69504356
C       15.34142590      34.52601624      10.90249920
C       17.12645340      33.96873474      14.12601757
C       15.63302135      34.05214310      12.19410706
C       16.81751060      34.48317719      12.84437275
C       14.79691315      33.11655045      12.84007168
C       17.65432167      35.40334320      12.18852139
C       17.39581680      35.79637527      10.92086411
C       15.15849972      32.58844757      14.04015732
H       15.98754406      35.76704788       9.29783726
H       16.52752686      32.66926575      15.68495369
H       14.42584896      34.19146347      10.41248226
H       17.99145889      34.38134766      14.63931179
H       13.87478542      32.82723999      12.36591339
H       18.53673363      35.76864624      12.70746803
H       18.10206604      36.42575836      10.39319324
H       14.55075550      31.83873558      14.51200676
C       -3.38062835      49.11761093      10.83426285
C       -4.91752958      45.20847321      13.56930733
C       -2.82414579      48.37730789      11.83967400
C       -5.44152308      45.83066177      12.46844769
C       -3.45702267      47.21001053      12.30916691
C       -4.71302891      46.83646774      11.78767967
C       -2.89606929      46.46958542      13.36250401
C       -5.21559763      47.55713272      10.67268562
C       -4.57220125      48.67401505      10.22064304
C       -3.60057831      45.48395157      13.99330902
H       -2.91098118      50.02421570      10.53144264
H       -5.51877928      44.49239349      14.11843205
H       -1.91634536      48.69825745      12.33847237
H       -6.44033575      45.59964752      12.14609146
H       -1.89797843      46.75390625      13.69292164
H       -6.14913654      47.22954559      10.20947742
H       -4.99105263      49.24711609       9.39515877
H       -3.20079541      44.94248962      14.83542061
C       22.28636932      43.37893295       7.19055223
C       23.33594513      39.49494171       4.19687223
C       21.62500191      42.22391510       6.88775825
C       23.99146652      40.65446854       4.48762989
C       22.17112541      41.32019424       5.95838213
C       23.41989708      41.59913635       5.36837244
C       21.47710419      40.14710236       5.57983637
C       24.07225800      42.81769180       5.69879580
C       23.52755165      43.67947388       6.59964418
C       22.04541016      39.25909424       4.71688318
H       21.84986877      44.07265091       7.88216448
H       23.78004456      38.76619339       3.53220630
H       20.66629028      41.98311615       7.33117485
H       24.97918892      40.85254288       4.07147837
H       20.46527290      39.99763107       5.96032572
H       25.00693130      43.03783417       5.20757151
H       24.04167748      44.59135437       6.87298393
H       21.49713707      38.35377121       4.45021296
C        7.93501377      53.58576584      16.65412903
C        4.09165668      52.25061798      19.61116219
C        6.58862162      53.62173462      16.48224640
C        5.44404840      52.26940536      19.77127266
C        5.72968578      53.15421677      17.51234436
C        6.28688478      52.68490982      18.71657753
C        4.33107567      53.10638809      17.35947800
C        7.69329548      52.61151123      18.84508514
C        8.49180698      53.05919647      17.83575630
C        3.54631209      52.64278412      18.36923599
H        8.62074661      53.93204117      15.88035011
H        3.44994879      51.97003555      20.42176437
H        6.13003063      53.97949219      15.56093979
H        5.90316391      52.00265503      20.72651291
H        3.87556958      53.44519424      16.41663361
H        8.07753468      52.18847656      19.76919746
H        9.56170559      53.01734924      17.91312599
H        2.48459601      52.58381271      18.22451210
C        3.71210957      41.81994247      13.67605877
C        7.26403284      43.46559143      16.83243561
C        4.34073591      43.02670288      13.81871796
C        6.99160337      42.16868591      16.20849037
C        5.29853725      43.21750259      14.83675003
C        5.63443613      42.10512924      15.64742947
C        5.93166113      44.43301010      15.08904934
C        4.92369795      40.92605591      15.56900978
C        3.96358538      40.78824234      14.58585739
C        6.80501127      44.56018448      16.19897652
H        3.01761603      41.66948318      12.86867237
H        7.93145180      43.53699875      17.69375038
H        4.11823702      43.84702683      13.12742043
H        7.20893145      41.31222534      16.85751724
H        5.69331217      45.27602386      14.48728752
H        5.19622374      40.08203888      16.19654465
H        3.45275521      39.84572601      14.48941803
H        7.10445547      45.55790329      16.52137947
C       14.41486549      45.37164688      17.81500626
C       17.67777252      42.69753265      20.53499413
C       14.29477787      44.66423798      18.97877312
C       17.79620743      43.52500534      19.45726967
C       15.44161224      44.11243439      19.58626556
C       16.69785309      44.26621246      18.96444511
C       15.35008240      43.28870773      20.72505760
C       16.79340935      45.08394623      17.82435417
C       15.68434715      45.63711548      17.26591492
C       16.43784714      42.61126709      21.20676041
H       13.53284073      45.73905182      17.31361771
H       18.50588036      42.12759781      20.88598824
H       13.32143402      44.47804642      19.42657852
H       18.73704529      43.60995483      18.91855621
H       14.37722874      43.15924072      21.16186523
H       17.76885605      45.21931076      17.34863853
H       15.78885555      46.26144028      16.38253021
H       16.34062386      41.95699692      22.05714417
C       34.39752197      34.72405624       0.93746871
C       18.27174568      38.17653656      26.98147774
C       35.71372223      34.81731415       0.58854270
C       16.95052910      38.08346939      27.32580757
C       17.37555885      35.89034271      28.33426666
C       16.46460533      36.93336105      27.99470520
C       18.72516441      36.00763702      27.93092346
C       15.10932446      36.81140137      28.36895180
C       33.48582077      35.71046829       0.52416044
C       19.15169334      37.11603546      27.26299667
H       34.04555893      33.89153671       1.51762772
H       18.65615273      39.09414291      26.55105782
H       36.41720581      34.04837799       0.88577664
H       16.26573563      38.90203094      27.13956451
H       19.42502975      35.23339844      28.22620964
H       14.42596817      37.60082245      28.12027359
H       32.45041275      35.61305237       0.79318309
H       20.19882011      37.21668243      27.00351715
C       22.86794090      46.47364426      21.07561684
C      -14.05254078      50.19230270      22.92913437
C       23.71297646      47.37034225      20.49415016
C      -14.98984146      49.36345291      23.47206497
C       24.39118004      48.32883072      21.28724670
C       24.12675476      48.38855362      22.67650986
C       25.37209892      49.19713593      20.74595833
C       23.27614594      47.42192078      23.25785637
C       22.68731880      46.47504044      22.47523880
C      -13.73145390      50.08236694      21.55418777
H       22.39463997      45.69686127      20.47952080
H      -13.55859661      50.94115067      23.54849052
H       23.90652657      47.30261230      19.44334030
H      -15.20896721      49.41326904      24.52644920
H       25.59827423      49.12689590      19.69715691
H       23.10303307      47.43509293      24.34398842
H       22.07029915      45.73691177      22.93586731
H      -12.96771622      50.71342850      21.15090179
C        8.74900532      48.68101501       5.56802273
C        6.81988287      51.68404388       9.07936764
C        7.48925829      48.90462494       6.02759027
C        8.09074306      51.46528625       8.63566017
C        7.25057077      49.91008759       6.98675299
C        8.34101868      50.59272003       7.55621099
C        5.93334627      50.21315002       7.39541340
C        9.64298630      50.35095596       7.04830885
C        9.83690071      49.43637085       6.05226231
C        5.72295332      51.07899094       8.43522930
H        8.91458893      47.90282059       4.82884407
H        6.64688301      52.27673721       9.97212219
H        6.65071678      48.31978607       5.67580080
H        8.93239784      51.91734314       9.15408134
H        5.10646534      49.75147629       6.86808825
H       10.48011971      50.88048553       7.49010515
H       10.81535053      49.25382614       5.65244341
H        4.70651436      51.29778290       8.74411011
C       -2.39742374      39.89902115      15.19287014
C       -0.12785485      41.79130173      11.13834095
C       -1.97594309      41.16156387      14.85719013
C       -0.77738339      40.61653519      11.37370205
C       -1.42998254      41.41343308      13.58252144
C       -1.40280020      40.38043213      12.61734581
C       -0.79489392      42.63938904      13.28361034
C       -1.85360777      39.09603119      12.99126911
C       -2.30471110      38.85653687      14.25796127
C       -0.10318036      42.80456161      12.12369061
H       -2.79886532      39.67707825      16.19557381
H        0.38956198      41.94243240      10.19594192
H       -1.96348977      41.97629547      15.56824780
H       -0.72801757      39.80419922      10.65181351
H       -0.83857340      43.41491318      14.01786804
H       -1.80642068      38.29166794      12.27217770
H       -2.59635854      37.84096909      14.55198574
H        0.44540220      43.72533035      11.91749287
C        7.45944452      45.24713135      23.02425766
C       12.32931232      44.59988785      24.48932648
C        8.28501320      44.14043808      23.18432045
C       11.35350800      45.79520035      24.50015450
C        9.59221935      44.28024292      23.59145737
C       10.11874580      45.56726456      23.68706894
C       10.47769547      43.07242966      23.87967300
C        9.32525349      46.65919495      23.38374329
C        7.97168779      46.52132416      23.13841629
C       11.56416321      43.36336136      24.93326187
H        6.40167379      45.10130310      22.86562538
H       13.11026478      44.80464935      25.20156479
H        7.88844156      43.15213776      23.03641891
H       11.86236954      46.70016479      24.19980049
H        9.85457039      42.25432587      24.22511864
H        9.77430916      47.63674927      23.42668343
H        7.33704185      47.38247299      23.07531166
H       12.26584911      42.51147079      24.93622398
C        1.57869005      34.54947281      10.26334953
C        3.74056888      30.81368637       7.72144794
C        1.93094742      33.28047562      10.61516762
C        3.14021802      31.97428703       7.34277010
C        2.46164727      32.39453125       9.64637089
C        2.50979400      32.80970001       8.29452801
C        3.06783104      31.17244530      10.01055813
C        2.06438971      34.10261917       7.95476103
C        1.65865982      34.97434235       8.92472744
C        3.71518660      30.41527939       9.07994366
H        1.26698244      35.25185394      11.03969669
H        4.24354935      30.19882011       6.98961496
H        1.87832773      32.97389221      11.65164471
H        3.13768053      32.28919601       6.30206728
H        3.04019928      30.85590363      11.04421711
H        2.09622431      34.41073990       6.92046785
H        1.37715256      35.99061203       8.67381859
H        4.20800924      29.49803162       9.38224983
C       18.71455765      31.43600273       4.05658960
C       21.22504807      30.93054008       8.38901711
C       19.97188759      31.01855469       4.36215639
C       19.91781616      31.14902306       8.09070301
C       20.41285324      30.97488594       5.71127176
C       19.50081635      31.24355125       6.74266958
C       21.76864052      30.72215080       6.04165030
C       18.19419098      31.68061638       6.39527464
C       17.82946587      31.82196999       5.09004688
C       22.16800880      30.75050926       7.34748173
H       18.39017868      31.51729584       3.01412201
H       21.56553268      30.91438103       9.42092133
H       20.69167709      30.75706291       3.56695962
H       19.19059753      31.28283310       8.89581203
H       22.47713661      30.57624054       5.25418186
H       17.50132751      31.90608406       7.19114590
H       16.88276482      32.21462631       4.82951212
H       23.22194481      30.61778069       7.58318710
C       30.21302986      36.12639236      11.53096390
C       31.89868736      32.94005585       8.01510239
C       30.26230049      34.76622009      11.44220543
C       31.93557549      34.29562378       8.14743233
C       30.84571266      34.12678528      10.32174301
C       31.37336159      34.91653061       9.28370762
C       30.85421371      32.71582413      10.17302322
C       31.29640770      36.32790756       9.38964653
C       30.74002266      36.91894531      10.48194218
C       31.34354401      32.14083862       9.04271507
H       29.72661209      36.57273102      12.38053894
H       32.30874634      32.46984863       7.12115383
H       29.82715034      34.13002014      12.21375847
H       32.39463425      34.90337753       7.39081764
H       30.41371918      32.09967422      10.94657993
H       31.69139099      36.93718338       8.57986355
H       30.68869781      37.98493195      10.53207684
H       31.34074020      31.05547905       8.92475986
C        2.12885284      52.36738586      26.25282669
C        6.11985636      49.69537354      27.74848747
C        2.64696598      51.16043854      25.87210846
C        5.55404186      50.85656738      28.18440247
C        3.81124020      50.63930893      26.49974251
C        4.38755035      51.35994339      27.56472588
C        4.45933723      49.48354721      26.02771568
C        3.82660866      52.60565567      27.94701004
C        2.73594737      53.11116028      27.29223824
C        5.57052040      48.99480438      26.64948845
H        1.24391294      52.74906158      25.73045921
H        7.03245497      49.34733582      28.20595551
H        2.19994974      50.59841919      25.06803131
H       24.79367828      51.41349030       0.46769172
H        4.08263206      49.00579071      25.13377953
H       23.09832764      53.17589569       0.21787600
H        2.33283901      54.08590698      27.58060646
H        6.05214596      48.09655380      26.27500343
C       11.73829842      41.75849915       7.87196875
C       10.83710480      38.41466522       4.21411657
C       11.72477341      40.39727783       7.81132269
C       10.80881119      39.77550888       4.25854492
C       11.48764896      39.72629547       6.59797192
C       11.13973236      40.47347260       5.45199156
C       11.62226486      38.31321716       6.48451853
C       11.15688515      41.88932419       5.54536676
C       11.46047783      42.51701736       6.71949625
C       11.27990055      37.66771698       5.33035326
H       11.96624184      42.25127411       8.82329750
H       10.51336384      37.88809967       3.32252169
H       11.94215488      39.81393433       8.69792175
H       10.51761627      40.31848907       3.37354040
H       11.99353313      37.76577377       7.34625673
H       10.92982864      42.47270584       4.66247559
H       11.48992538      43.61797333       6.75609970
H       11.32316113      36.59512711       5.27191019
C       15.11688995      32.88815689       7.33018112
C       11.85038757      32.62942505       3.53904867
C       14.95434856      32.01445770       6.29683638
C       12.14982510      33.60879898       4.43891859
C       14.02988243      32.29056931       5.25515890
C       13.24677086      33.46046448       5.33219194
C       13.78049564      31.35182381       4.22282171
C       13.49459743      34.38903427       6.37001228
C       14.40990639      34.10796738       7.35223722
C       12.68940926      31.49816132       3.41946673
H       15.77346420      32.64624023       8.15109539
H       10.95671272      32.72272873       2.92672801
H       15.49482346      31.09796715       6.27384424
H       11.50702000      34.47028351       4.53692055
H       14.41177368      30.48069572       4.12463713
H       12.91384125      35.30844879       6.40707064
H       14.55240059      34.80779266       8.15939617
H       12.45263863      30.74625778       2.67903471
C        9.66992474      36.08410645       7.98567152
C       10.97279835      33.32683945      11.99187660
C        9.60466003      34.75078964       8.26099873
C       11.26343632      34.60925293      11.60599518
C       10.10286045      34.23873138       9.48219109
C       10.79826260      35.10731125      10.35916615
C        9.83991051      32.91336441       9.89709568
C       10.89335251      36.48205948      10.02526569
C       10.28534222      36.96222687       8.90301323
C       10.24616146      32.47427750      11.12196445
H        9.21335697      36.47700882       7.08937597
H       11.29927254      32.96205139      12.94600964
H        9.10755825      34.05730057       7.58400726
H       11.82497025      35.26132202      12.26781654
H        9.27715778      32.27521133       9.24799156
H       11.42671680      37.15277863      10.70440483
H       10.28724289      38.03849411       8.72860146
H       10.01126862      31.46692467      11.43087387
C       13.72013760      35.24086380       0.88492715
C       -2.73807335      30.94153786      28.24392700
C       13.32512379      33.93377304       0.85954833
C       -2.32952309      32.23998261      28.32936287
C       14.24796867      32.91196060       0.54221213
C       15.59138298      33.26020813       0.24277981
C       13.85489273      31.55373764       0.43276021
C       15.96779919      34.61987305       0.32321641
C       15.06579494      35.58466721       0.63889456
C       14.74088001      30.58817101       0.05301034
H       12.99476242      36.02595520       1.10840154
H       -2.04694748      30.18515587      27.90871048
H       12.29496479      33.66978073       1.05035210
H       -1.32983363      32.51585007      28.01105309
H       12.81151009      31.30407333       0.65682733
H       16.98939896      34.89579773       0.10773365
H       15.36613655      36.62918472       0.69877619
H       -4.37349653      29.56290817      28.50081253
C        1.53919601      43.03213882       7.10519362
C        2.80666685      38.56400681       9.05567741
C        1.99069881      42.64598846       8.33589363
C        2.35230088      38.93566513       7.84187317
C        2.31778765      41.30831528       8.59120655
C        2.42592216      40.36643982       7.41261196
C        2.81349468      40.86545181       9.83129406
C        1.45906234      40.74613571       6.32679892
C        1.14415634      42.04262924       6.14820766
C        3.14782667      39.55117416      10.03757000
H        1.45198345      44.08995819       6.85906076
H        2.90363789      37.53906250       9.31967163
H        2.10478425      43.38274384       9.14236164
H        2.05112243      38.18387604       7.10617924
H        2.94213295      41.60441971      10.62480450
H        1.08848202      39.96943665       5.63064051
H        0.56420493      42.34288406       5.26173449
H        3.55018806      39.24011612      10.99303341
C       23.35064125      53.56669235      16.74831963
C       22.71740532      48.56665421      16.69478989
C       23.26827240      52.65066910      15.74645710
C       22.80949211      49.49645996      17.69048691
C       23.11118698      51.27311325      16.04151726
C       23.02350426      50.86582565      17.38728142
C       23.03715134      50.28465271      15.03348637
C       23.12567711      51.83737946      18.40195465
C       23.28163147      53.15439224      18.09383202
C       22.85094643      48.97289658      15.34225941
H       23.45912361      54.61795044      16.52521324
H       22.50826073      47.51987839      16.93470001
H       23.29948616      52.95622635      14.70276928
H       22.70679283      49.20522308      18.73639870
H       23.15114784      50.59425735      14.01635551
H       23.06077766      51.50429916      19.41454697
H       23.33877373      53.89770508      18.86537743
H       22.76495743      48.23636246      14.54646683
C       -4.42018175      45.24232101       7.28407192
C       -1.17440784      46.08950424       3.53662515
C       -3.69915175      44.42557907       6.47342587
C       -2.03115249      46.88517761       4.23217249
C       -2.87486887      44.94709015       5.44138241
C       -2.87774205      46.34164047       5.23231173
C       -1.98912287      44.14337540       4.68219280
C       -3.67590523      47.17354202       6.05633163
C       -4.41412354      46.63570023       7.06973791
C       -1.14636159      44.70112610       3.75832319
H       -4.99920321      44.82143784       8.08779526
H       -0.51483160      46.51460648       2.77882338
H       -3.71982884      43.35000229       6.64064980
H       -2.07521772      47.95015717       4.05320740
H       -1.90528047      43.09665680       4.88919878
H       -3.63609004      48.24648666       5.90808487
H       -4.97832823      47.29258728       7.72961855
H       -0.46436167      44.07794571       3.20689678
C       20.40138626      50.25694275       1.19110394
C       16.72798157      46.83664322       0.66919243
C       20.28754807      49.10246277       0.46803775
C       16.87066650      47.95420837       1.43794894
C       19.12604523      48.29141998       0.56876022
C       18.07481384      48.69304657       1.41921604
C        0.16524081      47.10605621      28.34308052
C       18.23951340      49.88225937       2.18233228
C       19.36330223      50.63633728       2.07147002
C       -1.00019157      46.39582443      28.38616180
H       21.26795387      50.87567520       1.07826185
H       15.80054283      46.27134323       0.68358767
H        2.28277183      48.81615067      28.36005783
H       16.05059624      48.29901505       2.06651211
H        0.95437866      46.76431656      27.70220757
H       17.41390800      50.16675186       2.83208013
H       19.47043037      51.55976105       2.64185143
H       -1.08913028      45.51370239      27.77530098
C        8.83006859      51.04808426      14.43445396
C        4.93759203      49.66786575      17.31938934
C        8.73034954      50.64196014      15.72923279
C        5.05023384      50.11930084      16.04226112
C        7.46882105      50.32074356      16.30047607
C        6.31026697      50.44066238      15.49740219
C        7.32378864      49.84049606      17.62040901
C        6.46258879      50.82210541      14.14180470
C        7.67732763      51.13100815      13.62339401
C        6.09265041      49.50651550      18.11149979
H        9.78219795      51.28117371      14.00290203
H        3.96283722      49.44197083      17.73448944
H        9.62072945      50.55295181      16.33691216
H        4.15402222      50.23824692      15.41195297
H        8.18918419      49.72089005      18.24359894
H        5.56828499      50.83753204      13.52745152
H        7.77441120      51.46434402      12.58453751
H        5.98754978      49.15699005      19.13398743
C        0.25528929      47.11741638      10.51682186
C       -1.45716476      43.25473022       7.84805107
C       -0.54023600      46.05540848      10.83529949
C       -0.80463111      44.40228653       7.51990318
C       -1.00342107      45.18527603       9.82226849
C       -0.53274351      45.36753082       8.49680996
C       -1.81972098      44.06846619      10.08817768
C        0.24493249      46.50213242       8.19426537
C        0.58510673      47.37187195       9.17080688
C       -2.00289249      43.10886002       9.12868977
H        0.68791288      47.76083755      11.28922272
H       -1.59025860      42.46997452       7.11107159
H       -0.81441379      45.83658600      11.86320019
H       -0.45773512      44.59575272       6.50152969
H       -2.21658897      43.93998718      11.08409691
H        0.58327794      46.64288330       7.16635799
H        1.14470863      48.24365997       8.92962170
H       -2.52208233      42.19851303       9.38180065
C      -13.73963547      30.75168800      20.95700073
C      -14.18227673      33.20475769      25.33203888
C      -13.72902298      32.07342911      21.29883575
C      -14.04699135      31.88815117      25.00759315
C      -13.81133652      32.47715759      22.65024185
C      -13.86205292      31.48942566      23.65981483
C      -13.93544769      33.84040070      23.01541138
C      -13.84753513      30.12038994      23.27984810
C      -13.80343056      29.76372719      21.96243858
C      -14.12920952      34.19821167      24.32164574
H       26.04387856      30.45201874      19.91049385
H      -14.36337852      33.49722290      26.35147667
H       26.09000969      32.84832764      20.54358101
H      -14.12311935      31.13228989      25.76897621
H      -13.90066719      34.59140778      22.23044777
H      -13.91989899      29.36358452      24.04606056
H      -13.81643486      28.70381165      21.68299675
H      -14.24700260      35.23665619      24.60402870
C       -6.06070805      49.32097244      27.85303879
C       -1.31439614      50.99408722      27.74010468
C       -5.46026516      50.42713928      28.37075806
C       -1.92158258      49.86105728      27.30847931
C       -4.05914116      50.61626434      28.22409439
C       -3.30508304      49.64848328      27.52982521
C       15.40102005      51.77418900       0.16943929
C       -3.94230056      48.48792267      27.03573227
C       -5.28289413      48.33712006      27.20206070
C       -2.07603860      51.95285797      28.45081711
H       -7.11680603      49.15864944      27.92522430
H       -0.25644776      51.15840912      27.57292175
H       12.74592400      51.17690659       0.35658374
H       -1.36728251      49.07893753      26.77486038
H       14.82619095      52.53006363       0.71519405
H       -3.35977769      47.75504303      26.49015808
H       -5.78903389      47.43093109      26.87354660
H       17.22608185      52.83425140       0.29292729
C       10.87619495      54.36536407       8.91032696
C        8.20197010      54.26068878      13.16649055
C        9.54220390      54.32353592       9.18830490
C        9.54391670      54.31378174      12.91399097
C        9.07569599      54.33860779      10.52018356
C       10.02259445      54.36396790      11.57985020
C        7.68990946      54.32975006      10.81953812
C       11.40163040      54.44227600      11.25988770
C       11.81588364      54.44451904       9.96008396
C        7.26431704      54.27705002      12.11499310
H       11.21173954      54.33245850       7.87406492
H        7.82684231      54.19304276      14.17140484
H        8.80805683      54.24910355       8.39793015
H       10.26816654      54.31329727      13.72608280
H        7.00000954      54.37017441       9.99833202
H       12.13343430      54.49305725      12.05807018
H       12.87887287      54.49073410       9.73783398
H        6.21340752      54.26420975      12.35356712
C       21.88966179      35.30150223       7.02417469
C       17.17993355      36.96576309       7.45759296
C       21.31757545      36.53245544       6.95008850
C       17.72280693      35.71997833       7.42195940
C       19.94154930      36.70205307       7.21999741
C       19.12495995      35.56464386       7.36217308
C       19.37058258      37.98068619       7.39872217
C       19.74870873      34.30944443       7.44701433
C       21.10268784      34.17103958       7.33835697
C       18.02290153      38.09569550       7.53140926
H       22.96675682      35.19547272       6.85456276
H       16.10606384      37.09405136       7.47376204
H       21.89467049      37.41690826       6.71042442
H       17.12381935      34.83874512       7.44814587
H       20.01249886      38.84116364       7.47784853
H       19.13445091      33.45604706       7.65317535
H       21.55396080      33.21042252       7.45099640
H       17.59198952      39.06547165       7.72962141
C       29.07113075      57.17996597      10.72785854
C       27.65864754      56.38048172      15.46562576
C       28.69835472      58.00752258      11.73829556
C       28.07052422      55.56120682      14.45655918
C       28.25734711      57.48205185      12.97876453
C       28.29995346      56.08373261      13.16389942
C       27.79638481      58.30570221      14.02793121
C       28.55850029      55.24743652      12.04968071
C       28.93179131      55.78015900      10.85535717
C       27.48144150      57.76187897      15.23878860
H       29.44876480      57.60569763       9.80404758
H       27.46672821      55.95343018      16.44733429
H       28.76416779       0.16102009      11.60608864
H       28.23884201      54.51332855      14.61126423
H       27.69079781       0.42885271      13.84118652
H       28.40763664      54.18036270      12.16827583
H       29.13027763      55.12769699      10.00244045
H       27.10091591      58.39599991      16.03284454
C       21.50305176      42.48003769      22.62698174
C       20.67697334      41.36248779      17.83458328
C       21.63876534      41.33467865      21.90731430
C       20.68508720      42.52938461      18.52485466
C       21.31703758      41.32524109      20.54296112
C       20.95602608      42.54560471      19.91758537
C       21.35552979      40.13191986      19.78824615
C       20.79494095      43.70535660      20.69921684
C       21.01589775      43.65533066      22.04324532
C       21.02882767      40.14797592      18.48093033
H       21.80640602      42.49314117      23.65547943
H       20.46990967      41.35911560      16.78118896
H       22.01310349      40.42666626      22.35706329
H       20.48979568      43.46686554      18.03146553
H       21.63908386      39.20245361      20.29032898
H       20.42916870      44.61611557      20.23713112
H       20.79464531      44.49070740      22.67956734
H       21.04424667      39.24440765      17.89495087
C       -1.79665971      42.15420914      24.67867088
C       -5.31057119      45.57626343      25.30717278
C       -2.98919058      42.37991714      24.05446815
C       -4.31687069      45.13867950      26.11936378
C       -3.88964033      43.33752441      24.54284859
C       -3.56684422      44.00704193      25.74732590
C       -5.06647491      43.70184326      23.84119606
C       -2.43660307      43.58954239      26.48754883
C       -1.54401207      42.72255707      25.93698883
C       -5.74502039      44.83351517      24.18836021
H       -1.08309734      41.45959473      24.21766090
H       -5.80416632      46.49750519      25.51843071
H       -3.26928115      41.81303024      23.18119431
H       -4.06825066      45.69018936      27.01725006
H       -5.40491247      43.10884094      22.99617577
H       -2.26493955      44.02200699      27.47668076
H       -0.64043546      42.47823334      26.47331429
H       -6.61225128      45.16443634      23.63702774
C       12.74251652      39.39799118      11.65320492
C       13.45347691      38.15377426      16.51830101
C       11.78131771      38.94718552      12.71521378
C       14.04155159      39.08794785      15.67341709
C       12.49092579      38.52141190      13.95709991
C       13.55391502      39.31244278      14.39243221
C       11.97240639      37.51839066      14.75152397
C       14.14704418      40.35295486      13.47182083
C       13.78840637      40.11384201      12.01975346
C       12.43436623      37.34777451      16.04795074
H       12.53458691      39.17133331      10.60218811
H       13.83434296      38.02401352      17.52835464
H       11.08553314      38.15971375      12.39378071
H       14.93001080      39.62369537      16.00804710
H       11.12855434      36.92463684      14.38141060
H       15.22035980      40.24912262      13.51949883
H       14.46153927      40.49833298      11.28668404
H       12.00370789      36.57720947      16.67978859
C        0.09359053      50.76978683      13.31463432
C        1.33891046      52.74211884       8.86280727
C        0.04343922      50.30477142      12.03498936
C        1.24775207      53.25201035      10.12318707
C        0.41229936      51.11646652      10.94185925
C        0.81666857      52.44475555      11.20256710
C        0.39234936      50.66878128       9.60791397
C        0.78124851      52.92961121      12.52504826
C        0.46576771      52.10932922      13.56664753
C        0.88069832      51.43721771       8.58828545
H       -0.16723447      50.12097549      14.14221573
H        1.69246984      53.37934875       8.05270863
H       -0.25205582      49.29415894      11.83627510
H        1.49510813      54.29096985      10.31415749
H       -0.06063478      49.70829391       9.39493465
H        1.01211262      53.97432709      12.67460346
H        0.49456805      52.48807144      14.57072639
H        0.88005912      51.08892822       7.57817888
C       -2.81198812      38.26082993      26.68208694
C       -7.44484854      39.77560806      25.52054214
C       -4.01340389      37.63297653      26.67516136
C       -6.25933933      40.42203903      25.65929413
C       -5.19378424      38.32807922      26.31695557
C       -5.10716343      39.70836639      26.06315994
C       -6.43249893      37.67874908      26.11605835
C       -3.85719466      40.35506439      26.16256332
C       -2.72641468      39.64260101      26.39885330
C       -7.53235960      38.38226318      25.72367668
H       -1.91590512      37.69754410      26.87726784
H       -8.35026741      40.32873535      25.26479530
H       -4.04685450      36.56406403      26.87078285
H       -6.18003559      41.48787308      25.50000381
H       -6.48085546      36.61215210      26.26636124
H       -3.84127784      41.42684174      26.04374313
H       -1.76024342      40.12980652      26.40740013
H       -8.47968102      37.89580917      25.57433128
C       -7.42073679      40.07678986      22.31380844
C       -6.98293209      38.50784302      17.57497215
C       -6.96191549      40.67123795      21.17453003
C       -7.54453754      37.96038818      18.68795204
C       -7.02364206      39.98027420      19.94149017
C       -7.57744646      38.67666245      19.90713692
C       -6.50745487      40.54533005      18.75954437
C       -8.07615757      38.10359955      21.10012054
C       -7.98666525      38.78179550      22.27934837
C       -6.46967745      39.82684326      17.60494995
H       -7.34146118      40.60316467      23.26357651
H       -6.95015717      37.94608688      16.67706299
H       -6.51975965      41.65647507      21.17509079
H       -7.94508982      36.95351410      18.67497063
H       -6.09998131      41.55703735      18.80049324
H       -8.48507214      37.10032272      21.06219482
H       -8.32877922      38.30298233      23.20326614
H       -6.02626657      40.25867081      16.72255325
C        5.72854805      42.73888779      10.44733810
C        8.71179771      43.27065277      14.51484394
C        6.05476427      41.89374542      11.49586105
C        8.52576256      43.96144485      13.39561462
C        6.96549940      42.28894424      12.49143410
C        7.55562210      43.54541397      12.38238716
C        7.28648281      41.37004089      13.64199162
C        7.21403217      44.39369202      11.33517742
C        6.30397606      44.00423813      10.36793518
C        7.97691345      42.02496719      14.85551548
H        5.01296663      42.42953873       9.68719482
H        9.41046524      43.63965988      15.25921440
H        5.59085417      40.91218567      11.57887268
H        9.06389141      44.88755798      13.23103333
H        6.33804512      40.98307800      13.95979214
H        7.69715309      45.34213638      11.25916767
H        6.08121252      44.66609192       9.53974533
H        8.73818588      41.36615753      15.27005863
C       28.41958427      37.38262558      16.36858368
C       27.84264755      32.40527725      15.78502846
C       28.40158081      36.55207825      15.28107738
C       27.82306480      33.23390961      16.86854172
C       28.20591927      35.15608597      15.42879486
C       28.02099037      34.62722397      16.72238159
C       28.19292641      34.28424072      14.32478905
C      -11.71331024      35.50239563      17.83469200
C      -11.51477528      36.83951569      17.66937256
C       28.03385925      32.93974686      14.49138832
H       28.56948090      38.45852661      16.24929047
H       27.70285988      31.34976768      15.90848255
H       28.51643181      36.97105408      14.27264404
H       27.67377472      32.81677628      17.86918449
H       28.27464104      34.71721649      13.32862949
H      -11.84522915      35.08816528      18.83068657
H      -11.49204922      37.50508118      18.52817917
H       28.03893280      32.27492142      13.61908627
C       24.13869667      55.28995514       1.38854897
C       23.49853134      52.26905060       5.38098717
C       25.00170708      54.63649750       2.22426295
C       22.63385963      52.86167908       4.50369406
C       24.51420403      53.83623886       3.29372740
C       23.11719704      53.67266464       3.45152926
C       25.38620186      53.22210312       4.21921921
C       22.24878502      54.36146545       2.56613731
C       22.74381065      55.16319275       1.57207203
C       24.89077377      52.46982574       5.25445795
H       24.52668762      55.90197754       0.59492123
H       23.11828804      51.63175583       6.16228294
H       26.06715393      54.74164581       2.09116960
H       21.56719589      52.71871948       4.61068916
H       26.45364952      53.31702042       4.09443712
H       21.17619705      54.24113846       2.67755485
H       22.06452179      55.68007278       0.88970041
H       25.58269501      51.97839355       5.93382406
C        7.21317387      31.94714165      15.63548946
C       12.17658710      31.40845299      15.42999172
C        8.03939056      31.39333153      14.70131397
C       11.34538460      32.17139435      16.20394897
C        9.43998051      31.47648239      14.85727310
C        9.95793056      32.19911194      15.95333576
C       10.34266853      30.76882935      14.02478313
C        9.07730484      32.85196304      16.84092140
C        7.73322153      32.69596863      16.71143150
C       11.66811085      30.70720100      14.32431221
H        6.14002228      31.80779839      15.55788231
H       13.20351410      31.32053757      15.70677853
H        7.64122438      30.83817863      13.88315582
H       11.72298527      32.70368195      17.06289291
H        9.95933342      30.24624252      13.18103218
H        9.49262810      33.45360184      17.64748764
H        7.04307556      33.16242218      17.40046501
H       12.33297920      30.10679245      13.72145367
C        3.79064918      46.45352554      25.37445259
C       -0.09131013      48.66399765      23.06722832
C        2.71748543      47.15716553      25.83134079
C        0.98380333      47.94316483      22.63257027
C        1.79055619      47.75010681      24.93017578
C        1.96961081      47.51686478      23.55517769
C        0.69886631      48.56095123      25.33893585
C        3.11912274      46.84059143      23.10422707
C        4.01855421      46.31666183      23.99025345
C       -0.20661666      49.01463699      24.42164612
H        4.50570250      46.01506424      26.03964043
H       -0.88543028      48.95972443      22.37770462
H        2.61122608      47.31567383      26.89879990
H        1.09988427      47.66294861      21.58127403
H        0.62075180      48.83355713      26.38172531
H        3.26717019      46.73004532      22.03063774
H        4.88610220      45.80159760      23.63586807
H       -1.04185021      49.67096710      24.73164558
C       21.43006706      38.65727615      12.14644909
C       23.83802223      39.72047424       7.89167261
C       22.08485794      39.75902176      11.69933891
C       23.27179527      38.58850479       8.38302612
C       22.65232849      39.77061462      10.41239071
C       22.57035828      38.60816956       9.61391449
C       23.26849937      40.92765045       9.89030075
C       21.85827446      37.48988342      10.09436607
C       21.30115891      37.51277542      11.33912468
C       23.76110649      40.92460632       8.62474251
H       20.95491409      38.69138336      13.10047054
H       24.37945175      39.71257401       6.94769096
H       22.14969635      40.65897369      12.31459713
H       23.37363815      37.64571762       7.85184860
H       23.31431770      41.82006836      10.48388577
H       21.81287193      36.59429550       9.49053955
H       20.75128746      36.66074753      11.71435165
H       24.14699936      41.82954407       8.18052292
C       22.71694183      46.89093018       6.20588636
C       24.75078011      50.27969360       3.12451077
C       24.00001717      47.27951431       5.96878242
C       23.47191620      49.91346359       3.38839173
C       24.26419640      48.32426834       5.05286646
C       23.19166946      48.93700027       4.36732388
C       25.59014130      48.74791718       4.78944445
C       21.86901474      48.51912689       4.64449310
C       21.64820480      47.52178574       5.54928160
C       25.82254601      49.70730972       3.84707761
H       22.50550079      46.08826447       6.91801405
H       24.96337891      51.04370499       2.39985657
H       24.83914566      46.80709076       6.45469284
H       22.65791130      50.37338257       2.85198045
H       26.37631226      48.29761124       5.35693026
H       21.05271149      48.99363709       4.12421608
H       20.65579796      47.19301224       5.76156712
H       26.83077049      50.05528641       3.62935472
C       11.32151222      34.12723160      24.34727859
C        9.17856312      32.60317612      20.07651329
C       11.81815433      33.62810135      23.18680763
C        8.70014000      33.12759399      21.24089241
C       10.94277382      33.22123337      22.15881729
C        9.54903030      33.40450287      22.32430267
C       11.42389584      32.67806244      20.94097137
C        9.06271648      33.88011932      23.56122971
C        9.92869568      34.21671295      24.55411530
C       10.56400681      32.34699249      19.94198227
H       11.98514557      34.52033234      25.09541512
H        8.52443790      32.35199356      19.27283287
H       12.88691521      33.59802246      23.02371216
H        7.63647175      33.27418137      21.36756516
H       12.48395061      32.57741547      20.82084465
H        7.99775839      33.99237442      23.70936394
H        9.56787777      34.59860992      25.49436378
H       10.96125793      31.91666985      19.01385689
C        4.70892954      51.26768875      23.50958633
C        9.24390507      49.91919327      21.82778358
C        5.12223244      50.34690857      22.59218979
C        8.81782818      50.82818604      22.74653053
C        6.51409769      50.13934708      22.37469292
C        7.44391966      50.92321014      23.08707047
C        6.98381090      49.18355560      21.44619560
C        6.97870731      51.77653503      24.12427139
C        5.64519262      51.92461395      24.33507919
C        8.31707573      49.06994247      21.18348885
H        3.64605045      51.45019531      23.65111160
H       10.30028534      49.82102203      21.59895706
H        4.41639185      49.80680847      21.99027824
H        9.53234196      51.46478271      23.26052475
H        6.27179480      48.51895523      20.98096085
H        7.70356607      52.33613205      24.71966553
H        5.28445148      52.57593155      25.12264061
H        8.67790222      48.30033875      20.52551270
C       19.86157417      48.41271973      19.89755058
C       19.10020638      46.20187759      24.34399223
C       19.15432930      47.32190323      20.29947662
C       19.82254028      47.28395844      23.96511841
C       19.14149857      46.92698288      21.65748787
C       19.85721016      47.68986130      22.60195541
C       18.39558792      45.80443954      22.08379936
C       20.56748009      48.83482361      22.16631508
C       20.57778549      49.17668915      20.85068321
C       18.37917900      45.44420242      23.39085197
H       19.86467171      48.69906998      18.86155510
H       19.02518463      45.97010040      25.38882065
H       18.55256271      46.74205780      19.61365318
H       20.34916496      47.88470078      24.71142960
H       17.85621071      45.23387146      21.35740471
H       21.12549782      49.42847061      22.89491653
H       21.13547707      50.03866959      20.50243378
H       17.79070091      44.58382797      23.69179535
C       12.87183857      52.91044235      25.11055183
C       17.60170364      53.18224335      23.40437508
C       13.49528694      52.96103668      23.77747726
C       17.04802704      53.13747025      24.62956429
C       14.82747364      52.81629181      23.59708023
C       15.65829468      52.75715256      24.79441643
C       15.48876381      52.74862671      22.30334473
C       15.11649036      52.43359756      25.98712730
C       13.66906261      52.10711288      26.11485481
C       16.82203674      52.86907578      22.23370171
H       11.86365318      52.49687195      24.98606491
H       18.66150284      53.41020584      23.29007912
H       12.86134911      53.16573715      22.91651726
H       17.60893250      53.34272766      25.50507164
H       14.88494778      52.63660812      21.41782761
H       15.74425793      52.42889404      26.87289238
H       13.36768150      52.42233658      27.10727310
H       17.32185364      52.80099106      21.28120995
C       28.83146667      51.80421829       1.72935331
C       29.26199532      46.87751770       0.73824143
C       27.92256165      50.80811691       1.51513898
C       30.15196991      47.91093063       0.83474767
C       28.34441948      49.48960876       1.22892153
C       29.72612953      49.23085785       1.09572434
C       27.43842506      48.40874481       1.09694636
C       30.64393806      50.28820419       1.29032171
C       30.21487427      51.53522491       1.63075614
C       27.88096809      47.14404678       0.82269204
H       28.48793030      52.80479813       1.94882369
H       29.60301208      45.86957169       0.61174750
H       26.86219215      51.02381134       1.53014493
H       31.20584106      47.72338486       0.77675891
H       26.38514328      48.59477234       1.23284006
H       31.70971107      50.09774017       1.18524504
H       30.92390060      52.31321335       1.79436159
H       27.17160988      46.33823395       0.71407652
C       -1.14501452      34.92675018       5.70356894
C       -1.92764163      39.06352997       8.45515251
C       -1.45442545      36.21915436       5.38718653
C       -1.65463579      37.76809692       8.77762127
C       -1.53948474      37.20729828       6.39866590
C       -1.43144345      36.81388474       7.75712729
C       -1.75738025      38.57439804       6.09803581
C       -1.11520970      35.47063828       8.04055214
C       -0.93545395      34.55571365       7.04967594
C       -1.93532884      39.47338104       7.10488844
H       -1.03363729      34.19477081       4.92025375
H       -2.13983059      39.77285004       9.22645760
H       -1.61592424      36.52389908       4.35105324
H       -1.65208912      37.44350433       9.81613731
H       -1.78078437      38.87891769       5.04523373
H       -1.00247681      35.17143631       9.08400536
H       -0.62900323      33.54363251       7.29001379
H       -2.13756585      40.52635193       6.86637402
C        3.88089776      52.60760880      13.40193653
C        2.97843194      56.48374176      10.36348248
C        3.47599125      53.89256287      13.63936615
C        3.62386847      55.29946136      10.20582771
C        3.37416840      54.80504227      12.56895542
C        3.81539011      54.42393875      11.29478741
C        2.68116570      56.02673340      12.70746231
C        4.26808596      53.10071945      11.08410358
C        4.26314545      52.19909668      12.10151768
C        2.48047113      56.84510422      11.63057232
H        3.86197591      51.89405441      14.20004845
H        2.79704523      57.13182831       9.50984287
H        3.10471511      54.18389130      14.61524582
H        3.93652272      54.94628143       9.22257805
H        2.25691104      56.25421906      13.67314625
H        4.55158710      52.82030869      10.07861614
H        4.52040243      51.16424179      11.90637493
H        1.93012977      57.77973557      11.75986385
C       10.90757942      57.68864441      12.63143730
C       10.68512344      58.48998261      17.58871841
C       11.49477100      57.08333969      13.70667553
C       10.00131321       0.07863805      16.53436470
C       11.19951439      57.51174927      15.01986885
C       10.28045654      58.56638336      15.21215153
C       11.86545849      56.96319199      16.13829613
C        9.69077110       0.24241561      14.08610153
C        9.99743748      58.75010300      12.81903362
C       11.65288734      57.47694778      17.38396072
H       11.16073799      57.34645844      11.63105011
H       10.48177814      58.83674240      18.59621429
H       12.21196175      56.30527878      13.58196545
H        9.25302792       0.85908228      16.68961143
H       12.57254505      56.18113709      15.97412014
H        9.00934410       1.06421447      14.24559402
H        9.52693653       0.30738419      11.98011017
H       12.22266102      57.11035538      18.22250366
C       -5.81010199      55.98251343      25.17250252
C       -9.47990608      52.87553406      26.59889221
C       -5.82442665      54.81354523      25.86300659
C       -9.46722794      54.02575684      25.87010193
C       -7.04688692      54.13879013      26.08277512
C       -8.25197029      54.70574951      25.60555840
C       -7.08679199      52.91417313      26.78888702
C       -8.19619179      55.92197037      24.87981224
C       -6.99841166      56.53395081      24.66726875
C       -8.27294540      52.30234528      27.05306435
H       -4.87774706      56.49944305      24.98155403
H      -10.40630531      52.36003494      26.76759148
H       -4.89978123      54.35967636      26.22723198
H      -10.38216686      54.45001602      25.47328949
H       -6.14610910      52.46769333      27.08291435
H       -9.11262608      56.34327698      24.48708916
H       -6.92343330      57.44359970      24.07281876
H       -8.28274345      51.33442688      27.56085777
C        2.60336852      44.03931427      27.59159279
C        6.99202824      41.71175766      28.16559029
C        3.87273288      44.48138428      27.80965042
C        5.72971106      41.27208328      27.88887215
C        4.95312309      43.57372665      27.82213783
C        4.68352985      42.19168091      27.66810989
C        6.28254652      43.99971390      28.05999565
C        3.37768841      41.78451538      27.32159042
C        2.35880852      42.69041061      27.27757835
C        7.27487898      43.08913040      28.24298859
H        1.77596939      44.72612381      27.69421005
H        7.78486872      40.98453903      28.24976921
H        4.05354547      45.54105759      28.08009338
H        5.51175022      40.21356964      27.81377602
H        6.49020910      45.06458664      28.12832451
H        3.16848111      40.73473358      27.13790321
H        1.34475887      42.35865402      27.09072113
H        8.28675938      43.41035080      28.44569206
C       14.65487003      40.64163208       8.56093216
C       18.85877609      40.73573303      11.27885342
C       15.47400570      39.68132401       9.03362274
C       17.97370529      41.69939423      10.90183926
C       16.60815620      40.03183365       9.80326462
C       16.85436821      41.39382553      10.10807800
C       17.54522896      39.06183243      10.18949699
C       15.97241783      42.37435913       9.58977509
C       14.89252090      42.00070572       8.85139179
C       18.66673660      39.40240479      10.86500359
H       13.86636353      40.37149429       7.87427616
H       19.72984314      40.99151993      11.87052155
H       15.30750942      38.63114929       8.80498981
H       18.12755585      42.72603989      11.18547344
H       17.33933449      38.04350281       9.91790485
H       16.20083046      43.40560150       9.77316475
H       14.21138382      42.75881577       8.46724033
H       19.37860298      38.63544083      11.10583687
C       22.72884560      28.72061920      14.62306213
C       21.44548416      31.73603821      18.44224358
C       22.29519463      28.48870850      15.89301205
C       21.77143669      31.97202110      17.13895226
C       21.95813942      29.56154633      16.75190735
C       22.06878471      30.88621330      16.27022743
C       21.55693245      29.35591698      18.09430695
C       22.53270531      31.09787560      14.94687748
C       22.85741806      30.04406738      14.13946342
C       21.32850456      30.41990280      18.92427635
H       22.97940063      27.88660049      13.98111153
H       21.24842262      32.57349777      19.11262703
H       22.18081093      27.47153282      16.25743103
H       21.84639931      32.98994064      16.75033188
H       21.44161797      28.34422112      18.45819664
H       22.64836693      32.12432098      14.57872009
H       23.22383308      30.22410011      13.12644482
H       21.03816414      30.25720215      19.96044922
C        0.45041388      38.27929688       0.95453525
C        1.97783327      34.04277802       3.21351695
C        0.94657725      37.09716415       0.49720216
C        1.42340422      35.19967270       3.67139435
C        1.27286077      36.04775238       1.38497591
C        1.05338824      36.23799133       2.77116227
C        1.85561097      34.83472824       0.93433905
C        0.55531704      37.47820282       3.22579980
C        0.26635316      38.47962189       2.34149933
C        2.20077753      33.85911560       1.82362437
H        0.19863988      39.07393646       0.24801907
H        2.24106812      33.26153946       3.91057992
H      -17.68475533      36.94326401      27.96228409
H        1.27373850      35.37121582       4.72985840
H      -16.75423241      34.71449280      28.39313126
H        0.44361755      37.63607025       4.28432655
H       -0.09919148      39.44416046       2.73217535
H        2.65253735      32.95358276       1.47270167
C        5.60276127      54.26719284       7.28949594
C        0.91715014      55.02319336       5.68977308
C        4.67629814      53.46836472       6.69432878
C        1.84813702      55.84209442       6.24527025
C        3.40586877      53.97423553       6.35063887
C        3.12456250      55.33404922       6.60838127
C        2.41476560      53.15440369       5.76706314
C        4.12766790      56.15754318       7.17038059
C        5.34045696      55.62328720       7.51942635
C        1.19285166      53.66839600       5.45509481
H        6.56150722      53.84643173       7.60388422
H       -0.04841519      55.41513824       5.42704964
H        4.88937235      52.44524002       6.46901941
H        1.62572074      56.90489578       6.41131926
H        2.62838864      52.11842728       5.58900976
H        3.90922093      57.18760681       7.35878277
H        6.08367300      56.24382401       8.02283859
H        0.42623350      53.04468918       5.02557945
C       10.80461216      47.22421646       3.55872536
C       15.40517521      48.98200226       4.58111954
C       11.49796009      48.33400345       3.16140413
C       14.70184803      47.90135193       5.02456617
C       12.80533218      48.57658386       3.64814258
C       13.38525772      47.65716553       4.56648588
C       13.54571819      49.70326233       3.22959566
C       12.62853336      46.52624512       4.95824289
C       11.36465454      46.31632614       4.48097992
C       14.82328510      49.89945221       3.67810178
H        9.83735180      47.02009201       3.15446520
H       16.44046402      49.14313126       4.92063856
H       11.06784916      49.03717041       2.47207713
H       15.14722919      47.19413376       5.71243143
H       13.10039711      50.38339615       2.52069426
H       13.06925106      45.80980301       5.64392805
H       10.79400063      45.42957306       4.78578329
H       15.37347031      50.75654602       3.34086490
C       18.11096382      57.49144363      11.79666805
C       17.98483086      57.41538620      16.80870628
C       18.16195869      58.47067261      12.74494934
C       17.96207428      56.44163513      15.85424995
C       18.03371811      58.14388657      14.12298679
C       17.97701645      56.77839279      14.49022007
C       18.00000000       0.20099284      15.12802219
C       17.90488625      55.78730392      13.48558235
C       17.91922760      56.14662933      12.17046738
C       17.96694565      58.77398682      16.44644547
H       18.22070694      57.71400070      10.73116398
H       18.03867912      57.12014771      17.82966232
H       18.29985428       0.57573205      12.48020172
H       17.97430611      55.40265274      16.13933373
H       18.03503609       1.23985195      14.85932541
H       17.79328156      54.74310303      13.78470612
H       17.76732445      55.38443375      11.40191269
H       17.98111343       0.61217082      17.19898033
C       -7.04698563      55.38347244      17.56400871
C      -11.37189293      56.18408585      19.98754501
C       -7.55473089      54.92408752      18.73578072
C      -10.93326569      56.49128723      18.73367119
C       -8.84017944      55.32926941      19.16596222
C       -9.64556313      56.09119415      18.29476166
C       -9.29025269      55.10045242      20.48211861
C       -9.11133957      56.49888611      17.04549980
C       -7.82362461      56.19709015      16.71361160
C      -10.52901459      55.50254059      20.88692284
H       -6.00601196      55.15658569      17.30089378
H      -12.36067772      56.48727798      20.31664467
H       -6.94853115      54.31674194      19.37564278
H      -11.54337120      57.07997131      18.07699776
H       -8.62513256      54.60644150      21.19766617
H       -9.73850727      57.07040405      16.39337349
H       -7.38882446      56.57789612      15.77956200
H      -10.86646557      55.30472565      21.89485931
C       -2.54871631      38.77848053      22.95083809
C       -1.23980296      34.28925705      21.08569717
C       -1.72834945      38.38146210      21.93890762
C       -2.13403940      34.68040848      22.04085350
C       -1.60178244      37.01531219      21.60820770
C       -2.32102942      36.05013275      22.34919548
C       -0.70600051      36.58029938      20.60857010
C       -3.22960901      36.49643707      23.34117317
C       -3.33965445      37.82740402      23.62297630
C       -0.50611687      35.25607681      20.36789894
H       -2.59522748      39.81003952      23.26585579
H       -1.10961390      33.24145889      20.86521912
H       -1.12545264      39.10083008      21.41183090
H       -2.74727297      33.94855118      22.56716156
H       -0.14922340      37.34334183      20.04649734
H       -3.84640789      35.76873016      23.84948921
H       -4.05620670      38.16766739      24.35325241
H        0.22612274      34.93243790      19.60630417
C        6.72072268      47.35424042      13.31373215
C       11.22737598      47.65856171      15.46789742
C        7.99385262      47.31346130      12.84411240
C        9.98473358      47.41513062      15.97661591
C        9.08752728      47.45589066      13.71558380
C        8.86393738      47.41920471      15.10428429
C       10.38856125      47.71487427      13.22308540
C        7.52646732      47.44486618      15.56985950
C        6.49116611      47.47445679      14.69242477
C       11.41861057      47.88708878      14.08973312
H        5.90606594      47.32457733      12.61594391
H       12.09710026      47.68227005      16.11983299
H        8.19561577      47.23073578      11.78244019
H        9.82741070      47.26609802      17.03618431
H       10.52654648      47.81056595      12.15936089
H        7.35072660      47.51854324      16.64218712
H        5.48195267      47.57088089      15.06970692
H       12.39400387      48.12544250      13.71634483
C      -13.42111206      45.29129028      24.01663017
C       -8.86660385      44.15724564      22.21173096
C      -12.71165848      44.12658691      23.90737343
C       -9.59876442      45.31056595      22.22577477
C      -11.46664429      44.11317825      23.23913193
C      -10.91744518      45.31317902      22.74934769
C      -10.71937370      42.91456223      23.11385727
C      -11.67992878      46.49533081      22.86517525
C      -12.90906334      46.48442078      23.46833992
C       -9.44324398      42.93759155      22.63477135
H      -14.38208103      45.29531860      24.50041199
H       -7.84687328      44.16333008      21.82420158
H      -13.10934162      43.19845200      24.28415108
H       -9.16587448      46.25498962      21.88085175
H      -11.18733788      41.99431992      23.40147591
H      -11.23753738      47.41924286      22.53788948
H      -13.47475910      47.39787674      23.57234001
H       -8.88243294      42.00157928      22.54101944
C       29.20844650      42.83393097       8.72097111
C       29.23114014      40.47988510      13.15760231
C       28.84957886      43.22114944       9.98406696
C       29.45083046      40.06878281      11.87841892
C       28.87935257      42.28300476      11.05045128
C       29.28994179      40.96258926      10.78870201
C       28.59444618      42.66542435      12.38196373
C       29.56112671      40.57971573       9.45276070
C       29.53817749      41.49440002       8.44062710
C       28.79367828      41.79386139      13.41878223
H       29.23489189      43.55587387       7.93143606
H       29.38373947      39.79358292      13.97745228
H       28.57839203      44.25239182      10.18113136
H       29.72743988      39.04627609      11.69283962
H       28.24909401      43.67699432      12.60057640
H       29.77702904      39.52315140       9.25135994
H       29.73773575      41.20876694       7.41918802
H       28.59795380      42.10176849      14.43524933
C       33.58595657      44.33882904       4.68542242
C       28.66239357      43.76861191       5.32711649
C       32.63930893      45.11403656       5.28108692
C       29.64610481      42.91988754       4.92169857
C       31.31438065      44.62158203       5.43297148
C       30.99762917      43.32936096       4.95357418
C       30.28402138      45.41898727       5.96125174
C       32.03576279      42.50691986       4.46173286
C       33.29006958      43.01062775       4.31369400
C       28.98635292      45.01765823       5.88788748
H       34.56244278      44.75425339       4.47577763
H       27.62373543      43.49184799       5.22027969
H       32.85395432      46.14260483       5.59926701
H       29.41684532      41.93804550       4.52212381
H       30.55967712      46.39925003       6.34447861
H       31.81961441      41.49070740       4.17621660
H       34.06354904      42.40036011       3.87132907
H       28.18791771      45.67326355       6.23075819
C       18.39645386      53.58352661       4.27104378
C       15.50343990      55.52346039       7.88779831
C       18.52282906      54.67208099       5.08739853
C       15.48330116      54.33773422       7.21402502
C       17.52720451      54.96662903       6.05004454
C       16.45767784      54.06330872       6.22660303
C       17.55128479      56.16073227       6.81032896
C       16.33917618      52.94529724       5.36417961
C       17.26455307      52.74256516       4.38343620
C       16.54146576      56.45042038       7.68634653
H       19.14101410      53.39079666       3.50198770
H       14.68587589      55.76129532       8.56201553
H       19.37535858      55.35638428       4.95903683
H       14.69755268      53.63771057       7.38965178
H       18.36695862      56.84270859       6.65299416
H       15.51054955      52.27136993       5.49217558
H       17.15054703      51.93357086       3.70287609
H       16.51804733      57.38920593       8.23227692
C        2.21030474      30.98653412      24.04666901
C       -0.59712344      30.40728951      19.91795731
C        2.51044512      30.76191330      22.73228455
C       -0.88714725      30.76536942      21.19615936
C        1.49186492      30.66127396      21.76318550
C        0.14620182      30.84529877      22.16909218
C        1.75849354      30.31113434      20.40215492
C       -0.13672563      31.06235695      23.53285599
C        0.86015666      31.10982895      24.45713806
C        0.73087090      30.16059875      19.51883888
H        2.99902582      31.05274391      24.79356003
H       -1.40092027      30.29676437      19.20513916
H        3.53657913      30.65868568      22.40524101
H       -1.90919244      30.97796249      21.49064064
H        2.78141618      30.12908745      20.11455154
H       -1.18474567      31.14220810      23.85170174
H        0.63535625      31.24962807      25.51523781
H        0.90401596      29.83516693      18.48980713
C       10.69143867      46.10517883      25.94007492
C       12.39504147      41.77283478      27.66030121
C       11.75695515      45.78750610      26.91904449
C       11.24923706      42.12770081      27.08085251
C       11.98962593      44.49384689      27.13114738
C       11.08735371      43.48420334      26.44391632
C       13.24148178      44.03303146      27.67133522
C        9.66934395      43.96532822      26.42439079
C        9.46963978      45.25112915      26.18349457
C       13.47751331      42.72866821      27.85173035
H       10.42248535      47.14498520      25.92842293
H       12.55383873      40.78350830      28.03410721
H       12.42913437      46.55496979      27.27116776
H       10.41408825      41.43700790      27.00082016
H       13.97855854      44.79055405      27.89265251
H        8.87866879      43.22148132      26.42668533
H        8.49405766      45.65233994      26.01112938
H       14.43026257      42.39244843      28.23634338
C       17.76152420       0.01162280       4.23701286
C       18.20203972      55.00594711       1.16538382
C       17.06816292      57.78155899       4.10076666
C       18.91958427      56.15011978       1.32404315
C       17.38753891      56.87947083       3.06515765
C       18.51945305      57.13420868       2.25896239
C       16.60685349      55.73440552       2.81162977
C       19.20181847      58.37382889       2.39567780
C       18.80467987       0.33471841       3.33646488
C       16.99100494      54.82715225       1.87189937
H       17.48793793       0.70850176       5.01385880
H       18.55447006      54.25508881       0.47112945
H       16.22526550      57.54403687       4.75685358
H       19.79950523      56.34126282       0.71239936
H       15.71536922      55.58096695       3.41430521
H       20.00804901      58.62111664       1.70875955
H       19.28069115       1.29110491       3.41060138
H       16.38826752      53.94017792       1.72085190
C       26.27282906      45.56070328      11.46519279
C       21.84511375      47.18789291       9.72836971
C       25.59214783      46.72871017      11.61752510
C       22.49177742      45.99415970       9.70517349
C       24.29196739      46.88184738      11.07474422
C       23.73051262      45.80668259      10.35091209
C       23.55485725      48.09493637      11.16118431
C       24.44682121      44.58287048      10.22956944
C       25.69106293      44.47113419      10.77777767
C       22.36723709      48.23959351      10.50415897
H       27.27533722      45.46403885      11.86766243
H       20.93925285      47.32346344       9.16603184
H       26.08352280      47.55353165      12.14385319
H       22.08142853      45.16538620       9.15726662
H       23.93137741      48.90786743      11.76252747
H       23.97457504      43.77059937       9.67829418
H       26.23389435      43.54204941      10.69210815
H       21.82109261      49.17209244      10.55100822
C       25.33972168      45.24901962      15.08321667
C       25.95535660      40.29503250      14.39281845
C       24.98231697      44.39165115      14.08520508
C       26.38036156      41.17353058      15.34566689
C       25.33716774      43.02326965      14.13075829
C       26.08865166      42.55671692      15.23472309
C       24.92689323      42.09404373      13.14865112
C       26.47050095      43.46778870      16.25007248
C       26.07122993      44.77317810      16.18711853
C       25.22086143      40.76684952      13.27637482
H       25.03836250      46.29783630      15.04061031
H       26.16451645      39.24135971      14.50673199
H       24.39355278      44.74203491      13.23833561
H       26.93298340      40.82917023      16.20647621
H       24.33459091      42.45299911      12.31318760
H       27.05049133      43.08955765      17.09560966
H       26.28836060      45.43846512      17.00314522
H       24.84843636      40.03841019      12.55951691
C        4.59016371      49.25917816       3.74053574
C        3.82586932      44.45294571       2.45874739
C        3.47860456      48.49118805       3.60088038
C        4.94628239      45.22726059       2.56918740
C        3.57560945      47.13377762       3.22201109
C        4.85190964      46.58023453       2.96751738
C        2.43282437      46.29555511       3.13368797
C        5.98683262      47.40780640       3.10643101
C        5.86091900      48.71942139       3.45044184
C        2.56015801      44.98581314       2.78132796
H        4.51892519      50.29348755       4.05897331
H        3.90497899      43.39840317       2.16431856
H        2.49075532      48.91928864       3.82388759
H        5.92590570      44.80081177       2.35588980
H        1.47245181      46.70652390       3.34801102
H        6.95628691      46.97415924       2.93964291
H        6.72950268      49.36142349       3.50815463
H        1.68574345      44.34943390       2.71498966
C       11.17861366      47.41948318       7.93915033
C        7.29034615      49.09123230      10.60765171
C        9.86757946      47.07542801       7.96177292
C        8.63195705      49.31409454      10.67616749
C        8.99247360      47.66380310       8.91593933
C        9.51357460      48.61257935       9.82214642
C        7.59996510      47.40372086       8.91253185
C       10.90310097      48.88966370       9.81908226
C       11.71838093      48.31404877       8.89034271
C        6.76977158      48.10784531       9.74295521
H       11.81869030      47.02571106       7.16283035
H        6.60929298      49.63202667      11.26106167
H        9.46973419      46.41701889       7.20476103
H        9.04479790      50.04727554      11.37376118
H        7.17148972      46.69857025       8.21270561
H       11.30088902      49.56578445      10.56188869
H       12.78273296      48.54352951       8.86375046
H        5.70379639      47.96878815       9.70090008
C      -10.75730133      56.54597473      27.84891129
C        8.79689980      58.63938522       3.83220029
C       -9.69583893      57.18680954      28.41455650
C        7.81541443      57.84371185       3.33074999
C        9.04684734      57.62845612       1.23620272
C        7.90032482      57.32916641       2.00553584
C       10.04825211      58.45795822       1.79098845
C        6.81082821      56.65680313       1.38903999
C        6.88448334      56.27769852       0.07823921
C        9.92730618       0.03675378       3.04660463
H      -10.73336792      56.25118256      26.80301666
H        8.71996784       0.12531064       4.81538963
H       -8.82279110      57.42521286      27.81185341
H        6.94074583      57.64129257       3.90525508
H       10.89363575      58.73120117       1.15010822
H        5.90509462      56.48331833       1.93458450
H      -12.75662994      55.79877853      28.13177681
H       10.68263531       0.70780182       3.44469523
C        8.81402969      48.96940613       0.53402293
C      -14.53425980      49.62584686      27.05941963
C      -10.58760262      50.01493454      28.42014694
C      -13.88567638      48.52968597      27.53642273
C      -11.90732002      49.89521790      27.94303322
C      -12.56485558      48.65145111      28.03631401
C      -12.60997772      51.00635147      27.41918182
C        6.87740040      47.58958054       0.17795740
C        8.11857033      47.76867676       0.71999574
C      -13.89541531      50.89223099      27.01539040
H        9.81024933      49.06908035       0.92733365
H      -15.56832695      49.53233337      26.73376083
H      -10.09450912      50.96987534      28.31995773
H      -14.37424374      47.55558777      27.57727242
H      -12.13335800      51.97566223      27.43592644
H        6.33101463      46.66152954       0.31489357
H        8.58366489      46.98478317       1.30767548
H      -14.44599342      51.77703857      26.72245216
C        3.45393109      34.74951172      13.06778908
C        3.82809901      33.65626907      17.97179985
C        3.15874267      35.41965485      14.21739674
C        4.24950409      33.02125549      16.84920692
C        3.42824411      34.85883331      15.48415375
C        4.01681805      33.59108353      15.57288933
C        3.08391500      35.54965210      16.66923141
C        4.28466797      32.90060806      14.36330605
C        3.99342537      33.45202637      13.15337086
C        3.21810961      34.92610550      17.87258339
H        3.29212475      35.21288681      12.09718418
H        3.93823791      33.19597244      18.94509125
H        2.72804141      36.41596222      14.17251301
H        4.73248911      32.05610275      16.93677521
H        2.67211938      36.56078339      16.61174202
H        4.69970322      31.91859245      14.39764214
H        4.17154694      32.89166641      12.24928570
H        2.87825251      35.41611862      18.74938583
C        7.48342562      33.84560013       5.34350729
C        7.73671818      33.49346924       0.32511881
C        7.99555349      32.91657257       4.48615217
C        7.32657528      34.48183060       1.17982233
C        7.89596844      33.07762146       3.08385348
C        7.35649729      34.28383636       2.58181000
C        8.26775837      32.05437851       2.18180346
C        6.86427927      35.25453567       3.49037027
C        6.90261459      35.03015900       4.84312201
C        8.18458939      32.24611664       0.83033437
H        7.49321938      33.65515900       6.41645002
H      -11.08270550      33.65730667      27.79842567
H        8.47015476      32.01796341       4.87105036
H        6.97620869      35.43013000       0.78617078
H        8.59883308      31.09760666       2.57653975
H        6.42685080      36.15736771       3.11747408
H        6.48950958      35.74501419       5.53990698
H        8.44293118      31.44954681       0.15906301
C       21.04076004      47.64030075      27.94837952
C        0.14925030      42.67741776       0.26734236
C       20.08790970      46.67036819      27.90650940
C        1.13639867      43.62552643       0.16805549
C       20.42504120      45.32085037      28.18107224
C      -17.98743057      44.96976089      28.39452171
C       19.43603706      44.30940628      28.24959183
C      -17.00515556      45.98855972      28.33146477
C      -17.36277580      47.29899979      28.15435410
C       38.56477356      43.01989365       0.03714490
H       20.75825882      48.68938446      27.82138062
H        0.40516326      41.65457153       0.47386125
H       19.05251122      46.92959213      27.71505356
H        2.16536784      43.34786987       0.29803887
H       18.39327812      44.57837296      28.03438759
H      -15.95401764      45.71623230      28.48386955
H      -16.60559082      48.07697678      28.18471718
H       37.80156708      42.24114227       0.02475369
C       -4.45416784      42.18914413      11.05863285
C       -5.64695883      38.18339157      13.82872868
C       -4.86784315      42.04246902      12.34693623
C       -4.88118029      38.34584808      12.71797180
C       -5.12268639      40.76044083      12.88079071
C       -4.72317219      39.62886429      12.13572407
C       -5.87751389      40.57263947      14.05708504
C       -4.27374792      39.79806519      10.81813812
C       -4.23218584      41.04296875      10.26520920
C       -6.21437502      39.30790710      14.45503426
H       -4.37833595      43.18294144      10.62622643
H       -5.82114840      37.17994690      14.22458744
H       -5.10332584      42.89515305      12.94511795
H       -4.41133213      37.48918533      12.22202683
H       -6.22804070      41.43214416      14.59072781
H       -4.04705048      38.92814255      10.21584797
H       -4.04379177      41.14888000       9.19425964
H       -6.89387798      39.16086960      15.27715969
C        8.57957745      35.65753174      15.25768757
C        4.67748499      37.99409103      13.11158943
C        8.33189297      36.11106110      13.99592972
C        4.94150448      37.58531952      14.38715267
C        7.09568644      36.72508240      13.68196487
C        6.12029791      36.86409760      14.69158173
C        6.82428455      37.24889755      12.40157604
C        6.39683104      36.38180161      15.99908924
C        7.59986353      35.80282974      16.26732445
C        5.61774349      37.79729843      12.08955669
H        9.53901863      35.20900726      15.49160480
H        3.72797370      38.48529434      12.88516903
H        9.08307171      36.02018356      13.21283913
H        4.21397972      37.77042770      15.18384361
H        7.63263607      37.26592255      11.69231224
H        5.64396763      36.49964523      16.77931976
H        7.81347275      35.45769501      17.25875473
H        5.41687393      38.16493225      11.08660316
C       32.70872498      40.92874527       7.47849655
C       31.83280945      43.66170120      11.55532932
C       32.70693588      42.26653290       7.70636272
C       32.02327347      42.32876968      11.36146164
C       32.51828384      42.75787735       9.01656151
C       32.36938095      41.83582687      10.07905579
C       32.36527252      44.14437866       9.25514412
C       32.50108719      40.45792770       9.81989384
C       32.64974976      40.01187134       8.53935623
C       32.00784302      44.58624649      10.49412346
H       32.76171875      40.59265518       6.45547152
H       31.50265121      44.01558685      12.52872753
H       32.80997849      42.95687866       6.87909842
H       -7.88203239      41.59404373      12.15217686
H       32.47487259      44.82880020       8.43351841
H       32.44432831      39.75419998      10.64251518
H       32.69929123      38.95024872       8.33001804
H       31.83169746      45.63022614      10.66092110
C       -5.17047882      29.69105148      23.96908569
C       -4.93182516      34.15343094      26.23249245
C       -4.23343086      30.67175865      24.01319313
C       -5.89412498      33.19222641      26.14774513
C       -4.45259619      31.86491966      24.73110390
C       -5.69552374      32.03391647      25.37906265
C       -3.45190358      32.86112595      24.86762810
C       -6.68564415      31.02481461      25.27081108
C       -6.41722202      29.86944008      24.60036278
C       -3.69098783      33.98448181      25.59145355
H       -4.93502188      28.77164841      23.46603203
H       -5.09663343      35.00939178      26.85178566
H       -3.27387309      30.52916145      23.51800156
H       -6.81458044      33.28884506      26.70907211
H       -2.49016261      32.71822739      24.38222694
H       -7.64691687      31.18707275      25.74440575
H       -7.17515183      29.07934761      24.54858017
H       -2.91115332      34.74621201      25.71240044
C       -6.60132837      54.04666901      14.55000019
C       33.09749222      53.71508408       9.55365849
C       -7.16455460      54.80671692      13.57251358
C       -6.04633474      52.98376083      10.53070831
C       -6.99380636      54.46142960      12.21621609
C       -6.21240997      53.33298492      11.88713551
C       32.18033981      55.22542572      11.17454338
C       -5.65517616      52.55413818      12.93108082
C       -5.85196114      52.89295578      14.22984123
C       32.33389664      54.85528946       9.87440491
H       -6.79054499      54.26688766      15.58605003
H       33.15127182      53.39406204       8.53517151
H       -7.77214813      55.66992569      13.81147671
H       -5.49170589      52.07585907      10.28462315
H       31.58181190      56.08862686      11.45106506
H       -5.11518335      51.63467026      12.67416286
H       -5.46520853      52.26659775      15.02766991
H       31.85058594      55.42835999       9.07298660
C      -15.11498928      38.67639160      26.22220230
C      -10.79918194      39.56991196      23.79906273
C      -14.57120800      38.19647217      25.05603790
C      -11.37818336      40.10221100      24.91188049
C      -13.33348942      38.69451141      24.57673454
C      -12.66043949      39.67979050      25.33414078
C      -12.72509956      38.19500732      23.39727402
C      -13.27111053      40.20275497      26.49861526
C      -14.46759415      39.70663071      26.94693565
C      -11.48192215      38.60652542      23.01714325
H      -16.05898285      38.25891876      26.61481094
H       -9.81675720      39.88538742      23.50056267
H      -15.06691742      37.40985870      24.50030327
H      -10.84841633      40.86726379      25.48941612
H      -13.27860355      37.43887329      22.81514359
H      -12.76093006      40.99352264      27.04622650
H      -14.89702320      40.07947922      27.84992409
H      -10.99992657      38.19326401      22.15235710
C       24.57626534      41.58803940      22.82527351
C      -12.61142349      44.24166489      19.41957283
C       24.58547974      42.90119934      22.47184944
C      -12.70037556      42.90931320      19.69150734
C       25.43046570      43.35480499      21.43301010
C      -13.52383900      42.43345642      20.73432922
C       25.52500534      44.72613144      21.11234856
C      -13.56155586      41.07431793      21.11584473
C      -14.37312698      40.66902924      22.13462639
C       26.38243866      45.16830063      20.14559174
H       23.92653656      41.24437714      23.62158203
H      -11.93707275      44.58485794      18.65194321
H       23.97139549      43.62369537      22.98196793
H      -12.13115406      42.18556213      19.11043549
H       24.94658661      45.42515183      21.68945312
H      -12.94685936      40.37022018      20.60102081
H      -14.37878323      39.63107681      22.42092133
H       26.44619560      46.22324753      19.95530319
C        5.26193762      42.57006073      23.11208916
C        9.16139793      39.40408325      23.80031967
C        5.93266582      41.69356155      22.28360748
C        8.27721214      40.09096527      24.77291107
C        7.02649498      40.94686890      22.76954842
C        7.39750814      41.11820984      24.12577248
C        7.76638794      40.06110001      21.94455338
C        6.76971865      42.07801437      24.89142609
C        5.69794607      42.80148697      24.40287399
C        8.87444115      39.39515686      22.46140862
H        4.39051294      43.09044647      22.77026176
H       10.05031776      38.88940811      24.16629601
H        5.63707304      41.54151535      21.23985863
H        8.88532448      40.54163361      25.58874702
H        7.47332859      39.95611572      20.90677643
H        7.08223486      42.21930313      25.92190170
H        5.18928051      43.51860809      25.03154182
H        9.50727272      38.82338715      21.79570580
C        3.87522078      39.69123459      24.03623772
C        8.05590439      36.94937515      24.66478348
C        4.92693758      39.74522400      24.91812134
C        7.09142542      36.94159698      23.75055885
C        6.01022244      38.88283539      24.80142212
C        5.95554018      37.84528732      23.86927986
C        7.26795530      39.09653091      25.57846832
C        4.84076357      37.73311996      23.04991913
C        3.84279776      38.68540573      23.08033943
C        7.93481207      37.77582169      25.90861130
H        3.09572244      40.43674469      24.08272552
H        8.94681358      36.33877563      24.53670692
H        4.95253611      40.52390289      25.65295601
H        7.14220047      36.31315613      22.84881592
H        7.03290701      39.65162659      26.49225807
H        4.78051615      36.90009308      22.38207245
H        3.03705478      38.61811066      22.36556625
H        8.94249249      37.97276306      26.30609322
C       17.77472305      41.28852463       0.67900938
C       21.85450554      38.37455750       0.75027847
C       19.08358765      41.52024460       0.97867280
C       20.53012085      38.11821365       0.54354000
C       20.00626946      40.44248581       1.02700484
C       19.57059097      39.14296341       0.68982643
C       21.36370087      40.64083099       1.35722816
C       18.18770599      38.92586136       0.47452995
C       17.30950165      39.97264481       0.48804986
C       22.26881218      39.62553787       1.22161913
H       17.05323601      42.10963440       0.60756141
H       22.58432579      37.60401535       0.56993741
H       19.43859291      42.52870941       1.18628871
H       20.21531677      37.12247849       0.23966861
H       21.70103645      41.61434174       1.64425695
H       17.82420540      37.91282272       0.31986666
H       16.25253677      39.78295517       0.35361448
H       23.31715393      39.79098892       1.44428897
C       18.85975647      30.46693611      21.74040604
C       18.42844963      32.35557175      17.12164879
C       18.87434196      31.74467278      21.24551773
C       18.27726555      31.10444832      17.63895226
C       18.56913757      31.99015427      19.88809586
C       18.30613518      30.88885498      19.03998375
C       18.58385086      33.29159164      19.33267021
C       18.18133545      29.60111809      19.60952377
C       18.44286156      29.39312935      20.93468285
C       18.50114822      33.47451401      17.97958565
H       19.13875771      30.29184723      22.76388168
H       18.48714256      32.50166321      16.05254936
H       19.16044617      32.57041931      21.87947655
H       18.18978119      30.24502373      16.98880196
H       18.68697548      34.14408112      20.01112366
H       17.90030289      28.74990654      18.98986244
H       18.35593033      28.39252472      21.33710861
H       18.52384567      34.47524643      17.55477524
C        0.38974944      44.98893738      25.12879944
C       -2.01959014      45.13282013      20.74086761
C       -0.74184775      45.61938477      24.70815468
C       -0.92474198      44.46394730      21.19646072
C       -1.22803748      45.42243195      23.40434647
C       -0.49992889      44.58204651      22.53047562
C       -2.40825391      46.04689789      22.93805313
C        0.64058000      43.89161301      23.01017952
C        1.08279228      44.09009552      24.28678703
C       -2.80044270      45.88940430      21.63628387
H        0.76064581      45.15787125      26.12207222
H       -2.33213639      45.01282883      19.72168541
H       -1.27852976      46.31573486      25.36947441
H       -0.36839426      43.81179810      20.52875137
H       -3.00277019      46.63629150      23.63554955
H        1.13412964      43.22140121      22.32859421
H        1.94872284      43.57402802      24.65335846
H       -3.71473527      46.32111359      21.29244423
C        4.81852484      39.03590775      19.01604843
C        4.40261030      34.52384186      21.20878983
C        3.76277733      38.33141327      19.51492310
C        5.44854403      35.20122147      20.65902138
C        3.96706271      37.05958939      20.10384369
C        5.26707697      36.49500656      20.10168266
C        2.90119839      36.32835388      20.69539261
C        6.34669590      37.26328278      19.60265732
C        6.12669563      38.50736618      19.08531570
C        3.10681748      35.08908081      21.22472000
H        4.66812229      40.01612854      18.55558014
H        4.54622030      33.52572632      21.63818169
H        2.77709484      38.72338867      19.46065521
H        6.43525457      34.76623917      20.65340042
H        1.90487897      36.74133301      20.65606117
H        7.33324480      36.87224960      19.66013718
H        6.96235752      39.10214233      18.71800041
H        2.27125835      34.51926804      21.62100410
C       27.00058174      40.68523026       6.09373093
C       26.99588203      38.58975983      10.67111206
C       27.23301315      39.41366196       6.53339338
C       26.54799461      39.78199005      10.18153763
C       27.17703629      39.10978317       7.92111158
C       26.71005821      40.09714890       8.81214523
C       27.67017174      37.89109421       8.45974159
C       26.49322128      41.39713287       8.32853413
C       26.66916847      41.70267868       7.01331854
C       27.61877251      37.66682816       9.80586243
H       27.11308479      40.91105270       5.03297091
H       26.90184975      38.34608078      11.71804523
H       27.47639656      38.62836456       5.83621502
H       26.12450981      40.54010773      10.83753490
H       28.15299416      37.17272186       7.79385471
H       26.21520805      42.16959000       9.02764606
H       26.53778648      42.71121979       6.71272469
H       28.03598213      36.76691055      10.20895004
C       -4.07131720      35.09851074       7.45274782
C       -5.97621584      35.12670517      12.08914757
C       -4.02418566      34.21908951       8.48855400
C       -5.90735435      36.06053162      11.10822201
C       -4.56661034      34.54181671       9.75783730
C       -5.19526577      35.79512787       9.91212082
C       -4.59033871      33.62197495      10.83158588
C       -5.12635756      36.73768234       8.85702801
C       -4.57818794      36.39178085       7.65763330
C       -5.30801773      33.89184570      11.95353794
H       -3.64850020      34.83789444       6.50644112
H       -6.52208138      35.32903290      13.00004864
H       -3.56979060      33.24777222       8.35507584
H       -6.40052319      37.01085663      11.22104073
H       -4.06866932      32.67446518      10.73082161
H       -5.51977921      37.75154495       9.03784275
H       -4.48892069      37.12921524       6.87798882
H       -5.37593460      33.18432236      12.74196148
C       17.77668953      43.03388596       6.86922455
C       14.02580643      40.33434677       4.95429277
C       17.63084412      41.70225906       6.59075928
C       14.21686745      41.66891098       5.13502550
C       16.41626549      41.23003387       6.05040550
C       15.38140774      42.14434052       5.78703308
C       16.19196129      39.85508347       5.81606865
C       15.54392719      43.49649811       6.13765478
C       16.71675682      43.93738556       6.67153263
C       14.99009323      39.41253281       5.40151453
H       18.73945427      43.39767456       7.19329166
H       13.14628983      39.96332169       4.45171261
H       18.44514275      41.00499344       6.74331379
H       13.48221683      42.39336395       4.79363632
H       16.99384499      39.15782166       5.96354723
H       14.73602581      44.18511200       5.95896626
H       16.84285355      44.98096848       6.89895058
H       14.78492832      38.35553741       5.34367418
C       22.75931168      52.48028183      21.54623604
C       23.02829361      57.44541931      20.73560143
C       21.81352806      53.45326614      21.39700127
C       23.95500374      56.44356918      20.75600815
C       22.19304657      54.79106140      21.13300705
C       23.57201767      55.10176468      20.98376274
C       21.25716972      55.83926392      21.04555893
C       24.52204323      54.05348969      21.06414413
C       24.12746620      52.78522491      21.34813309
C       21.65665436      57.13719559      20.89035034
H       22.46638870      51.46673965      21.77966118
H       23.33334923      58.47792053      20.60185814
H       20.75234413      53.23130035      21.46772385
H       24.99740982      56.66904831      20.61155891
H       20.19941521      55.59495544      21.15964127
H       25.58322334      54.27684021      20.90177727
H       24.84514236      51.99985123      21.40547562
H       20.94347763      57.93843460      20.88293457
C       -0.25287813      32.43193436      17.03249931
C       -0.71819818      28.98052788      13.40800667
C       -1.08095932      31.36877823      16.85028458
C       -0.00576490      30.13695526      13.50163651
C       -0.97466314      30.55619049      15.70012188
C       -0.08251921      30.94307899      14.66691303
C       -1.70613027      29.34916306      15.57365799
C        0.68197662      32.12440491      14.83593941
C        0.63722265      32.82363510      16.01081467
C       -1.55311000      28.56425476      14.46709442
H       -0.28413960      32.99724579      17.96202469
H       -0.63830978      28.34933472      12.52580833
H       -1.83211184      31.11801338      17.56786728
H        0.65289176      30.44872284      12.71723747
H       -2.35217476      29.05296516      16.36634445
H        1.34370220      32.45151138      14.04050159
H        1.28727007      33.69121170      16.16390991
H       -2.08155823      27.61429214      14.40918732
C       30.57552910      30.08412933       3.43380189
C       35.23072433      31.84597969       2.67372870
C       31.58603287      30.45496941       4.27165079
C       34.17414856      31.58149910       1.84814596
C       32.81296921      30.93678474       3.75129485
C       32.94454575      31.11222839       2.36097407
C       33.90565491      31.25122261       4.58706093
C       31.83943939      30.82599449       1.52366698
C       30.70350456      30.27725220       2.04268742
C       35.08894730      31.68784142       4.07516479
H       29.66748047      29.65876770       3.82741904
H       36.15549469      32.19402695       2.24744987
H       31.46950531      30.39980698       5.35769749
H       34.26481247      31.73023605       0.78178889
H       33.76626205      31.16452408       5.65750504
H       31.91201210      31.05179024       0.45699456
H       29.87764359      30.00534821       1.39585447
H       35.92374039      31.95353127       4.71952820
C        4.02155256      45.74039841      20.24281883
C        0.45947802      42.65079880      18.59592056
C        2.80788398      45.96543503      19.65029526
C        1.45858824      42.49214554      19.51254654
C        1.91281033      44.89597702      19.41489792
C        2.23897123      43.60735703      19.90879822
C        0.80565900      45.03813553      18.54395485
C        3.44917512      43.43380737      20.61621094
C        4.34023046      44.45878983      20.73889160
C        0.11731111      43.93898773      18.12501335
H        4.73966360      46.53121948      20.34089279
H       -0.04880414      41.79647446      18.19666100
H        2.55588746      46.94779968      19.26468468
H        1.73837686      41.51095581      19.86372375
H        0.56082410      46.02567673      18.16539955
H        3.68970919      42.44430542      20.97724915
H        5.29277897      44.30054855      21.19056129
H       -0.67214137      44.04742432      17.39612007
C       26.69940186      51.91516495       8.19487572
C       27.34988594      46.94641876       8.35849953
C       27.75001526      51.10540771       7.89363575
C       26.25385094      47.74436569       8.49839211
C       27.61430359      49.69712830       7.97088337
C       26.35681725      49.14695358       8.32439804
C       28.71287155      48.83493423       7.75912428
C       25.26689339      50.01855469       8.56705761
C       25.44337273      51.37101746       8.53149223
C       28.58650589      47.50162125       7.97432041
H       26.80018425      52.99085999       8.17624474
H       27.28797913      45.89223862       8.57147694
H       28.71700287      51.53303528       7.62185383
H       25.30488777      47.31199646       8.78349876
H       29.66510201      49.26022339       7.48223209
H       24.29617310      49.55918121       8.80821228
H       24.63753700      52.03746796       8.77655792
H       29.44703102      46.84590530       7.86481524
C       36.42088699      48.40864563       1.32293487
C       33.28687668      44.49698639       1.76876807
C       36.59220505      47.06330872       1.45264494
C       33.09045029      45.84232712       1.75137103
C       35.49607086      46.18817520       1.61709225
C       34.18818283      46.73004150       1.65409446
C       35.66505432      44.78073120       1.67850530
C       34.03746033      48.13619995       1.52879202
C       35.12068176      48.95099640       1.36731231
C       34.58274841      43.95368576       1.69844401
H       37.27704620      49.04472733       1.17810667
H       32.43364334      43.83900452       1.82809770
H       37.56686783      46.64017868       1.41280997
H       32.08316803      46.25150681       1.81235659
H       36.67922974      44.39504242       1.68178976
H       33.04022217      48.54877090       1.55800211
H       34.97361755      50.04063034       1.26033056
H       34.71642303      42.87459183       1.70127594
C        8.04791164      29.95356178       5.92952204
C        8.36091232      29.43515778      10.91412830
C        8.90316868      29.27475548       6.73940802
C        7.54238892      30.14746857      10.09301949
C        8.75873470      29.34702873       8.14429569
C        7.74126291      30.14417076       8.69327831
C        9.57903004      28.59267998       9.02267551
C        6.89805937      30.88199234       7.82391167
C        7.02366924      30.76262665       6.47381401
C        9.39327621      28.64802170      10.37379932
H        8.11646938      29.84669495       4.84030676
H        8.20405483      29.46042252      11.98083305
H        9.65681458      28.61195755       6.32125092
H        6.72041559      30.71011353      10.47923470
H       10.36099148      27.98821449       8.59807110
H        6.14236116      31.52657509       8.26756191
H        6.37853527      31.30608177       5.81975031
H       10.03475666      28.06401443      11.02529240
C       -6.76540136      29.68405914      11.99114704
C       -4.78556681      29.58217812       7.37104893
C       -6.33700228      30.65048027      11.13978291
C       -5.19471836      28.61287498       8.23248863
C       -5.81991768      30.30929375       9.87508202
C       -5.71414614      28.95049667       9.50937653
C       -5.42384577      31.29226112       8.93895531
C       -6.17013836      27.97278023      10.41724205
C       -6.71716881      28.33378220      11.60913372
C       -4.89146185      30.94476128       7.73385000
H       -7.11574221      29.95545578      12.98660851
H       35.37182999      29.31702232       6.39384937
H       -6.40168190      31.70147896      11.42921829
H       -5.14896536      27.56547737       7.94932747
H       -5.57863712      32.32966995       9.17966175
H       -6.09559345      26.94018936      10.13690281
H       -7.08148766      27.59251404      12.29377556
H       -4.58795834      31.71951103       7.03672552
C       -1.82782948      32.88801575      12.53547478
C       -5.04366159      34.70977402      15.93387890
C       -2.67797518      32.29284286      13.42059231
C       -4.09838057      35.27440262      15.13864231
C       -3.46000719      33.07897568      14.30531025
C       -3.30610681      34.48900604      14.27937031
C       -4.45521307      32.51247025      15.13805771
C       -2.41805077      35.07535553      13.34567928
C       -1.71726608      34.28990936      12.47513199
C       -5.24440193      33.31288910      15.91886520
H       -1.22515678      32.27892303      11.87035179
H       -5.61807585      35.32182693      16.62960052
H       -2.78373456      31.21363831      13.46217537
H       -3.91924572      36.35501480      15.19138432
H       -4.59650373      31.43430328      15.11071110
H       -2.33495879      36.15451050      13.30086327
H       -1.08412576      34.73574829      11.71896648
H       -6.01806879      32.88298798      16.53964233
C       -2.93792343      53.55302048      20.16257668
C       -1.96670735      56.57115555      16.30075264
C       -3.51064181      53.71802902      18.93022728
C       -1.48524594      56.50304031      17.56343460
C       -3.04221869      54.71388245      18.05070114
C       -2.00853992      55.56322098      18.48023033
C       -3.55981374      54.83263779      16.73964310
C       -1.45987999      55.40158081      19.76727676
C       -1.89342690      54.40035248      20.58315849
C       -3.05757260      55.76313019      15.88611507
H       -3.28753471      52.78192902      20.84403038
H       -1.50799322      57.24148560      15.58867645
H       -4.30295515      53.07690430      18.57770348
H       -0.66615498      57.12395859      17.87333679
H       -4.34544611      54.15600967      16.42552757
H       -0.65486830      56.05620575      20.08168793
H       -1.44456303      54.24047470      21.55471420
H       -3.45140672      55.85372543      14.88402367
C       -2.09402370      54.29481888      12.98412704
C       -0.35834977      56.21295547       8.66467953
C       -2.17605758      53.90919113      11.67953110
C       -0.33060026      56.65130234       9.95807362
C       -1.52968717      54.66350174      10.67278385
C       -0.88873380      55.87321091      11.00136185
C       -1.46893573      54.20635986       9.35207653
C       -0.77755564      56.22112656      12.36484718
C       -1.32916069      55.42617416      13.31818771
C       -0.91184837      54.95175934       8.35770798
H       -2.57603788      53.71916962      13.75994396
H        0.02685747      56.83532715       7.87225246
H       -2.71030784      53.01639557      11.38246918
H        0.07599179      57.63220978      10.20362663
H       -1.82925546      53.20246124       9.15635109
H       -0.20789264      57.09377670      12.64774895
H       -1.16591573      55.66273117      14.35838509
H       -0.86024332      54.57096100       7.34803009
C       31.43067932      34.20289230       3.20613885
C       31.16761017      38.26030731       6.16104650
C       30.46546745      35.14178085       3.42758179
C       32.05344391      37.23612213       6.07777023
C       30.65012741      36.17523575       4.38193083
C       31.84394073      36.18497849       5.14418936
C       29.75334549      37.26367188       4.51060915
C       32.82777405      35.19566727       4.89692783
C       32.63842392      34.24214554       3.94541430
C       30.03890419      38.30726242       5.33967113
H       31.27942467      33.42990494       2.46140289
H       31.29928017      39.06746674       6.87090111
H       29.55424118      35.12898636       2.83940411
H       32.94044113      37.19658279       6.68323469
H       28.88102913      37.30031967       3.86802506
H       33.73708344      35.20632172       5.47399187
H       33.41960144      33.52622223       3.73156500
H       29.40512848      39.18709946       5.36638403
C       17.65767860      52.72475433      18.75356865
C       19.74071121      50.88750076      14.56228828
C       17.33289337      52.82299042      17.42996788
C       19.97972679      50.70276642      15.89321613
C       18.08782768      52.13087463      16.45015144
C       19.18585968      51.34681320      16.86857414
C       17.80420876      52.24042130      15.07074738
C       19.49522781      51.25909424      18.25043678
C       18.74615669      51.92734909      19.17898178
C       18.62732887      51.65411758      14.15310955
H       17.06975937      53.29069519      19.47801781
H       20.38008308      50.39720535      13.83038902
H       16.51474380      53.43766785      17.10738754
H       20.78784943      50.03858566      16.23685265
H       16.97892380      52.83474731      14.76564503
H       20.36273766      50.69163132      18.54900169
H       18.98511887      51.85599136      20.22768593
H       18.41308594      51.75722122      13.09404945
C       21.04289436      31.43783379      27.82821465
C       22.32578850      33.02841187      23.21597290
C       21.75058174      30.87280273      26.80794144
C       21.71163559      33.62521362      24.27625275
C       22.00450134      31.60076904      25.61512184
C       21.51345825      32.92619324      25.48943901
C       22.71214294      31.03408051      24.52323914
C       20.79568481      33.48397827      26.57971954
C       20.55824852      32.75827408      27.71437454
C       22.83613586      31.71527481      23.34464836
H       -0.11897203      30.89501381       0.20407510
H       22.44844437      33.56040955      22.27885437
H      -17.63209724      29.83861923      26.88188744
H       21.33078194      34.65046310      24.17998505
H       23.13008118      30.04156113      24.62567139
H       20.40382004      34.49027252      26.47661018
H       38.82614136      33.19025040       0.01664364
H       23.36147690      31.26463699      22.51233292
C       12.98462296      55.08974838       0.92871737
C       12.77306461      55.13308716       5.94692755
C       12.94436169      54.10462570       1.87372041
C       13.01772213      56.09750748       5.02358818
C       12.92064476      54.41839218       3.25533032
C       13.02893066      55.77691650       3.64181113
C       12.68108273      53.43334961       4.24572611
C       13.05441666      56.78001022       2.64174843
C       13.01040554      56.45203018       1.32069290
C       12.56481838      53.79111481       5.55521822
H       -5.84843683      54.84706497      28.40288544
H       12.73882580      55.40546417       7.00119781
H       12.84365940      53.06486130       1.56807709
H       13.18017101      57.10305023       5.31632853
H       12.52107620      52.40646362       3.92649794
H       13.04846668      57.82533264       2.94816041
H       12.96905327      57.20907974       0.57722932
H       12.31878662      53.05640411       6.28757954
C       10.24764442      45.54932785      20.24723053
C       13.43681812      42.83703613      23.04862976
C       10.22907257      44.26192474      20.75506020
C       13.09378433      44.31184387      23.14307213
C       11.23074245      43.84168625      21.61894417
C       12.24357700      44.72149658      21.97577667
C       11.10567665      42.60579681      22.48391914
C       12.29021740      45.99729538      21.43347168
C       11.27287388      46.42176437      20.59573746
C       12.47342777      42.00423050      22.67358971
H        9.43323421      45.90385818      19.62583351
H       14.46070671      42.51903534      23.25921822
H        9.38881302      43.60481262      20.57819557
H       14.01491261      44.90398407      23.13737297
H       10.41976738      41.91880798      22.04523468
H       13.09728622      46.69592667      21.72185326
H       11.26354694      47.41336823      20.21629333
H       12.63186455      40.93381119      22.52830315
C       11.60717010      53.63150406      16.41348267
C       14.90728855      49.94904327      17.29767609
C       11.92512131      52.47809219      15.75657558
C       14.58779049      51.09394455      17.96732903
C       12.89486218      51.59451675      16.28912735
C       13.56353855      51.94306564      17.48415947
C       13.20829773      50.37032318      15.65306950
C       13.18751144      53.11915207      18.16542435
C       12.23309422      53.94017792      17.64378166
C       14.19828796      49.56838226      16.14548302
H       10.89464378      54.32759094      15.98393631
H       15.66175842      49.29330063      17.70125198
H       11.44216442      52.24238586      14.81831074
H       15.09143257      51.35018921      18.88673019
H       12.63371086      50.07489777      14.79135227
H       13.67985058      53.35168839      19.10481834
H       11.95907784      54.85770035      18.16103935
H       14.41061783      48.61645126      15.66040230
C       22.85904694      36.65469360      19.76692390
C       20.54730606      37.32912445      24.14273071
C       21.76640129      36.07132339      20.33358002
C       21.78270912      37.67048264      23.68967628
C       21.38342667      36.38568115      21.65306473
C       22.22174263      37.22940826      22.41747284
C       20.12707710      35.99336624      22.17553711
C       23.43232536      37.68976212      21.84939766
C       23.73344994      37.44682312      20.54698944
C       19.70793724      36.49302673      23.38304901
H       23.03338051      36.48900223      18.71830559
H       20.16142845      37.70671082      25.07987022
H       21.14604950      35.40534592      19.75527382
H       22.42860413      38.33451080      24.26130867
H       19.49625015      35.31974030      21.60766602
H       24.07681465      38.30996323      22.47572708
H       24.63973999      37.87144470      20.12183952
H       18.74867821      36.26335144      23.78064156
C       -8.40336323      35.31489944      16.19197655
C       -9.21920872      30.46974182      15.03020287
C       -8.32877731      34.59044647      15.03294373
C       -9.11938953      31.13706207      16.21517372
C       -8.52892971      33.18712997      15.02930737
C       -8.82155991      32.52564621      16.24037933
C       -8.57835770      32.45741272      13.82212067
C       -8.91847610      33.31427383      17.41143990
C       -8.69799614      34.65440369      17.40192032
C       -8.98370171      31.14797592      13.81665325
H       -8.32987308      36.38958359      16.20070839
H       -9.49620152      29.41207123      15.00193024
H       -8.20003414      35.08073044      14.08733940
H       -9.31511498      30.59659767      17.12391472
H       -8.35610294      32.97297287      12.89222813
H       -9.28508091      32.86747742      18.33866310
H       -8.86085320      35.22382736      18.29387093
H       30.64334297      30.62656212      12.87710571
C        9.02277470      50.33658981      26.08844566
C       13.99788570      49.76725388      25.17086029
C        9.75996304      49.57807541      25.21954536
C       13.30744171      50.56575012      26.19335556
C       11.16622353      49.67961502      25.17594337
C       11.81526566      50.44153595      26.16959953
C       11.94073486      49.09220505      24.13872147
C       11.04238510      51.23200226      27.00843239
C        9.66243172      51.22669983      26.94995689
C       13.33693600      49.12372208      24.17466354
H        7.93966532      50.28602982      26.06546783
H       15.08475590      49.74453735      25.22856331
H        9.25330353      48.94031525      24.50737190
H       13.68570518      50.26750565      27.18667221
H       11.46080971      48.60481262      23.31142616
H       11.51709080      51.90592957      27.69618416
H        9.10797596      51.91223907      27.56358528
H       13.90015602      48.59509659      23.40436363
C       14.82039833      50.36757278      12.57981586
C       14.08685589      50.81366348       7.60799122
C       15.52066040      49.94773102      11.48943138
C       13.37590790      51.22945786       8.70364094
C       15.04582882      50.21737671      10.17685795
C       13.84046841      50.94282150      10.01281929
C       15.75984001      49.80937576       9.02574635
C       13.13467693      51.35978699      11.16808796
C       13.61283302      51.08266830      12.41324615
C       15.29763317      50.11046219       7.77775288
H       15.21375561      50.17892075      13.56984901
H       13.70940304      51.00737000       6.58642817
H       16.45860100      49.44231796      11.58882046
H       12.44129276      51.76324081       8.58010387
H       16.68831444      49.27864075       9.16779232
H       12.22076797      51.94065857      11.05643558
H       13.09956265      51.45687485      13.27184486
H       15.88472748      49.80504990       6.91008949
C       -2.32395315      51.42231750      17.12316513
C       -5.53970909      48.10698700      15.14251041
C       -3.09186268      50.43326950      17.65319061
C       -4.75864458      49.08788681      14.60300064
C       -3.87483931      49.60332870      16.81440926
C       -3.88322496      49.84043503      15.42387581
C       -4.67152071      48.55620193      17.33809471
C       -3.02830482      50.85243225      14.89738846
C       -2.27329159      51.61274338      15.73160839
C       -5.46762228      47.80608749      16.52217865
H       -1.78380823      52.07139206      17.76720810
H       -6.19561625      47.52766418      14.52743149
H       -3.14989567      50.27493286      18.72609138
H       -4.80002832      49.29262543      13.55003452
H       -4.61443377      48.35430908      18.39565659
H       -2.99470758      50.99713898      13.83396244
H       -1.62942863      52.39139938      15.33241081
H       -6.04439259      46.97758484      16.92286301
C       -2.65780902      52.54708099       7.11705923
C        0.08048396      48.85104752       5.14968443
C       -1.98084009      52.42248154       5.94689226
C       -0.65243268      48.97901535       6.29366159
C       -1.36344600      51.20398331       5.61058617
C       -1.39767087      50.14231491       6.54488659
C       -0.68970454      50.99441910       4.37927914
C       -2.14828849      50.28479385       7.74219322
C       -2.76005864      51.46126938       8.01969051
C        0.02658538      49.84764099       4.15912485
H       -3.12845898      53.48682404       7.37432432
H        0.65204477      47.95495224       4.99644518
H       -1.95656526      53.27258301       5.24109650
H       -0.69220173      48.20428085       7.01654100
H       -0.75255162      51.75197601       3.61413002
H       -2.20314693      49.43450546       8.42750454
H       -3.31953001      51.58579254       8.93782902
H        0.53198552      49.71488953       3.21039391
C        6.44355822      41.26739120       6.53343582
C        6.91772509      39.65209961       1.70128071
C        6.16044855      39.85708618       5.94408894
C        6.25080442      40.73673248       2.26546407
C        6.47364855      39.77355576       4.45571756
C        6.05371237      40.81384659       3.63093090
C        7.15505695      38.70251083       3.90094805
C        5.33335495      41.95516205       4.24736357
C        5.54934883      42.20958328       5.76533604
C        7.39681101      38.65028763       2.53360915
H        6.15011930      41.27383804       7.57273769
H        7.08874130      39.60295868       0.62860912
H        6.77779531      39.10628128       6.44920254
H        5.89836407      41.54659653       1.63711536
H        7.52152777      37.91149139       4.55813646
H        5.47802401      42.86449051       3.66055369
H        5.77868605      43.23212814       6.00638103
H        7.94203234      37.81635284       2.11827207
C        0.19599546      37.09201050      16.98295403
C        1.44338000      39.54817200      12.79274654
C        0.23278147      36.72989655      15.67024040
C        1.23752320      39.93051910      14.07941914
C        0.61599720      37.66248322      14.67488289
C        0.89375687      38.99098587      15.07265854
C        0.75735760      37.30344391      13.31087303
C        0.84639680      39.34716797      16.44237328
C        0.51456970      38.40766144      17.37955284
C        1.20549929      38.21417618      12.39779091
H       -0.08038472      36.36413574      17.74429321
H        1.75630581      40.25725555      12.05094433
H       -0.00555243      35.71848679      15.36011600
H        1.36394906      40.96940231      14.37219143
H        0.55713922      36.28544235      13.02410316
H        1.09155965      40.34651184      16.71996307
H        0.49823332      38.67367172      18.43942451
H        1.35801709      37.94951630      11.36439037
C       -8.66831493      34.18928146      22.41682434
C      -10.74227142      36.41092682      26.45059776
C       -8.25881577      34.36080170      23.70774651
C      -11.19506073      36.13859177      25.19120216
C       -9.09713936      35.01481247      24.65034866
C      -10.37010193      35.46780396      24.24936867
C       -8.68779945      35.25460052      25.98672867
C      -10.76812840      35.27258301      22.89661407
C       -9.93942547      34.65717316      22.00870705
C       -9.47199059      35.95589828      26.85690308
H       -8.01928711      33.69682693      21.69719696
H      -11.35105801      36.99719620      27.12268257
H       -7.30033922      34.00865173      24.02536774
H      -12.17397785      36.45503616      24.90580368
H       -7.70468807      34.93266678      26.29579926
H      -11.75016975      35.63483429      22.57313347
H      -10.25749207      34.52160263      20.97859383
H       -9.12064266      36.18482590      27.85952759
C       20.91646004      55.53765488      24.35749245
C       18.73163795      52.82523727      27.98317719
C       20.74648094      54.19960403      24.56068611
C       18.96033669      54.16004944      27.83080101
C       20.08906746      53.71659851      25.71614647
C       19.65227509      54.64022446      26.69197083
C       19.83874321      52.33280563      25.91135979
C       19.87275696      56.02477646      26.47282600
C       20.45764542      56.45925140      25.32190132
C       19.18394279      51.90011597      27.01772690
H       21.40144730      55.90057373      23.46924591
H       36.97099686      52.44255447       0.30530402
H       21.12559891      53.47337341      23.83413124
H       37.39167786      54.86666107       0.01727373
H       20.14832115      51.62872314      25.13169479
H       19.52687645      56.73503113      27.20954323
H       20.57178688      57.52470398      25.11997604
H       18.99163628      50.85550690      27.17253494
C       14.91695786      55.32158279      16.32769775
C       14.96495152      55.76896667      11.32634640
C       14.88074017      54.41542053      15.30343151
C       14.89675903      56.66959381      12.34211159
C       14.90818024      54.84527588      13.95422459
C       14.89914322      56.22985077      13.68375111
C       15.02837753      53.93972778      12.87211418
C       14.97315216      57.13563538      14.76928711
C       14.98928356      56.70308304      16.05440331
C       15.06244946      54.38635254      11.57898235
H       14.90930080      54.98398972      17.34896469
H       15.03743076      56.11778259      10.30982590
H       14.82814503      53.35380173      15.51207447
H       14.93478394      57.73815155      12.13940620
H       15.12673187      52.88933945      13.08979034
H       15.08606052      58.18157959      14.55093861
H       15.07392216      57.41567612      16.86241913
H       15.18237591      53.68420410      10.75807381
C        0.11014678      56.18834305      25.04578972
C       -4.20665026      57.89422226      26.95886993
C       -0.72118241      57.21623230      24.71507835
C       -3.44674134      56.78770065      27.22471237
C       -1.94952869      57.40977097      25.39392662
C       -2.30687380      56.51544189      26.43077469
C       -2.81052017      58.49061584      25.09301758
C       -1.45656753      55.41683578      26.69996262
C       -0.26703531      55.27016830      26.04694939
C       -3.90274882      58.73410034      25.86661720
H        1.05976295      56.07817841      24.54299736
H       -5.07366180      58.12516022      27.56944275
H       -0.43059623      57.92856598      23.94528770
H       -3.67041516      56.14459610      28.03194237
H       -2.56232977       0.20910454      24.23957825
H       -1.74915898      54.73004150      27.46945953
H        0.38503191      54.46565247      26.32292366
H       -4.56015635       0.63403904      25.64130020
C        6.27187824      32.97686386      11.09887409
C        6.11751843      37.17525864       8.38663673
C        5.62648058      33.32427597       9.95362663
C        6.98142672      36.72364807       9.33719158
C        5.87972069      34.56169510       9.32067871
C        6.86225939      35.41643143       9.86755848
C        5.10078287      35.01008224       8.23151684
C        7.60850477      34.94856644      10.97122192
C        7.28799915      33.79505157      11.61706066
C        5.17348289      36.30110931       7.80626202
H        6.01196861      32.08749771      11.62527657
H        6.17025566      38.21123123       8.09052467
H        4.86794329      32.67814255       9.53539085
H        7.74816132      37.38712311       9.74639034
H        4.40349913      34.32179260       7.77273607
H        8.42769241      35.53453064      11.32333565
H        7.82540178      33.50254059      12.50030231
H        4.49455214      36.64630127       7.04391527
C        0.47629097      53.74102020      17.73173714
C        2.04479718      54.05632401      22.51447105
C        0.34217107      52.93845367      18.82140923
C        2.18257642      54.86777496      21.42309952
C        0.93619186      53.28573608      20.05962563
C        1.65054071      54.49660873      20.16423225
C        0.81993169      52.46156311      21.19636345
C        1.82398283      55.28429794      19.00128174
C        1.24866867      54.92554474      17.82068253
C        1.35834873      52.82345963      22.39565659
H        0.01764180      53.47826767      16.78580284
H        2.46794033      54.34041214      23.47015762
H       -0.17921226      51.99915314      18.78206253
H        2.73942375      55.80126190      21.50609016
H        0.29040295      51.52056122      21.08602524
H        2.42295122      56.17721939      19.07317924
H        1.40082908      55.56160736      16.93581009
H        1.26100683      52.18296051      23.25027847
C       11.92277527      57.27421570      27.70752144
C       16.61084938      57.01750565      26.05475235
C       12.49028587      57.31995773      26.47429085
C       16.09990692      57.30893326      27.28659058
C       13.87759018      57.43133545      26.30258751
C       14.69902515      57.46333313      27.45055199
C       14.45523930      57.32342148      25.02359772
C       32.89413452      57.43320847       0.19480181
C       31.54214478      57.30787277       0.32405853
C       15.78112412      57.04523849      24.90559006
H       10.85058880      57.11622238      27.81414413
H       17.65052223      56.80159760      25.91781998
H       11.88969707      57.18418121      25.59902954
H       16.75066948      57.35811615      28.14638710
H       13.83558464      57.39389420      24.13957787
H       33.50881958      57.44427109       1.08498466
H       31.08516312      57.17170715       1.30689812
H       16.22504807      56.88563919      23.93114471
C        6.86895084      30.44599342      20.27351952
C        8.92398834      30.34646416      24.87000084
C        8.00381279      29.87512016      20.78992081
C        7.75975370      30.85926247      24.37657738
C        8.32741547      30.01865768      22.15922737
C        7.44339800      30.73811150      22.99699020
C        9.52520561      29.49097443      22.70078087
C        6.28674316      31.32610130      22.43765450
C        6.01063919      31.18927383      21.10530281
C        9.82749558      29.67328835      24.02308846
H        6.63941860      30.34436417      19.21628761
H        9.17085648      30.45047188      25.92832184
H        8.67804146      29.30517960      20.15127754
H        7.06243944      31.39296722      25.02192307
H       10.20151806      28.97339821      22.03774452
H        5.62328815      31.91692734      23.09114265
H        5.13480616      31.66555405      20.67138863
H       10.76277065      29.30002594      24.42248535
C       15.24874783      36.93155670      24.33782005
C       11.27836418      38.68184662      26.86113358
C       14.32349205      36.32941437      25.13636398
C       12.09547615      39.20817947      25.90580177
C       13.25371647      37.07022858      25.68440437
C       13.12523270      38.43560410      25.32634163
C       12.34789276      36.53339005      26.63802147
C       14.07732773      39.02339172      24.45854950
C       15.13295078      38.29214096      23.98958588
C       11.40791798      37.32223129      27.22223473
H       16.08028793      36.35359955      23.97636986
H       10.54810429      39.28971100      27.35907364
H       14.40432930      35.28102875      25.37488556
H       12.02259445      40.25535584      25.61869431
H       12.44565964      35.51391983      26.93730354
H       13.96722889      40.08592224      24.20538712
H       15.88626862      38.74026871      23.34387016
H       10.75937176      36.92871857      27.99763298
C       17.58590317      30.51193619      13.14792538
C       20.36821938      34.13954926      11.08327866
C       18.75663185      31.09306717      13.52218151
C       19.34032822      33.36944199      10.63405037
C       19.32714272      32.09943771      12.70752144
C       18.76804161      32.37289429      11.44161606
C       20.34395790      32.95228958      13.18497276
C       17.54966354      31.73864937      11.07931900
C       16.94676018      30.88331604      11.94668579
C       20.83073807      33.95953751      12.41088104
H       17.10153008      29.79020309      13.79089928
H       20.77778435      34.92096329      10.45749569
H       19.22216225      30.84495926      14.45982742
H       18.89592743      33.58837509       9.68276501
H       20.68408203      32.80812073      14.20511913
H       17.06363678      32.02259445      10.14673901
H       15.96848488      30.49449348      11.71331787
H       21.56815147      34.62105942      12.82170486
C       -2.77485728      58.15422440       8.78376579
C       -5.21340227      57.64760971      13.15305614
C       -2.89604926       0.01522433       9.88013172
C       -4.88554573      56.78351212      12.14645672
C       -3.68073940      58.53602219      10.98019695
C       -4.19933176      57.23168945      10.99353504
C       -4.03421116       0.48848355      12.03336048
C       -4.07122850      56.41993332       9.83120918
C       -3.41693115      56.89542007       8.73381901
C       -4.81963921       0.07399116      13.06297779
H       -2.18753672      58.50427246       7.94351339
H       -5.76528597      57.28284454      14.00845909
H       -2.42808437       0.99748522       9.89728928
H       -5.16835308      55.76865005      12.21912479
H       -3.69150209       1.50732410      11.98892879
H       -4.52055693      55.43460083       9.83549881
H       -3.35199094      56.27585602       7.83128881
H       -5.13630342       0.77204943      13.83480835
C       11.43684578      36.71885300      22.24906921
C       13.23781967      34.01024246      18.47272873
C       12.70191097      36.35281754      21.89563751
C       12.08107090      34.70544434      18.62329674
C       12.94549751      35.69746780      20.67274284
C       11.87657928      35.51407623      19.76537704
C       14.19983196      35.09706116      20.38545799
C       10.58449459      35.97309113      20.12381744
C       10.36395550      36.51136017      21.35571861
C       14.32748127      34.23107529      19.34103394
H       11.25388622      37.12861633      23.23897934
H       13.33858967      33.25910950      17.69097137
H       13.53546047      36.46931839      22.60235405
H       11.25103760      34.57316589      17.92222214
H       15.05457401      35.28413773      21.03454971
H        9.74583340      35.80943298      19.43308640
H        9.36035347      36.75918579      21.68574142
H       15.26501846      33.71971130      19.15526009
C        8.32539845      57.80653763       7.50906277
C        5.43763065      58.22338486      11.60781002
C        8.50326824      57.47616959       8.82194519
C        5.27435350      58.60053253      10.30652905
C        7.49319410      57.73740005       9.78102207
C        6.30053139      58.36440277       9.35923386
C        7.63569021      57.37607193      11.14758778
C        6.13679552      58.67379379       7.98677683
C        7.11233091      58.39481735       7.08349991
C        6.63440371      57.60725784      12.03818321
H        9.10061741      57.62687683       6.78402424
H        4.64328861      58.38959885      12.31633282
H        9.41858482      57.00245285       9.15682697
H        4.34913301       0.12643787       9.97556782
H        8.56298542      56.89789581      11.47605991
H        5.19882870       0.16778106       7.67037201
H        6.94513130      58.58971786       6.03316641
H        6.77539635      57.33192444      13.07993889
C       -8.00308323      49.66005325      22.19652748
C       -9.87808132      47.25189972      18.24649620
C       -9.25679588      49.21126556      21.90328407
C       -8.62399960      47.64912796      18.59293175
C       -9.49771118      48.55424118      20.67126656
C       -8.40184593      48.29825974      19.82221985
C      -10.80126858      48.18251038      20.25435829
C       -7.11541414      48.74615860      20.17375565
C       -6.94077396      49.44823837      21.31613541
C      -10.98132420      47.52610397      19.07428741
H       -7.82587337      50.26307678      23.06204605
H      -10.01977539      46.72838974      17.32074356
H      -10.08234215      49.41813660      22.56673622
H       -7.78286791      47.48700714      17.92522430
H      -11.65717220      48.41881943      20.87368011
H       -6.30056572      48.59408188      19.44605064
H       -5.98570490      49.89897537      21.53916550
H      -11.97245884      47.21564865      18.76140594
C       -3.29419923      55.27677536      23.24997520
C       -5.60367441      57.60760880      19.47285271
C       -2.97557139      56.36160660      22.49805641
C       -6.03562593      56.75259018      20.43635178
C       -3.84615517      56.82462692      21.48874283
C       -5.12364388      56.24319839      21.39532089
C       -3.44397426      57.77573776      20.52363396
C       -5.43059349      55.10729599      22.17764664
C       -4.51135159      54.58284760      23.03138351
C       -4.28606510      58.10411835      19.50142097
H       -2.61367774      54.91561890      23.99995995
H       -6.29386187      57.92533112      18.67979050
H       -2.00633621      56.84739685      22.61421585
H       -7.04799032      56.41497040      20.45542908
H       -2.45163608      58.18562698      20.56435394
H       -6.39268446      54.64489365      22.05629730
H       -4.73435402      53.67567062      23.60235214
H       -3.95164633      58.79237366      18.75360298
C        3.52952147      35.01789856      25.94873619
C        8.13774967      36.01681900      27.66958046
C        4.72692776      34.34663391      25.87193489
C        7.18625021      36.99553680      27.09231949
C        5.93335867      34.94899750      26.29939461
C        5.90733623      36.30912018      26.69833565
C        7.11413431      34.18671799      26.46397400
C        4.68330812      36.96221542      26.76322365
C        3.50072980      36.32967758      26.42830086
C        8.14898968      34.71930695      27.25880814
H        2.60113144      34.51712036      25.68828773
H        8.86011410      36.36367035      28.39679718
H        4.73483944      33.31166458      25.55208969
H        6.94352818      37.78230286      27.83926010
H        7.16158295      33.16140747      26.10316086
H        4.64812183      37.98860931      27.09922791
H        2.55561924      36.84737778      26.54991150
H        8.94039726      34.04418564      27.59676361
C       20.26583862      44.32913589       4.77259541
C       15.59632015      43.91238785       2.94588876
C       19.21742058      45.19273376       4.65070534
C       16.60915184      43.01638031       3.13490677
C       18.01151848      44.77626038       4.05130672
C       17.84232903      43.42439651       3.66710782
C       16.95085526      45.67601776       3.86456442
C       18.93720245      42.54257202       3.84397459
C       20.12250328      42.99517822       4.32706404
C       15.77485180      45.25788498       3.31752634
H       21.21487045      44.67489624       5.17637491
H       14.65046692      43.57050705       2.53037786
H       19.30185509      46.22957993       4.94944811
H       16.44927216      41.96216965       2.90672946
H       17.10133553      46.72505569       4.14110517
H       18.82841492      41.49377060       3.57197165
H       20.97535896      42.33261871       4.36220741
H       14.97614861      45.97647858       3.19290066
C       -1.83069253      52.55421448      24.00021744
C       -4.60664892      48.54049683      22.83027840
C       -1.97339308      51.80011368      22.87082291
C       -4.59406996      49.37792206      23.90129280
C       -2.94388223      50.78717804      22.79161835
C       -3.76589465      50.53334045      23.90800667
C       -3.08274055      49.97332764      21.63731956
C       -3.70149803      51.42214584      25.01099968
C       -2.74349570      52.39750290      25.06412697
C       -3.88933754      48.87984848      21.65696144
H       -1.05069852      53.29098129      24.04847145
H       -5.22778463      47.65778351      22.84345055
H       -1.34271550      51.97291565      22.02085304
H       -5.19055462      49.16371918      24.78653145
H       -2.49696374      50.22557449      20.75026512
H       -4.41193628      51.28394699      25.81783676
H       -2.66148877      53.03847122      25.91553497
H       -4.00340033      48.29268265      20.76257324
C       -9.92809296      41.16390991      19.51808929
C       -8.45705700      43.78737259      15.48909950
C       -9.58222866      42.46207428      19.31247902
C       -8.79076290      42.48034668      15.67572784
C       -9.25955963      42.93431091      18.01988220
C       -9.25032234      42.02846909      16.94073105
C       -8.94078255      44.29451370      17.79041672
C       -9.67505741      40.69517136      17.16386223
C      -10.01691914      40.28004837      18.42076683
C       -8.56425381      44.71505356      16.55624962
H      -10.14650154      40.81103516      20.51511192
H       -8.10526466      44.14502335      14.52460384
H       -9.56648445      43.16875076      20.12095833
H       -8.73633862      41.78773499      14.86355209
H       -8.99845982      44.97227478      18.63123322
H       -9.71211910      40.00534821      16.32667732
H      -10.31422806      39.25274277      18.60158539
H       -8.32835388      45.74512100      16.37698936
C       17.26122284      34.16445160      23.42767906
C       15.77659035      29.45686913      24.33278847
C       16.12986374      33.46750259      23.12630653
C       16.97270393      30.09099960      24.44955444
C       16.01023102      32.11961365      23.49958420
C       17.09925461      31.46257973      24.10862732
C       14.77753067      31.43050957      23.37373734
C       18.25325203      32.21093750      24.42838287
C       18.31590080      33.54426956      24.12545013
C       14.65280056      30.16880417      23.85636711
H       17.33604050      35.19379044      23.12270164
H       15.66057110      28.43409538      24.65708923
H       15.28854656      33.95068741      22.63712311
H       17.83201408      29.58181381      24.86910057
H       13.92436409      31.93381500      22.97913551
H       19.06881523      31.73140144      24.94275665
H       19.17949486      34.14505386      24.41712570
H       13.67711639      29.74287033      23.90806580
C        3.31023693      30.00062752      17.08176422
C        6.29089737      28.32956696      13.39056683
C        3.32108736      30.17360306      15.72210312
C        6.28309631      28.15083694      14.74015236
C        4.31242275      29.56980133      14.93004322
C        5.29539824      28.77212524      15.54910755
C        4.36631680      29.76721191      13.52772808
C        5.26823282      28.59873199      16.95217705
C        4.28586769      29.19523430      17.70235062
C        5.33990812      29.17438889      12.77152634
H        2.56431222      30.51148033      17.65930748
H        7.02516842      27.80385971      12.77841759
H        2.57589173      30.79439926      15.25188923
H        7.03998947      27.53327942      15.22647190
H        3.61071014      30.39785004      13.06319237
H        6.00685167      27.99308968      17.42877007
H        4.25156498      29.06077576      18.78770828
H        5.36488962      29.33031654      11.69641685
C       23.20972252      55.42765045       6.45081091
C       22.17548752      57.61259842      10.86326408
C       23.43896866      55.07349396       7.74956417
C       21.84705162      57.90677261       9.57072926
C       22.95944595      55.86172485       8.82536888
C       22.23916817      57.03239059       8.52245712
C       23.21158409      55.55136490      10.17752171
C       21.97008514      57.34906387       7.16981983
C       22.44107246      56.56746674       6.15667152
C       22.84343147      56.40856552      11.17649174
H       23.65424156      54.85496521       5.64349699
H       21.90887451      58.31379700      11.65279579
H       24.01805305      54.19999695       7.97955561
H       21.30697441      58.83618927       9.32536888
H       23.73073769      54.61229706      10.43043041
H       21.43727303      58.26957321       6.95524073
H       22.26262283      56.85820389       5.12277460
H       23.06587410      56.16158676      12.19965076
C       26.66220093      36.13512802       5.06801367
C       23.40400124      35.49450302       1.30605602
C       25.38455391      36.55241776       4.86815166
C       24.73036575      35.20837021       1.44601023
C       24.69772720      36.15687561       3.68556690
C       25.39383125      35.49212646       2.66016293
C       23.30307388      36.37453461       3.53901720
C       26.71566391      35.04187012       2.92244625
C       27.30301285      35.30510712       4.13073587
C       22.67232704      36.03244781       2.38818240
H       27.20857811      36.39015961       5.99095774
H       22.90026474      35.27217865       0.37746966
H       24.85099983      37.12664795       5.60201597
H       25.26337242      34.70690918       0.64335740
H       22.73712921      36.75667953       4.40299845
H       27.21680832      34.45965195       2.16685390
H       28.26740456      34.90233231       4.38762379
H       21.60935211      36.17782593       2.29408431
C      -10.68931389      52.02116013      20.90841103
C       -6.29912567      51.49427032      18.51015091
C       -9.39496803      52.23417664      21.26758385
C       -7.59341288      51.28605652      18.14413071
C       -8.34888172      52.03031540      20.33851814
C       -8.65372753      51.54846191      19.04824066
C       -6.99458599      52.22738266      20.69377518
C      -10.01151752      51.32621384      18.70154953
C      -11.00290966      51.57350540      19.61000442
C       -6.00255585      51.95848465      19.80901718
H      -11.48329735      52.20035172      21.61408997
H       -5.49182987      51.27148819      17.81547737
H       -9.12647724      52.56229782      22.26531219
H       -7.82296991      50.87276077      17.16732979
H       -6.74255276      52.57173538      21.69790840
H      -10.25201321      50.94112396      17.72130775
H      -12.03125477      51.40311432      19.35408783
H       -4.97515011      52.07144165      20.11804390
C       21.07795525      35.78128052      15.70643711
C       18.22187805      39.24253464      18.01417542
C       20.60146713      35.90478516      16.98190689
C       18.76933289      39.14951324      16.77667427
C       19.78489876      37.00493240      17.35747719
C       19.52705574      38.01469803      16.39941597
C       19.17900276      37.12562561      18.63500404
C       19.98087502      37.82829285      15.07584286
C       20.73221970      36.73581696      14.73861885
C       18.41244888      38.20693970      18.95005798
H       21.69577980      34.94609451      15.43671989
H       17.65565109      40.11503220      18.28818512
H       20.84685898      35.11584473      17.71529770
H       18.65126991      39.94775772      16.05710030
H       19.32594872      36.33135223      19.35340881
H       19.68957901      38.57638931      14.34681606
H       21.08423424      36.60927200      13.71555805
H       17.95582771      38.27198791      19.93067360
C       10.15017414      55.71730423      19.91978645
C        5.62446213      54.85184860      21.91974449
C        9.72956371      55.22139740      21.11619568
C        6.02629042      55.21445465      20.66697502
C        8.35732937      54.98331833      21.36036682
C        7.41252947      55.31744766      20.36778641
C        7.90292740      54.48866272      22.59662437
C        7.88933325      55.72798157      19.10641861
C        9.21554565      55.92898941      18.88270569
C        6.57486105      54.49786758      22.89645386
H       11.19473171      55.93001938      19.77314949
H        4.57105827      54.77482224      22.14947701
H       10.44260216      55.01435471      21.92028046
H        5.30510092      55.40691376      19.88305855
H        8.63087559      54.15587234      23.33572006
H        7.20142555      55.80373383      18.27242661
H        9.54905510      56.21671295      17.90421486
H        6.23149061      54.23471069      23.87514877
C       20.64790153      43.44304657      11.86989880
C       17.51613426      46.38079453       9.23666382
C       19.78843498      44.43860626      12.21825886
C       18.47503662      45.48165512       8.88976574
C       18.99999237      45.10643768      11.24188995
C       19.19405937      44.76882553       9.88817024
C       17.99844742      46.05533981      11.57725048
C       20.04637527      43.69397354       9.56413460
C       20.74761391      43.03304291      10.52804565
C       17.25391388      46.64427948      10.59590054
H       21.22842216      42.92733765      12.63944721
H       16.95339966      46.91797638       8.46779346
H       19.68523407      44.73549271      13.25067139
H       18.69888878      45.28882599       7.85359144
H       17.81010246      46.26867294      12.61715508
H       20.07580376      43.36708450       8.54122353
H       21.31665802      42.13596725      10.26075840
H       16.47652245      47.35616684      10.84950256
C       25.51906586      58.00980759       4.79252720
C       26.07110214      56.36220169       9.51801968
C       25.11169243      58.49504089       6.01082563
C       26.39647865      55.85583115       8.30247021
C       25.37829781      57.76861572       7.19457531
C       26.06799507      56.54070663       7.11000156
C       25.01929474      58.26024246       8.47128582
C       26.37895966      56.02247620       5.83085537
C       26.13395691      56.74298859       4.70366430
C       25.37589264      57.59543228       9.60717201
H       25.37137222      58.58514404       3.88982344
H       26.31469536      55.81713867      10.42262745
H       24.59191322       0.51465034       6.07504129
H       26.91433907      54.89483261       8.20938110
H       24.46646500       0.25511032       8.53898716
H       26.80350685      55.04112625       5.75522137
H       26.40233612      56.36498642       3.74113727
H       25.09305763      57.95690155      10.57302284
C       14.40011883      36.04589081       3.68692589
C       18.88989067      38.26889801       3.66675043
C       15.65643978      35.59833908       3.97685337
C       17.63920212      38.66855240       3.31366396
C       16.76675224      36.44787979       3.78858137
C       16.56094551      37.75677490       3.29916072
C       18.08292961      36.04859924       4.12736511
C       15.26055908      38.15216446       2.91320252
C       14.19402027      37.32807541       3.13280678
C       19.12668610      36.92522049       4.03172493
H       13.54409313      35.41438675       3.82090640
H       19.69176865      38.98049545       3.63696790
H       15.80140972      34.58411026       4.37474537
H       17.45035362      39.70034027       3.03323245
H       18.24337959      35.03769302       4.48571730
H       15.10750771      39.15542221       2.54481554
H       13.17695141      37.64686203       2.93293095
H       20.12770844      36.59862900       4.29720879
C       19.69767189      55.26184464       9.36529827
C       22.73365784      51.41558456      10.40864182
C       20.08180046      54.64974594      10.52670002
C       22.27274132      51.94953537       9.23527718
C       20.90523911      53.50588226      10.49735832
C       21.34488678      53.01176071       9.25429726
C       21.28938866      52.85345459      11.68621159
C       20.90935707      53.64277649       8.06287670
C       20.11372948      54.74209595       8.12352562
C       22.19207001      51.83079529      11.63923836
H       19.10200119      56.16093826       9.39015961
H       23.49508286      50.65769959      10.39364052
H       19.80285072      55.07117844      11.49239540
H       22.63907242      51.58035278       8.28356075
H       20.85799789      53.16674805      12.63710213
H       21.26757431      53.28013229       7.11101627
H       19.86826515      55.25981140       7.22136354
H       22.49712753      51.33041763      12.54248428
C       26.30742264      44.97817230       2.87540793
C       21.34051704      45.14809799       2.12549257
C       25.43204689      45.99490356       2.60286689
C       22.23239326      44.13437653       2.31206918
C       24.06729507      45.72563934       2.36596560
C       23.60867882      44.39320755       2.43167996
C       23.13244438      46.75182343       2.12088943
C       24.54836845      43.35218430       2.62703156
C       25.85626602      43.64009857       2.87955832
C       21.79772758      46.47655487       2.02646661
H       27.35784149      45.18688583       3.05269885
H       20.27931404      44.93970489       2.08119321
H       25.77232742      47.02473450       2.57781267
H       21.88730049      43.12560272       2.40554762
H       23.49001503      47.77235794       2.05784416
H       24.19130898      42.34006882       2.58694005
H       26.54738045      42.85291672       3.10357213
H       21.07239342      47.27215195       1.92372751
C       -1.25181389      46.69528198      16.05499268
C        0.64318478      49.43909454      19.72304153
C       -0.36777419      47.74024200      16.04501915
C       -0.48524359      48.68593597      19.62407494
C       -0.11167928      48.46340561      17.22620010
C       -0.87716228      48.16365814      18.37023735
C        0.98965609      49.34347916      17.34191322
C       -1.94621348      47.23817825      18.27279091
C       -2.09854507      46.47411728      17.15750694
C        1.38455188      49.79049683      18.57296562
H       -1.26313567      46.00946045      15.22136211
H        0.99939817      49.74248886      20.69983292
H        0.21501711      47.95027924      15.17415142
H       -1.05520737      48.38885498      20.49711227
H        1.54628813      49.56769943      16.46271896
H       -2.57955384      47.09866714      19.13388443
H       -2.85637236      45.69822693      17.12081528
H        2.25871992      50.42399216      18.68045235
C       32.26505661      51.48953629       4.21626568
C       28.92055702      47.78668213       4.22032690
C       32.35736847      50.16629410       3.92235160
C       28.90909004      49.05649567       4.71477890
C       31.25912094      49.31030273       4.16921997
C       30.06692123      49.86172485       4.67722321
C       31.27936935      47.94707489       3.79612565
C       30.04980469      51.20842743       5.10223246
C       31.14629364      51.99924850       4.90297222
C       30.12800789      47.22157288       3.77377939
H       33.05284119      52.16337967       3.95675397
H       28.00630951      47.19145203       4.20627260
H       33.23396301      49.76784134       3.44294333
H       28.00839996      49.48960495       5.15015888
H       32.21445084      47.50492859       3.46385551
H       29.14498711      51.61487961       5.53875971
H       31.16618347      53.02439880       5.22571325
H       30.12676239      46.18095016       3.41794610
C       21.27815437      46.69913864      13.34775066
C       17.84365654      48.15430832      16.70358086
C       20.17506218      47.48931122      13.26843643
C       18.88695908      47.28145599      16.74223137
C       19.29034615      47.62507248      14.36693764
C       19.62272072      46.97671127      15.57430935
C       18.12697601      48.43570328      14.33035755
C       20.72252464      46.08314514      15.60800266
C       21.54499626      45.95739365      14.52244472
C       17.42355728      48.70600128      15.47506523
H       21.93898392      46.60131454      12.49483776
H       17.33984375      48.42344666      17.63456726
H       19.95961571      48.01471710      12.35830021
H       19.20455170      46.84893036      17.67975807
H       17.83913231      48.90549469      13.38255978
H       20.90497589      45.52406692      16.53322220
H       22.41023254      45.30370712      14.57028484
H       16.58379555      49.39850235      15.43580341
C        8.79687595      42.75048065       1.35600686
C       12.14472771      46.40637970       0.73507369
C       10.01667595      43.00292206       1.89489162
C       10.88135815      46.22366333       0.26122797
C       10.71676064      44.18920898       1.59782839
C       10.12312031      45.10173798       0.69212806
C       12.02265549      44.40862274       2.07449031
C        8.82547951      44.84917068       0.21180604
C        8.16072464      43.69888306       0.53723943
C       12.72887421      45.48139954       1.63287735
H        8.29456902      41.81602859       1.55843627
H       12.71902275      47.26188660       0.46874923
H       10.51597118      42.29552078       2.51916099
H       -8.36979675      46.90855789      28.07347870
H       12.46211910      43.70124054       2.76029873
H      -10.41965008      45.55913925      28.08357429
H        7.16715193      43.51601410       0.15732118
H       13.75540161      45.65982437       1.96196008
C       18.94818687      50.12133408      10.81204319
C       18.84582329      50.39923096       5.79793167
C       19.16183090      49.19464111       9.83233070
C       18.77206421      51.32207489       6.80024958
C       19.05401802      49.55973053       8.46468544
C       18.79349709      50.91329575       8.14719677
C       19.11348343      48.62548447       7.40616703
C       18.52443123      51.83544922       9.18029308
C       18.58190918      51.44576263      10.48387909
C       18.96153259      49.03426361       6.10439634
H       19.04011536      49.82573700      11.85875130
H       18.82659531      50.69478607       4.77499676
H       19.37689781      48.16000366      10.09493160
H       18.67315102      52.37150192       6.59034967
H       19.28743744      47.57442093       7.62778091
H       18.31519890      52.85707092       8.91337872
H       18.39104080      52.16649246      11.26936150
H       18.95754814      48.31441116       5.28615808
C       35.21728516      40.66994476       5.74396706
C       37.02410889      38.44167709       1.66193295
C       35.89104462      41.12607193       4.65904140
C       36.23588562      38.00426102       2.67987299
C       36.19195938      40.26850510       3.57623863
C       35.78925705      38.91652298       3.65502167
C       36.93259811      40.70906067       2.45170164
C       34.99341202      38.49166870       4.74914026
C       34.74189377      39.34780502       5.77755165
C       37.32881165      39.81353760       1.51002407
H       35.01142502      41.33995438       6.57032728
H       37.44562149      37.73476791       0.98253846
H       36.17911530      42.16762924       4.58681107
H       35.99183273      36.94347000       2.76546192
H       37.19626617      41.76224518       2.37613869
H       34.60881805      37.47164154       4.75910091
H       34.17792892      39.01605606       6.63707876
H       37.91607666      40.12865448       0.64100903
C       11.03688717      38.46808243       0.77231413
C       -6.58073807      43.09727859      27.71582031
C       12.16996860      39.22943878       0.84006613
C       -7.72862244      42.36308289      27.69417953
C       12.19307137      40.55204391       0.34727454
C       -7.77654219      41.07329941      28.27904511
C       13.37001133      41.34526825       0.38574016
C       -8.95031738      40.28341675      28.25819016
C        9.85944080      39.01132965       0.22375673
C       -5.42186928      42.58538818      28.33946228
H       11.03998280      37.45976257       1.12324142
H       -6.56772852      44.09930801      27.29850578
H       13.09915543      38.81841660       1.24193275
H       -8.64157295      42.76777649      27.24828529
H       14.26618481      40.94234085       0.85196263
H       -9.86398792      40.71079254      27.82514572
H        8.96001911      38.42030716       0.17907454
H       -4.53899431      43.19079208      28.37302971
C        3.93203712      40.63515854       6.91525793
C        3.33179736      38.66223145       2.25384688
C        4.62745810      39.48324203       6.20594311
C        3.18439984      39.94014740       2.77390265
C        3.94455075      39.15724564       4.90645313
C        3.52789211      40.20464325       4.09216118
C        3.96125364      37.85350800       4.41108465
C        3.82007885      41.61099625       4.52726841
C        4.07336140      41.85522461       6.03828573
C        3.69965839      37.61386871       3.07592392
H        4.43963957      40.79725266       7.86315155
H        3.12436461      38.49260330       1.21335089
H        4.61049747      38.60919189       6.84435987
H        2.89230943      40.75542831       2.12985611
H        4.29367495      37.05198288       5.04172373
H        3.12977147      42.31558990       4.07731152
H        3.52673054      42.70825195       6.42636442
H        3.77908087      36.61002731       2.68124771
C       25.32577896      34.07432938       7.10209227
C       23.64850235      35.38106537      11.64616966
C       25.33050156      35.23263931       7.81695080
C       23.57936287      34.22369766      10.92733860
C       24.75925446      35.29238892       9.10284519
C       24.14445686      34.14509201       9.63752365
C       24.83657646      36.46519089       9.87662315
C       24.14472389      32.94857407       8.87640953
C       24.72670174      32.91599274       7.64308643
C       24.32717705      36.50107193      11.13598347
H       25.79805756      34.02167511       6.12140322
H       23.24153900      35.45343018      12.62824345
H       25.78418541      36.14843369       7.43294001
H       23.09056664      33.34791183      11.34861755
H       25.25693703      37.34352875       9.42288113
H       23.68461609      32.06216431       9.28850174
H       24.73930740      32.00741196       7.05625868
H       24.34627914      37.42328262      11.71508884
7200
Lattice="39.763004303 0.0 0.0 0.0 58.9316482544 0.0 -18.8008785248 0.0 28.526468277" Properties=species:S:1:pos:R:3 step=1000 time_fs=500.0 pbc="T T T"
C       32.12773514      24.10825348       3.25409341
C       32.82833099      27.11717987       5.25806856
C       -3.21516323       1.90624869       5.30959845
C       36.25431442      27.42682648       3.25276017
C       32.80850601      24.96728134       2.47059798
C       31.96916008      27.99505043       5.95124388
C       35.72614288       1.05853128       6.05837727
C       36.39288712      26.51252937       2.24945903
C       33.05086517      24.65648079       1.11359096
C       31.66942596      27.78414917       7.30331516
C       -4.43932247       1.43563437       7.38407803
C       37.30572128      26.72474098       1.21008730
C       28.96525955      25.57255936       7.53115511
C       37.81408310      28.90089798       2.03240848
C       38.73315048       0.15436198       0.95917708
C       32.83402252      25.68638039       7.14204407
C       -1.26942050       0.64492571       2.19007134
C       33.26860809      25.91823006       5.87456703
C       29.38909531      25.21659660       6.27885962
C       36.97651291      28.65130424       3.09869504
H       31.94614220      24.45479012       4.23854446
H       33.07583237      27.41341400       4.19378376
H       36.87485886       1.61602354       4.34678888
H       35.57488251      27.34694290       4.08087778
H       33.06498718      25.90424538       2.91949534
H       31.64279747      28.84937859       5.47334576
H       35.46239471       0.04580300       5.66843843
H       35.91143799      25.54427338       2.26481748
H       29.34037781      26.53973770       7.88975716
H       38.36537552      29.76553345       1.84648800
H       38.18717957      58.22542572       0.54788345
H       33.13061905      24.71636200       7.52146578
H       -1.91852903       0.16947600       2.93954730
H       33.94753265      25.22633934       5.42646408
H       29.98244858      25.86169052       5.66604710
H       36.80175781      29.37331963       3.84297895
C       27.25150108      24.12902260      10.44662380
C       28.32325363      27.49545288      12.62730503
C       -7.35656261       1.58294260      12.79080868
C       30.83724976      27.08154106       9.90497780
C       27.92526627      25.07583618       9.64792156
C       27.64623070      28.43778038      13.31270123
C       -7.75361061       0.62310255      13.67791367
C       31.67159081      26.19200134       9.26357555
C       28.32542992      24.67782593       8.38130283
C       27.29955292      28.24876785      14.71254253
C       -8.10898113       0.94755632      15.05181885
C       32.08470917      26.58507347       7.96942186
C       24.62724304      25.22694969      14.58801365
C       30.91248512      28.66736984       8.05826855
C       -5.29846811       0.66613841       8.17236137
C       28.23680496      25.93065834      14.49016762
C       -5.48330688       0.90920097       9.46916485
C       28.60427856      26.19077683      13.19718552
C       24.95399475      24.84578514      13.31472969
C       30.53129005      28.38504982       9.33300877
H       26.95021248      24.28228188      11.51643562
H       28.73365784      27.66704559      11.63230324
H       -6.95489359       1.27823043      11.81964111
H       30.46916771      26.78755951      10.89233780
H       28.18926620      26.04954720      10.07977772
H       27.48367119      29.38532066      12.85357952
H       -7.78415155      58.55041504      13.34462929
H       31.97123337      25.20661736       9.64175797
H       24.93463707      26.21069336      14.93725395
H       30.56792641      29.57854080       7.60510063
H       34.02565765      58.66248322       7.80425024
H       28.29438400      24.94940186      14.97274113
H       -6.05699158       0.25561929      10.09187126
H       29.01272964      25.38691330      12.62294102
H       25.51148415      25.56936646      12.64280796
H       29.89087677      29.06828880       9.81751060
C       22.58560181      23.95949173      17.41444206
C       24.03486633      26.97215462      19.78299141
C      -11.54673004       1.51020777      19.47883606
C       26.81825256      27.68091774      17.38743019
C       23.43608284      24.68102264      16.62295723
C       23.38197899      27.88458824      20.56842422
C      -12.33837795       0.57754946      20.09357071
C       27.41098976      26.69389534      16.62804985
C       23.78812981      24.34374809      15.34124088
C       22.88586998      27.56410027      21.83186722
C      -13.02263165       0.89541775      21.30392456
C       27.63272858      26.99555397      15.29964256
C       19.91786957      25.58559036      21.67157555
C       26.62671661      29.14038658      15.50408268
C       -8.55091190      58.86878967      15.93195724
C       23.87181664      25.35954666      21.58723068
C       -8.74928284       0.30579641      17.22537613
C       24.13846397      25.64104462      20.27162933
C       20.09880257      25.24430084      20.39083290
C       26.34158516      28.81730461      16.79771233
H       22.36682510      24.47438622      18.36038780
H       24.49941063      27.19217110      18.82863617
H      -11.02895069       1.21558070      18.64223862
H       26.59271049      27.50210381      18.44451332
H       23.95279121      25.50930023      17.07235527
H       23.12028122      28.90492058      20.21036339
H      -12.20787525      58.52425003      19.62127876
H       27.54168701      25.69491196      16.97315598
H       20.25089073      26.49365234      22.19850159
H       26.36941910      30.15005684      15.12327099
H       -8.72950077      57.86185837      15.53178406
H       24.02389526      24.36445045      21.93259811
H       -9.00521374      58.43053055      17.90142441
H       24.71821213      24.96554565      19.64062500
H       20.65109062      25.92752838      19.71708107
H       25.80342293      29.42760658      17.51964188
C       18.24239540      24.14507675      24.68656731
C       20.28589439      27.09770775      27.61069298
C       22.06427956       1.01317513      26.42351723
C       22.01767921      26.95557404      24.40508080
C       19.10418510      24.92036247      23.92572784
C       38.95633316      28.03589821       0.06268188
C       21.09295273       0.42731547      27.22978592
C       22.78384209      26.05313301      23.71895027
C       19.29363251      24.63732910      22.59139061
C       38.02359390      27.87133026       1.09786761
C       39.63697433       0.78918594       0.04732047
C       23.18769264      26.28520584      22.38418770
C       33.77620697      25.45328522       0.26472244
C       22.17340851      28.47919655      22.59637451
C      -13.90863609       0.01730644      21.96305656
C       37.46564484      25.73962975       0.19344349
C      -14.62616634       0.39576852      23.05024719
C       19.49198914      25.95531273      27.64241409
C       15.37928295      25.05812263      27.54729080
C       21.72363281      28.18183327      23.82225227
H       18.07569122      24.41590500      25.74707603
H       20.81540298      27.44365501      26.80569267
H       22.16184807       0.68110329      25.42858124
H       21.60240364      26.65673828      25.33979988
H       19.36904907      25.93349648      24.30241966
H       20.64580345      29.01966286      28.46458626
H       20.36264420      58.67642212      26.81994820
H       23.16249847      25.13105965      24.13599205
H       34.19197464      26.42873764       0.52132285
H       21.99428558      29.44939995      22.25807571
H      -14.10951424      57.97568512      21.55134392
H       36.92388916      24.82175255       0.18819594
H      -15.21800804      58.54264069      23.53848267
H       19.61331177      25.17428398      26.94271851
H       16.09862328      25.70667076      27.03084946
H       21.16317749      28.83739281      24.47201157
C       31.78805733       1.64785349       3.22600746
C       32.36947632       4.87485647       5.59553194
C       -2.95019603       7.25022602       5.19540501
C       35.69245911       4.58462811       3.12887430
C       32.67437363       2.48704147       2.65024590
C       31.65687370       5.78542566       6.35111380
C       -3.71977973       6.48899746       6.03120947
C       36.52478790       3.81421328       2.38138866
C       32.84053421       2.36557102       1.21289647
C       31.51529503       5.47434998       7.69554520
C       -3.91310525       6.82885218       7.40275097
C       36.83419037       4.17236328       1.00344539
C       29.16384506       3.44090891       6.17000961
C       35.58036041       6.23873377       1.35355115
C        0.00908024       5.70834255       0.84205472
C       32.67930603       3.29271221       7.43325806
C       -0.40318531       6.02867556       2.10919642
C       32.82293320       3.66036391       6.11064434
C       29.10601425       2.85427523       4.94486666
C       35.25792313       5.78717804       2.61727095
H       31.77552223       1.62753940       4.38682890
H       32.77180862       5.17101240       4.59435129
H       36.87887192       6.99394274       4.14745045
H       35.31767654       4.17478752       4.13518143
H       33.28514099       3.26633787       3.14954209
H       31.24947548       6.64877319       5.96068287
H       35.56580734       5.58686304       5.69257832
H       36.79757690       2.79940200       2.72973061
H       29.61392975       4.43972445       6.15864801
H       35.33856964       7.21718645       1.06369579
H       -0.12534620       4.72325277       0.36544475
H       32.92580414       2.36354804       7.84182978
H       -1.02488852       5.42547894       2.77386189
H       33.23101425       2.98667598       5.40184975
H       29.56893349       3.43585968       4.19483995
H       34.59002304       6.40646410       3.10999060
C       28.11667824       2.71611643       9.66470814
C       28.05621910       4.65709639      12.52736473
C       -7.71027184       7.37964678      12.86907768
C       31.35911751       4.95728779      10.47492218
C       28.69016647       3.41407752       8.58033848
C       27.17423248       5.44184875      13.26772976
C       -8.49989891       6.56168604      13.56888580
C       31.94279289       4.06519604       9.65804863
C       28.71980476       2.77936363       7.33855152
C       26.81222534       5.07145739      14.60097694
C       -8.96922684       7.01849651      14.81700134
C       32.02204895       4.27079678       8.24952888
C       24.48484993       2.74494886      14.57117748
C       30.91328430       6.47498083       8.57365894
C       -4.66800880       6.04038620       8.29866600
C       28.52963066       3.35436368      14.46938515
C       -5.01345491       6.46880722       9.53709221
C       28.76189613       3.67496419      13.17182159
C       24.45244789       2.79388142      13.20546818
C       30.90409470       6.20520592       9.92589092
H       28.00132942       3.15028048      10.59916306
H       28.18241310       4.95602274      11.48095608
H       -7.44492054       7.10815477      11.83672428
H       31.22684479       4.64950943      11.52729034
H       29.22942924       4.38096190       8.79671001
H       26.71045303       6.30304861      12.85373688
H       30.97969627       5.61292076      13.20625401
H       32.28635406       3.06662989      10.01725101
H       24.61813545       3.67380524      15.04834366
H       30.54397202       7.44046545       8.21420097
H       34.53997421       5.07265329       7.89950275
H       29.15179443       2.65550756      15.05988693
H       -5.77468681       5.95073557      10.11170578
H       29.53843689       3.06974697      12.73667431
H       24.56445122       3.76255488      12.72021770
H       30.47187805       6.94168186      10.53600025
C       24.79900551       0.30032185      17.27638817
C       23.50464821       4.77642488      19.54795837
C      -12.28183460       7.51891947      19.60325050
C       26.34861374       4.42428160      17.30177879
C       24.63459969       1.48146284      16.59609795
C       22.84619331       5.55690289      20.43585205
C      -12.99096966       6.57615709      20.34887314
C       27.23043633       3.74129915      16.54501915
C       24.56739998       1.49106455      15.24234581
C       22.42601967       5.12644434      21.73437691
C      -13.39846611       6.85127449      21.64958382
C       27.45280457       3.98205709      15.20433903
C       19.62580490       3.42666626      21.53427124
C       25.96103668       5.89633560      15.40791512
C       -9.72386169       6.07240343      15.69315910
C       23.49103546       3.04477072      21.23510170
C       -9.81258774       6.32475996      17.02523422
C       23.88745880       3.49940896      20.02575874
C       20.07442093       3.15395713      20.24323273
C       25.75714684       5.61069536      16.72852898
H       24.93355370       0.31230599      18.30129433
H       23.79270363       5.01136398      18.50485420
H      -11.98262787       7.33672810      18.60745811
H       26.29911613       4.36118364      18.41366386
H       24.58911896       2.45796227      17.12186241
H       22.53349876       6.60301208      20.24352837
H       26.54227448       5.69455862      19.81381989
H       27.90605927       3.06061721      17.07910728
H       19.94007301       4.30752325      22.00032234
H       25.60969353       6.79252529      14.97776222
H       29.69598389       5.12595797      15.26276302
H       23.61884689       1.96636617      21.55941582
H      -10.30111122       5.58071470      17.63511467
H       24.43457603       2.80249715      19.42244530
H       20.65711021       3.84570193      19.70659256
H       25.17166901       6.29696321      17.28326607
C       17.61203194       1.72823548      24.28169632
C       18.48239899       4.82561922      26.90807152
C      -16.93842316       7.17158318      26.63958549
C       21.51668739       4.18525076      24.20385933
C       18.37863731       2.65766168      23.63729286
C       17.91844177       5.75656033      27.69434929
C      -17.56292534       6.27102375      27.39538574
C       22.24446678       3.35118651      23.37541008
C       18.91893387       2.50431967      22.29723549
C       36.37936401       5.41847086       0.54055822
C        0.76291656       6.63816977       0.13537969
C       22.74995613       3.82045245      22.15129089
C       33.71061707       3.22738266       0.55672419
C       21.71468925       5.96295071      22.59750557
C      -14.19788551       5.95881081      22.41748238
C       37.42430115       3.22227860       0.10628252
C      -14.61963558       6.21031904      23.66305542
C       18.80444908       3.57815146      27.35297775
C       15.17376900       3.01481915      27.76339340
C       21.29561615       5.55056858      23.87660408
H       17.13986778       1.88249850      25.19045639
H       18.64648056       5.12942553      25.86330414
H      -16.60873795       6.82605219      25.68051529
H       21.32250214       3.87798023      25.25340462
H       18.54727554       3.61929250      24.14040756
H       17.67478561       6.78178072      27.38389969
H       21.90005302       5.25206709      27.06663132
H       22.40383530       2.30536818      23.64151001
H       34.15771866       4.04866028       1.10984957
H       21.31519890       6.85917521      22.10790253
H       25.31378174       5.07303667      21.82076836
H       37.57372665       2.15470862       0.45654237
H      -15.25936413       5.54482603      24.23653984
H       19.23724556       2.83515954      26.72992134
H       15.77860451       3.66808724      27.10337257
H       20.78696823       6.19662428      24.61050224
C       31.91813278       7.38297558       2.96453667
C       32.72373199      10.69602203       5.52336550
C       -3.29924679      12.80311680       5.34997654
C       35.74954605       9.99413204       3.20906901
C       32.63363266       8.23085690       2.17249298
C       31.97910881      11.47168255       6.39013290
C       -3.94740462      11.90384960       6.17620659
C       36.62245178       9.30168915       2.45614648
C       32.88801956       8.02940559       0.79375619
C       31.71782303      11.02150917       7.68809271
C       -4.13344240      12.23730946       7.56858063
C       36.87181473       9.57835865       1.12457490
C       28.94417381       8.76495552       7.14387035
C       35.46621704      11.52048206       1.42325938
C       -0.00739636      11.44765282       1.33806074
C       32.83005905       8.90782642       7.15916872
C       -0.31285241      11.91786194       2.58604550
C       33.09804916       9.40613461       5.92844868
C       29.13483810       8.61518288       5.78491735
C       35.15295792      11.18763351       2.70149016
H       31.53039742       7.77478695       3.92422748
H       33.00255585      10.99998760       4.51664829
H       36.68755722      12.46838188       4.36579800
H       35.62056351       9.71766472       4.25444126
H       32.90545654       9.17366314       2.58067942
H       31.63386536      12.44620895       6.15268755
H       35.49679565      10.91856384       5.77984095
H       37.24565887       8.48996449       2.86985445
H       29.38096428       9.62936974       7.61216116
H       35.02626801      12.30911732       0.92435443
H       -0.35570902      10.40744972       0.99088967
H       33.07873535       7.94445324       7.49257183
H       -0.94254756      11.35525513       3.25935936
H       33.68827820       8.68832397       5.32809210
H       29.82799530       9.30001926       5.41555405
H       34.58685303      11.83884621       3.37761927
C       26.98229980       7.22688437       9.99029446
C       28.25240135      10.16373539      12.21240425
C       -7.64476442      12.72982693      12.72447014
C       31.33855438      10.06266880      10.32358551
C       27.85756302       8.11137390       9.36056328
C       27.58458710      11.05060101      12.94723797
C       -8.52585220      12.03126431      13.42352295
C       32.03711700       9.34454727       9.42625427
C       28.07846451       7.95453453       7.90965271
C       27.08762932      10.69039536      14.19904232
C       -8.94204617      12.43836308      14.76243114
C       32.23881531       9.78498936       8.10883045
C       24.16264153       8.86093044      14.37601948
C       30.93173218      11.67358303       8.66697979
C       -4.85865211      11.39768887       8.51416111
C       28.04973221       8.47669315      13.86714363
C       -5.16823483      11.77545929       9.79127312
C       28.44629097       8.82241726      12.63985062
C       24.44138336       8.69334984      13.07890320
C       30.70383263      11.23479176       9.94677639
H       26.73144341       7.40491390      11.03512096
H       28.70023537      10.44886112      11.28387165
H       -7.30326033      12.34211636      11.76297379
H       31.29622841       9.67631245      11.34878445
H       28.30456162       8.98763084       9.85036755
H       27.73114586      12.06924725      12.59974480
H       30.78557587      11.08976555      13.08871460
H       32.51642990       8.42934990       9.66587543
H       24.39630890       9.79904366      14.78808212
H       30.48588181      12.65861702       8.42537498
H       -5.15421295      10.40934944       8.25498962
H       28.28285217       7.50178576      14.15468597
H       -5.83443451      11.14622498      10.42311001
H       28.99226189       8.11868477      12.01129913
H       24.89455223       9.61290169      12.51377010
H       29.90656281      11.88917732      10.50956726
C       22.69068718       6.83574772      17.20142174
C       23.24821854       9.88321495      20.09390640
C      -12.28394508      12.87997150      19.73930550
C       26.43275642       9.94179058      16.83924866
C       23.23670006       7.95066309      16.47828484
C       22.63802910      10.87881470      20.83409691
C      -13.22107506      12.16890049      20.52514076
C       27.15744019       9.05536652      16.05998230
C       23.47986794       7.82206917      15.09830379
C       22.29371071      10.65028572      22.21355057
C      -13.40520763      12.47256184      21.90316200
C       27.35660172       9.37525845      14.69335461
C       19.50663376       8.90249634      21.43244934
C       26.34818649      11.59218216      15.04097080
C       -9.80163479      11.63870049      15.47021484
C       23.47174454       8.47938538      22.06637573
C      -10.07171822      11.92223835      16.78687859
C       23.64213943       8.68928337      20.74324226
C       19.82734489       8.53779984      20.15686989
C       26.00225830      11.19344807      16.32786179
H       22.58369827       6.94825983      18.25438118
H       23.58688354      10.09456921      19.06232071
H      -12.00778103      12.61280155      18.74477768
H       26.38781548       9.74420071      17.90568161
H       23.54127502       8.90338612      16.95406342
H       22.20516968      11.78488922      20.39416695
H       26.10083199      11.29364204      20.03050041
H       27.40949631       8.05150700      16.30458450
H       19.63950348       9.92366982      21.67630005
H       26.10692978      12.64329720      14.76744270
H       29.42565537      10.77850151      15.03107548
H       23.54437637       7.47236252      22.45100784
H      -10.77069569      11.26263809      17.22876167
H       24.14751434       8.01774883      20.06102562
H       20.18600655       9.32416248      19.50760651
H       25.57618523      11.91162109      17.03722954
C       17.63046455       7.68694019      24.35784340
C       18.57401085      10.27525616      26.95810699
C      -17.06549263      12.58762455      26.75343513
C       21.37316322      10.02992153      24.75107193
C       18.43356895       8.45707703      23.60528564
C       17.74197197      11.06131363      27.78341866
C      -17.93615532      11.84930325      27.56547165
C       22.24281883       9.15347958      24.11839867
C       18.78745842       8.04846478      22.29202461
C       36.21400452      10.70371056       0.54739296
C        0.59161127      12.34663963       0.32663435
C       22.70272064       9.44723606      22.80330086
C       33.64572525       8.90484238       0.03757793
C       21.47274208      11.59107494      22.87413788
C      -14.05955791      11.56353855      22.74142456
C       37.67219162       8.74515915       0.28061688
C      -14.39150333      11.95349979      24.00592995
C       19.06540108       9.06726646      27.50688362
C       15.16642475       8.71865177      27.28694153
C       21.02908134      11.29610538      24.17102432
H       17.33224297       7.84098625      25.35111046
H       18.92671967      10.74815273      26.02346611
H      -16.74449158      12.32197571      25.75482941
H       20.78063774       9.67021656      25.61643219
H       18.75137138       9.38473988      24.04200172
H       17.22189903      11.92237473      27.30403137
H       21.49142456      10.90380001      27.29555511
H       22.39683914       8.18072224      24.52871895
H       33.82762909       9.84154510       0.58505827
H       21.19291496      12.47881699      22.28487206
H      -14.55422401      10.71708965      22.30863190
H       37.96339416       7.79552889       0.76408190
H      -15.05326080      11.39756393      24.63072205
H       19.65656090       8.43484402      26.85739517
H       15.61412334       9.45115566      26.65796280
H       20.40940285      11.95531273      24.71445465
C       32.02787018      12.92131424       3.03844595
C       32.85233688      16.06455803       5.44644642
C       -3.13982177      18.19251251       5.54683924
C       35.59326172      15.68716049       3.15957117
C       32.75957870      13.75772095       2.23849678
C       32.05659485      16.80526352       6.23740959
C       -4.00521612      17.45982933       6.34846401
C       36.55244827      14.92764568       2.50001287
C       32.99214554      13.50239658       0.85104614
C       31.76478386      16.38633347       7.58368444
C       -4.25132608      17.81918907       7.67097998
C       36.80608368      15.19959831       1.11723518
C       29.00959969      14.43698883       7.29594088
C       35.47040939      17.17486954       1.23668730
C       -0.19086844      16.80899620       1.13803029
C       33.07017517      14.29744434       7.18769741
C       -0.51563865      17.14889145       2.41578674
C       33.27837753      14.80891800       5.89569187
C       29.32478142      14.06372261       6.02285957
C       35.11051559      16.82540131       2.49056339
H       31.71205330      13.15537643       4.06047678
H       33.13404083      16.36731720       4.49151754
H       -2.92108226      17.85503006       4.54241467
H       35.36273956      15.45132160       4.21657991
H       33.09067154      14.70984745       2.62196898
H       31.63727760      17.74351692       5.82431841
H       35.28287506      16.56201935       5.91983414
H       37.00801468      14.05674362       3.01889777
H       29.15242767      15.45532227       7.54647732
H       35.10434341      18.06559181       0.77776456
H       -0.47604916      15.81107998       0.82360548
H       33.31261826      13.27100754       7.57685947
H       -1.18198860      16.60454750       3.04951024
H       33.87500381      14.25232887       5.20700264
H       29.97122765      14.74663067       5.49273396
H       34.40363693      17.45178986       3.07902670
C       27.04328918      13.30616093      10.21291351
C       28.05369568      15.87477398      12.60877800
C       -7.88176346      18.31202316      12.55879307
C       31.02938461      15.42970657      10.09663010
C       27.67729568      14.12984180       9.38204861
C       27.36734200      16.74258995      13.40899563
C       -8.53237057      17.44570160      13.37549973
C       31.77740669      14.67138577       9.30489731
C       28.17070198      13.69004536       8.08803082
C       27.13287544      16.35195351      14.77000999
C       -8.81594086      17.75723457      14.70080185
C       32.23793411      15.12232971       8.02698135
C       24.42096710      14.39745045      14.43982124
C       30.93822098      17.17933464       8.41310120
C       -5.06512165      17.02188873       8.50855732
C       28.05148315      14.16525269      14.28927612
C       -5.36153650      17.42713737       9.78911209
C       28.29463005      14.54303932      13.01142979
C       24.74405670      14.08125591      13.15518856
C       30.70486069      16.80781746       9.75707722
H       26.65046501      13.67831707      11.19665813
H       28.38857841      16.27013779      11.63524151
H       -7.57116699      17.93352318      11.58750343
H       30.65808105      15.09037876      11.05479145
H       27.92582130      15.16942501       9.67856121
H       27.20874023      17.76351547      13.09402657
H       30.93303108      16.46281052      12.99251461
H       31.97402763      13.69638634       9.62495804
H       24.73488617      15.28014660      14.99423313
H       30.74384308      18.25107765       8.18231297
H       -5.31138229      15.97484493       8.27435684
H       28.40462112      13.14192200      14.60909939
H       -6.01153660      16.81940651      10.43334770
H       28.78434372      13.87010002      12.39362335
H       25.36633873      14.72280693      12.57361698
H       30.14902306      17.46636391      10.46287632
C       22.54540062      12.99185753      17.26384544
C       23.51840973      15.93526936      19.69311714
C      -12.27992821      18.35006332      19.91634750
C       26.75429344      15.65207672      17.44466972
C       23.22925758      13.90638828      16.56225014
C       22.77609444      16.77698326      20.53727722
C      -13.16619301      17.60754585      20.69296074
C       27.28664589      14.75599003      16.59740067
C       23.58491898      13.54855156      15.18709087
C       22.45129204      16.33116722      21.79483604
C      -13.50233841      17.95961761      22.04995728
C       27.50951958      15.09933281      15.22156811
C       19.70278358      14.33616257      21.66683769
C       26.50912857      17.27264786      15.69976521
C       -9.58697700      16.84911728      15.53382015
C       23.52772141      14.14490318      21.30368233
C       -9.87486839      17.20149231      16.82318497
C       23.77697945      14.58070374      20.08388519
C       20.00301170      13.89186287      20.35849190
C       26.34853745      16.94586182      17.03798103
H       22.33025551      13.24472427      18.32915878
H       23.75676727      16.33278084      18.70485687
H      -12.00545979      17.98998261      18.98258591
H       26.64438057      15.40217686      18.49631310
H       23.51411438      14.82580757      17.03579521
H       22.48450088      17.79225159      20.32652855
H       26.24886894      16.67564583      20.32673645
H       27.52468491      13.77439213      16.93543625
H       20.19519997      15.27127933      22.10363197
H       26.11817551      18.16883278      15.21148205
H       -9.89937401      15.88979721      15.17576122
H       23.67682648      13.10110569      21.55976677
H      -10.43191338      16.56249809      17.48687935
H       24.22150803      13.91805744      19.31721878
H       20.74109268      14.42739582      19.78406906
H       25.85524178      17.57871056      17.76356125
C       18.02812767      13.01073360      24.67873383
C       18.77144623      15.91370583      26.93243217
C      -16.90722656      18.23418236      26.72375679
C       21.77531815      15.27426338      24.32830048
C       18.88029861      13.77037334      23.89612007
C       17.90923119      16.71149063      27.66437912
C      -17.76597977      17.37972641      27.45006180
C       22.55053902      14.55049801      23.54290390
C       18.91397667      13.51143646      22.53630829
C       36.36687088      16.41221619       0.45607293
C        0.67751729      17.60897064       0.32788956
C       22.82786179      15.05335236      22.21783066
C       33.81365204      14.35050201       0.09176223
C       21.68171310      17.08661079      22.65908623
C      -14.20950603      17.04141998      22.86891747
C       37.54175949      14.33505726       0.29081440
C      -14.53126717      17.48443222      24.10373688
C       19.06321716      14.62433147      27.54808044
C       15.33328629      13.97332573      27.31961250
C       21.32821655      16.54950714      23.85973549
H       17.86223412      13.29391289      25.72870255
H       19.12166023      16.22128296      25.89060402
H      -16.54087257      17.82307434      25.79766655
H       21.46894646      14.98112774      25.31742859
H       19.22805595      14.68173409      24.37227249
H       17.65713120      17.70282936      27.24020004
H       21.68295670      16.54060554      26.83168221
H       22.80620956      13.56879616      23.80976868
H       34.09234238      15.23142529       0.60182691
H       21.22746277      18.06581879      22.47225189
H      -14.50979710      16.09293747      22.52458572
H       37.83983231      13.29913425       0.59442675
H      -15.00368309      16.74694252      24.75376511
H       19.59829521      13.94748974      26.89856338
H       16.05940628      14.64014053      26.78965378
H       20.72529793      17.08425331      24.52362633
C       31.85832787      18.56168747       3.23481679
C       32.83570862      21.11536217       5.72385836
C       -3.40437841      23.50603294       5.52982998
C       35.87554550      20.96619987       3.25587463
C       32.65244293      19.41972542       2.53244853
C       32.14123535      22.08338356       6.36414242
C       -4.07778502      22.69677162       6.42357397
C       36.61839676      20.18647194       2.38935161
C       32.93137741      19.16144371       1.15977406
C       31.68869591      21.85623741       7.70383930
C       -4.42739153      23.19786263       7.71226454
C       36.85032272      20.55020905       1.06821096
C       29.10552788      19.77288055       7.06673336
C       35.70816040      22.64278793       1.44183445
C       -0.26633576      22.55320549       1.17945278
C       32.71932602      19.62142181       7.53957653
C       -0.69482774      23.00839424       2.33980632
C       33.10646057      19.81124115       6.25200558
C       29.34378433      19.42578506       5.78389215
C       35.39765930      22.23312187       2.66027689
H       31.60474586      18.71503830       4.36545563
H       33.07517242      21.33437920       4.67715073
H       36.60942078      23.17534828       4.52726221
H       35.61859131      20.78282356       4.28469229
H       33.10868454      20.25271988       2.94028425
H       32.16065979      23.08761406       5.97194862
H       35.20933914      21.77529716       6.06841516
H       37.07976532      19.31103706       2.74536490
H       29.40049744      20.80119896       7.37370443
H       35.30888748      23.55556679       1.05074692
H       -0.51143157      21.57379723       0.81895334
H       32.95415115      18.65846252       8.02131367
H       -1.32712114      22.49313164       3.01623511
H       33.50760651      19.11562729       5.52616596
H       29.92436409      20.09288216       5.16013718
H       34.77080154      22.98112679       3.18865395
C       27.27072716      18.60761452      10.13354015
C       28.21184158      21.51262093      12.96177578
C       -7.73547411      23.95832634      12.81427288
C       30.81954765      21.37508583      10.28914261
C       28.02019882      19.38791275       9.28933048
C       27.61650658      22.35426140      13.85660648
C       -8.50971890      23.13720894      13.64290047
C       31.45161247      20.37906075       9.62573242
C       28.29931831      18.97029304       7.97964239
C       27.28137398      21.99805260      15.19730949
C       -8.99161625      23.65726089      14.87966251
C       31.88484383      20.54941559       8.27723885
C       24.34707069      19.98664474      14.73934841
C       31.02388191      22.90497398       8.46582603
C       -5.08880711      22.39694977       8.65006924
C       28.30473328      19.87223816      14.78544140
C       -5.30117655      22.76863670       9.92422485
C       28.61270142      20.23238754      13.49788570
C       24.76314926      19.65310287      13.51091480
C       30.56624794      22.65129280       9.67976570
H       27.12855339      18.86544800      11.21162605
H       28.48267555      21.89105225      11.92334366
H       -7.25846767      23.57148743      11.91721630
H       30.48587036      21.23728371      11.27931976
H       28.31874847      20.34656143       9.62654495
H       27.29772377      23.37558365      13.56370831
H       -8.83214569      22.10917282      13.54714108
H       31.57940292      19.40723038      10.15429211
H       24.61513901      21.03577423      15.09099102
H       30.97945976      23.86169243       7.93782520
H       -5.34245586      21.36114502       8.42060661
H       28.58063889      18.87720871      15.19844055
H       -5.70044899      21.99980545      10.61818695
H       29.19703484      19.51848412      12.95322990
H       25.49547195      20.30868340      12.99275398
H       30.21176338      23.45454788      10.25224495
C       22.40519714      18.41492271      17.55471992
C       23.49644852      21.18098259      19.76547050
C      -12.45363045      24.09727859      19.61557770
C       26.34210205      21.09169388      17.70701408
C       23.19639206      19.28848457      16.85832977
C       22.88980675      22.15109253      20.54059601
C      -13.14185333      23.24916649      20.44025421
C       27.07487297      20.25042343      16.91488075
C       23.58567429      19.03058243      15.50884533
C       22.61015892      21.83934784      21.89996719
C      -13.42681503      23.52394676      21.81350708
C       27.59495926      20.75294685      15.69975090
C       19.79316711      19.99028587      21.69508743
C       26.52945518      22.83212471      15.99417019
C       -9.63197708      22.83427620      15.80612087
C       23.58947372      19.68613243      21.64758492
C       -9.90595531      23.28365707      17.01323128
C       23.88162613      19.99118614      20.35951805
C       20.09078979      19.63808441      20.40549850
C       26.09175873      22.44199562      17.19006729
H       22.05757713      18.68551064      18.57127190
H       23.84356308      21.42998695      18.69820023
H       27.44595909      23.92823792      18.57505798
H       25.77882004      20.76245499      18.57874298
H       23.39803314      20.28083801      17.30449295
H       22.64573479      23.17236710      20.30172920
H       26.20531464      22.31834984      20.03393745
H       27.26117516      19.24636269      17.11453819
H       20.25122643      20.91435814      22.08072281
H       26.36350632      23.83228874      15.62074661
H       -9.70753384      21.80896759      15.62482834
H       23.86922646      18.65866089      22.06455612
H      -10.42238235      22.65478134      17.75787544
H       24.56162834      19.33682823      19.80136681
H       20.67045975      20.26807404      19.81550217
H       25.48831940      23.14230728      17.79376602
C       18.01032257      18.60571289      24.75062942
C       18.84724617      21.39971352      27.00770950
C      -16.91366005      23.87893295      26.86356926
C       21.91554642      21.23532486      24.52289200
C       18.78972816      19.45651436      24.02465057
C       18.12144852      22.22038078      27.81717300
C      -17.76557541      23.06870270      27.61095810
C       22.57787514      20.35348892      23.77821922
C       19.08953285      19.13636398      22.61272812
C       36.48633575      21.83248711       0.60928327
C        0.56882375      23.37139130       0.36203581
C       22.91306686      20.61572647      22.46865463
C       33.84036636      20.00053024       0.52183419
C       22.07677460      22.89168549      22.76006508
C      -14.09199429      22.60825157      22.60428429
C       37.64906311      19.70634842       0.24144399
C      -14.48739433      22.96696663      23.87621689
C       19.31147194      20.16243935      27.51391220
C       15.43387032      19.73859024      27.76828957
C       21.64988136      22.52676582      23.98152924
H       17.66308594      18.86842155      25.76228714
H       19.18885612      21.71534729      26.04087830
H      -16.64822769      23.49159622      25.91122246
H       21.68724823      20.80664253      25.51162910
H       19.29004288      20.31591797      24.48384666
H       17.86949158      23.13261032      27.34188461
H       21.61351585      22.18500900      27.18984604
H       22.73814011      19.37079048      24.22828102
H       34.21236420      20.76565170       1.17761385
H       21.76607323      23.88396072      22.39999008
H      -14.44552898      21.67505455      22.28861809
H       37.98783112      18.72976303       0.58494955
H      -15.24160480      22.30417633      24.33747101
H       19.88927841      19.51859283      26.85600472
H       16.19700241      20.36409950      27.24552536
H       21.22862053      23.36908722      24.56538963
C       -0.33969066      24.35253143       2.76904273
C        0.32312632      26.41784859       5.36091614
C        4.04938316       1.41195560       5.18558884
C        3.44565940      26.92081451       2.62454343
C        0.44853443      25.15557480       2.05934453
C       -0.52431226      27.30407333       5.98523903
C        3.26301002       0.65337425       6.03631926
C        4.29731941      26.00497055       2.06565475
C        0.99106592      24.67023087       0.82308042
C       -0.74661332      26.98802757       7.34385395
C        3.07036734       1.08395422       7.36600733
C        4.93491459      26.32888985       0.82386357
C       -3.38581085      25.29233551       7.15435028
C        3.89284778      28.58552933       0.94604474
C        6.67395782       1.12750268       0.82319731
C        0.59828067      25.02055168       7.26037979
C        6.42196178       1.43339860       2.12027192
C        0.96335840      25.33081436       6.02595329
C       -3.02059078      24.76036453       5.95106077
C        3.22933912      28.24445152       2.10512924
H       -0.72680581      24.71170998       3.75882697
H        0.51662314      26.65346336       4.33246708
H        4.18230295       1.09931242       4.18308163
H        2.97563171      26.71616554       3.57349825
H        0.71181321      26.14759445       2.43938589
H       -0.96735942      28.09760094       5.37000895
H        2.80212021      58.56845093       5.82313538
H        4.30778790      25.00513458       2.42772102
H       -3.09550548      26.29084015       7.28152561
H        3.68598676      29.59288979       0.51290762
H        6.08427811       0.34283999       0.27871779
H        0.97546053      24.15165710       7.81455326
H        5.51717710       1.02016079       2.58927703
H        1.63826704      24.71519661       5.52695560
H       -2.49710679      25.51065254       5.31779242
H        2.70921564      28.97541618       2.69129348
C       -4.94093704      24.09580612      10.38891888
C       -3.65705490      26.72736168      12.80884552
C       -0.05161431       1.99140704      12.29152775
C       -1.28060186      26.53604698      10.06472111
C       -4.34090662      24.83554077       9.45597553
C       -4.36177778      27.68087387      13.53499508
C       -0.97542888       1.26792538      13.00845718
C       -0.55483264      25.67075729       9.38914585
C       -4.03624153      24.46624184       8.09905720
C       -4.89164591      27.37416458      14.79622555
C       -1.11734653       1.56317711      14.39926243
C       -0.26038456      25.88451195       7.96105480
C       -7.83640003      25.82118034      14.26384830
C       -1.57685173      27.81215286       8.11558056
C        2.24070287       0.39964491       8.23230743
C       -3.88945603      25.06660843      14.59341049
C        2.03954005       0.85698593       9.51064777
C       -3.45032144      25.42711830      13.32333660
C       -7.50194120      25.31782913      13.05266762
C       -1.91857791      27.61091804       9.39085102
H       -5.17335701      24.52910042      11.33423424
H       -3.30356503      27.07446098      11.80991268
H        0.02389078       1.75133884      11.28183746
H       -1.31953061      26.45738792      11.17300701
H       -3.99021220      25.88661575       9.68795204
H       -4.46460962      28.70418358      13.15427399
H       -1.47684932       0.42194906      12.57391548
H       -0.15799834      24.73439598       9.80721378
H       -7.69184113      26.79914665      14.65814781
H       -1.96313870      28.67886734       7.58329248
H        1.77696276      58.34938431       7.94229841
H       -3.72388792      24.08330727      14.96155643
H        1.30692482       0.38785997      10.15769577
H       -2.85208392      24.74863052      12.82305527
H       -6.97996569      25.91027832      12.27425671
H       -2.59660292      28.28576469       9.88428688
C       -9.60012817      24.59233475      17.34980774
C       -8.78070545      27.33771324      19.53380013
C       -5.37550306       1.70481813      19.49532890
C       -5.78323650      26.61011124      17.37054443
C       -8.93612003      25.38871002      16.50436592
C       -9.58518028      28.22108078      20.29673576
C       -6.16073704       0.86915189      20.27222061
C       -4.98771906      25.77484894      16.67643738
C       -8.65244389      24.99140549      15.16303635
C       -9.86198711      27.90289307      21.68869019
C       -6.19802046       1.13143408      21.72042274
C       -4.65106392      26.06289673      15.29184532
C      -12.30644894      25.61133766      21.46437263
C       -5.72867489      28.25535393      15.60110760
C       -1.94746315       0.67374867      15.13352108
C       -8.56612778      25.79155540      21.43705368
C       -2.25906730       0.91967040      16.44039345
C       -8.30449390      26.15950584      20.12100601
C      -11.97494507      25.30715752      20.15795136
C       -6.21008348      27.90273666      16.84494019
H       -9.94627571      24.97339821      18.32926941
H       -8.55634403      27.48994446      18.43234825
H       -5.28806639       1.47723794      18.40127754
H       -5.97178841      26.44703102      18.38863945
H       -8.66512871      26.43563652      16.71105576
H       -9.91499901      29.15509033      19.85659027
H       -6.76418304       0.01875783      19.98046494
H       -4.82251215      24.72785759      17.07014847
H      -12.03968334      26.61886406      21.90245247
H       -6.06009865      29.24277687      15.20436096
H       -2.26171875      58.73350906      14.56040955
H       -8.22252750      24.81797028      21.80187225
H       -2.80070758       0.17707656      17.09442902
H       -7.76703072      25.35651398      19.55064392
H      -11.38757801      26.04254532      19.64025879
H       -6.88666916      28.56837273      17.35969543
C      -14.30782127      24.28111076      24.34778213
C      -12.75057316      26.99031258      26.89366722
C       -9.35127354       1.58248758      26.84134293
C      -10.32963371      27.19324303      24.38685989
C      -13.44659138      25.12565804      23.65773010
C      -13.43920994      27.92111778      27.61958694
C      -10.37252903       1.01513255      27.47006989
C       -9.62370586      26.37677002      23.62561989
C      -13.03413200      24.78810120      22.34548950
C        4.72215748      27.60135269       0.25525630
C        7.85307789       1.53626108       0.15464333
C       -9.33966351      26.65826607      22.23609924
C        1.83903790      25.56046677       0.04661152
C      -10.63387966      28.74246407      22.54248619
C       -6.97217178       0.31123939      22.59547424
C        5.76299572      25.42145348       0.08999633
C       -7.14856005       0.73746848      23.87342644
C      -12.55382824      25.70743179      27.38739586
C      -16.49758339      25.14797401      27.38081169
C      -10.84990883      28.42511368      23.89432144
H      -14.69371033      24.63263512      25.28910637
H      -12.49153233      27.15547180      25.82810402
H       -9.01108360       1.23130476      25.89127731
H      -10.60692978      26.88461304      25.34307480
H      -13.24884892      26.05978966      24.11031342
H      -13.62806416      28.81675529      27.06299591
H      -10.89280605       0.23332709      26.92959023
H       -9.30978107      25.32880974      23.97486496
H        2.15167809      26.59851074       0.26123872
H      -11.02322769      29.66722679      22.13517571
H       -7.49515820      58.42038727      22.15822029
H        5.93615532      24.46074867       0.51771373
H       -7.84233713       0.12278629      24.46446419
H      -11.96811676      24.96073723      26.95522690
H      -15.97592258      25.91531563      26.80990219
H      -11.47642899      29.09184837      24.48193741
C       -0.52622741       1.73225617       2.70225000
C        0.79216647       4.69789791       5.25815201
C        4.81033087       7.11585999       5.50317383
C        3.40523934       4.10702038       2.64287043
C        0.37386185       2.36060214       1.93613112
C        0.14013721       5.52173615       6.09675407
C        3.97191262       6.25540590       6.08293772
C        3.85578108       3.26563978       1.66669631
C        0.62037402       1.92943358       0.52802795
C       -0.31452987       5.13175964       7.36707926
C        3.65907955       6.54283190       7.45505524
C        4.37348890       3.77136612       0.44430736
C       -3.11018777       3.43458772       7.17301035
C        3.88512087       6.07683611       1.34041405
C        7.42865944       5.98270607       1.29920602
C        0.54404557       2.92951918       6.88594246
C        7.10322571       6.34860706       2.57500696
C        1.01761925       3.35925150       5.66267443
C       -2.80031729       3.15919995       5.85093403
C        3.38891435       5.47222281       2.45802951
H       -0.62781215       2.04565310       3.74272156
H        1.08693194       5.11524248       4.28869867
H        5.05843306       7.00857306       4.46207190
H        2.95466924       3.75238895       3.56290579
H        0.93782234       3.18503833       2.32214379
H       -0.15086095       6.53954935       5.73639822
H        3.58527923       5.37178946       5.61862755
H        3.71930432       2.15739274       1.77406085
H       -2.68110347       4.34490061       7.65493584
H        3.91402268       7.16701412       1.25268018
H        6.95496798       5.13996744       0.81016272
H        0.50950259       1.84084439       7.12433529
H        6.48578119       5.64732265       3.17989922
H        1.58293235       2.68593502       5.07533836
H       -2.17843103       3.81386638       5.33935452
H        3.04339552       6.08482742       3.27317476
C       -4.97629070       2.06226897      10.11313438
C       -3.93460894       5.08373785      12.55128765
C        0.25079706       7.47218609      12.54038143
C       -1.19288552       4.24465656       9.95093060
C       -4.20313787       2.90831876       9.35883236
C       -4.61720371       5.91965818      13.29336452
C       -0.50523913       6.57942009      13.27588844
C       -0.49480623       3.40059996       9.14076710
C       -3.95547533       2.62759352       7.95980167
C       -4.97714281       5.51864338      14.62428093
C       -0.77059042       6.79010820      14.70995140
C       -0.09699252       3.77649951       7.83134747
C       -7.54606295       3.25714374      14.54715824
C       -0.91579002       6.00297976       8.25536823
C        2.74041438       5.68909788       8.18078041
C       -3.87038088       3.45542383      14.30339718
C        2.38843822       5.97720289       9.43951511
C       -3.41577864       3.83959723      13.07249737
C       -7.19980907       2.89953995      13.21641827
C       -1.36071789       5.62268162       9.46574211
H       -5.14125395       2.23605323      11.14882946
H       -3.68505502       5.27597666      11.50865173
H        0.36836398       7.21319389      11.50916767
H       -1.53999138       3.95734072      10.96331120
H       -3.71194744       3.74561453       9.78263950
H       -5.11941004       6.82332373      12.81700897
H       -0.89450717       5.69129562      12.74426746
H       -0.28867897       2.42348480       9.32464790
H       -7.47759914       4.23941755      14.99963188
H       -0.87696910       7.02264690       7.99135685
H        2.35175800       4.79275990       7.64761686
H       -3.54763532       2.46339321      14.60960293
H        1.74920845       5.31007862      10.01245213
H       -2.89779139       3.16650105      12.43108273
H       -6.80518532       3.69228268      12.60352039
H       -1.80235481       6.38637543      10.05450439
C       -8.66173458       1.63357079      17.69991875
C       -8.41861725       4.98241234      19.93190956
C       -4.49743891       7.30720901      19.82667542
C       -5.78603745       4.75908899      17.23765183
C       -8.18441010       2.62161088      16.84005737
C       -9.10482788       5.83010721      20.74721718
C       -5.24644613       6.48152161      20.54335022
C       -5.10154104       3.90251398      16.45365143
C       -7.95971346       2.28140497      15.46110439
C       -9.60913944       5.44955349      22.01706505
C       -5.60348940       6.81445122      21.88258171
C       -4.58707476       4.26500273      15.15230083
C      -12.30157471       3.20801282      21.00464821
C       -5.63621712       6.43307447      15.45385551
C       -1.58916271       5.88914299      15.38956356
C       -8.57432175       3.22961664      21.54400063
C       -2.00135303       6.18472576      16.63169098
C       -8.11429691       3.62809157      20.32527351
C      -11.65444088       2.87623954      19.79851341
C       -6.00635910       6.04695797      16.77108002
H       -8.79008293       1.83711541      18.78678131
H       -7.84472942       5.28586340      19.05004692
H       -4.25993299       6.96387291      18.77511787
H       -6.13734388       4.39734745      18.17845917
H       -8.03341770       3.60055995      17.11692047
H       -9.21579742       6.86705399      20.40285873
H       -5.60392141       5.55925846      20.09396553
H       -4.87673521       2.91251063      16.80537796
H      -12.33549023       4.18902922      21.36050606
H       -5.85389376       7.39417648      15.09408188
H       -1.91703272       5.00711203      14.93366432
H       -8.30114555       2.26086783      22.01606941
H       -2.65149641       5.51852608      17.12555695
H       -7.57214594       2.98147464      19.66717911
H      -11.11208916       3.64038205      19.30344963
H       -6.42644978       6.72998524      17.50987816
C      -14.32451057       1.65039742      23.64283371
C      -13.30718327       4.95511866      26.67116928
C       -9.19341564       7.34364939      27.01148224
C      -10.51469421       4.47100449      24.50059700
C      -13.54157257       2.57018089      22.98083496
C      -13.88098526       5.70375442      27.60372353
C      -10.07529831       6.54342031      27.68863869
C       -9.67541409       3.67240405      23.68261528
C      -12.97023487       2.24752545      21.73386002
C        4.38804340       5.23041105       0.29885793
C        8.26332569       6.86286020       0.49714041
C       -9.27787781       4.11950159      22.39988708
C      -17.24246597       2.56813312      28.16608620
C      -10.20280457       6.32942724      22.90435982
C       -6.35079050       5.90634298      22.62737274
C      -13.94284439       2.97567225      27.94318581
C       -6.68384886       6.21490145      23.95104027
C      -13.43052197       3.52710247      26.82522583
C      -16.84206390       2.02532005      26.94533730
C      -10.64923191       5.84009933      24.11655617
H      -14.77874184       1.91409850      24.63197517
H      -12.87351799       5.39712095      25.76570129
H       -8.97734928       7.21716118      26.01112556
H      -10.82033920       4.15733814      25.50617218
H      -13.40593815       3.54695415      23.39613914
H      -13.81698608       6.81202650      27.39838219
H      -10.56938267       5.62322426      27.24383354
H       -9.51814461       2.59434962      23.89338875
H      -16.85200882       3.55942845      28.43580055
H      -10.43464470       7.34021425      22.63201141
H       -6.62835836       4.99004459      22.19879532
H      -13.97505665       1.86091793      27.93492126
H       -7.27508497       5.48132801      24.58605194
H      -12.78993607       2.96254921      26.15468407
H      -16.10120392       2.41721916      26.28037453
H      -11.09371758       6.56821156      24.85949135
C       -0.05452915       7.33361912       2.69069505
C        0.99343932      10.06205750       5.24063873
C        5.02553940      12.95520306       5.49759769
C        3.83118582      10.07225800       3.09812951
C        0.68770736       8.21452045       2.00625539
C        0.26562732      11.02745247       5.94489670
C        4.28511524      11.99022865       6.08979654
C        4.70487833       9.23733997       2.40180182
C        1.02083158       7.89022064       0.69067377
C       -0.10940157      10.81487560       7.32815838
C        4.03899097      12.21950531       7.46435928
C        5.09561968       9.65206623       1.09297431
C       -2.61406040       8.85003376       7.00800562
C        3.78157711      11.65611267       1.31212497
C        7.87325382      11.40894032       1.37302399
C        1.06896949       8.55826092       7.18213654
C        7.53016520      11.79215336       2.67051291
C        1.32654226       8.78329563       5.81285906
C       -2.31100082       8.47142601       5.72845411
C        3.36546636      11.26545238       2.58348632
H       -0.41193718       7.65319586       3.68360734
H        1.22618902      10.31545639       4.22166395
H        5.27675915      12.76066589       4.46447420
H        3.38782120       9.69965267       4.01294613
H        0.87620878       9.21521187       2.39770126
H       -0.00593013      11.94017792       5.41827059
H        3.88755918      11.08002758       5.59827995
H        4.90976667       8.22902298       2.69381189
H       -2.26968193       9.76047802       7.42671442
H        3.35115981      12.56497288       1.03544211
H        7.48469591      10.54273605       0.89522618
H        1.44936264       7.69920397       7.66996241
H        6.82916450      11.03216457       3.08321238
H        1.90066743       8.03377819       5.36108637
H       -1.56245971       9.05543232       5.19304180
H        2.63748670      11.84292603       3.13632679
C       -4.49786615       7.67559099       9.99530220
C       -3.93338537      10.17060280      12.71028519
C        0.18236059      12.58934784      12.45974255
C       -0.54439396      10.20933342      10.01554489
C       -3.67781401       8.47976589       9.19226742
C       -4.60708332      11.03985214      13.48953342
C       -0.45549002      11.75476170      13.34892845
C        0.11270781       9.31659031       9.25776386
C       -3.41961241       8.06073189       7.89761353
C       -4.88508368      10.85954285      14.86635971
C       -0.75121349      12.14446545      14.65365219
C        0.29024836       9.54951668       7.88310814
C       -7.64648008       9.02904129      14.59220505
C       -0.73840970      11.75869656       8.16953659
C        3.31651902      11.28871155       8.23612022
C       -3.61316991       8.74229431      14.63981342
C        3.00982261      11.46544361       9.56759453
C       -3.38723326       9.01140308      13.34525776
C       -7.21808910       8.60537148      13.35340500
C       -0.99251139      11.44556332       9.48139954
H       -4.81524563       8.04415321      10.98052883
H       -3.75104523      10.35829639      11.61729717
H        0.55082482      12.12773132      11.52463531
H       -0.89559901       9.96719456      10.96961212
H       -3.40610170       9.44710827       9.52382088
H       -4.86069965      11.99901772      13.09584427
H       -0.71527117      10.80580425      12.98537254
H        0.21990113       8.29621696       9.68554592
H       -7.44576645       9.96654606      14.98895359
H       -1.10227132      12.71204090       7.88814116
H        3.00696707      10.28656769       7.80603552
H       -3.07828641       7.89334536      15.07789993
H        2.39229918      10.69907951      10.06203175
H       -2.68721962       8.34990215      12.75881004
H       -6.59758854       9.18103600      12.71692753
H       -1.51257992      12.15051842      10.16847229
C       -9.42308807       7.57840729      17.55999184
C       -8.33115292      10.54478455      19.93059158
C       -4.56695604      13.05947971      19.75228500
C       -5.36702156      10.16691208      17.59442902
C       -8.81344223       8.52754402      16.71666336
C       -9.06868267      11.32052517      20.77930069
C       -5.34485292      12.28609371      20.54435921
C       -4.49644566       9.39464188      16.84019852
C       -8.48363209       8.20504665      15.38465118
C       -9.36710358      10.91099644      22.11555481
C       -5.56229401      12.52326679      21.94867516
C       -4.31679487       9.68526840      15.44876671
C      -12.13413715       8.97173309      21.53324127
C       -5.59542847      11.72529602      15.64767265
C       -1.39779425      11.31894112      15.59900093
C       -8.12553215       8.90413666      21.61325645
C       -1.77702570      11.77315998      16.81859589
C       -7.86997557       9.26419544      20.32383919
C      -11.83613968       8.65429878      20.24347877
C       -5.86515045      11.37285805      16.99766159
H       -9.74139309       7.97182560      18.48981094
H       -8.22794628      10.95415497      18.97128296
H       -4.26927519      12.80094051      18.72899055
H       -5.63319349       9.96442699      18.61373138
H       -8.51365376       9.55929089      17.08893204
H       -9.49485970      12.19695091      20.36183548
H       -5.79805708      11.39608574      20.07710075
H       -4.08212852       8.43874931      17.19626808
H      -11.83621120       9.92035580      21.96339417
H       -6.04051018      12.65484142      15.28706074
H       -1.77985120      10.41093826      15.14923859
H       -7.88010025       7.89108467      21.94996452
H       -2.27861619      11.17938137      17.51673508
H       -7.54095316       8.63178253      19.54809952
H      -11.32235432       9.40403080      19.70027733
H       -6.48556423      12.05896664      17.54385567
C      -14.23714352       7.46922779      24.26347733
C      -13.04801178      10.52465343      27.00775909
C       -8.93196487      12.75862789      26.97586441
C       -9.80672646       9.96189117      24.67466927
C      -13.40819454       8.33054352      23.54784584
C      -13.86917877      11.26117134      27.78325844
C       -9.59860897      11.86642742      27.76284790
C       -8.96034145       9.31509399      23.87397003
C      -12.97853374       8.03216648      22.25003052
C        4.68684673      10.89556980       0.61269617
C        8.71203232      12.22713947       0.52237785
C       -8.78333473       9.74144459      22.53074265
C      -16.96140289       8.80228615      28.45323372
C      -10.29040718      11.66690922      22.99769402
C       -6.35450268      11.65781116      22.73526764
C        5.86162138       8.88837147       0.22126283
C       -6.60076523      12.00666428      24.04784584
C      -12.54689121       9.32995701      27.53592682
C      -16.65547752       8.52506161      27.19881630
C      -10.44244862      11.16085720      24.29347038
H      -14.57186031       7.79488277      25.26621437
H      -12.78310585      10.74577045      26.00373650
H       -8.67022514      12.54389858      25.99433327
H      -10.09653950       9.56388569      25.66734123
H      -13.12867451       9.24398041      23.98571205
H      -14.42962170      12.08074760      27.31594658
H       -9.77349758      10.81798172      27.37260437
H       -8.62902164       8.33950329      24.17635727
H        2.11117792       9.75929260       0.41460839
H      -10.64022827      12.57211018      22.55783081
H       -6.63741350      10.70027924      22.37474632
H        6.24716759       7.96231604       0.73493683
H       -7.15154314      11.34480953      24.76690865
H      -12.02844906       8.59361839      26.87128258
H      -15.99766445       9.22486401      26.72460938
H      -11.05371952      11.71748734      25.00446320
C        0.23606348      13.20673847       2.99989223
C        1.06517661      15.48277473       5.49591112
C        4.91390133      18.13650894       5.37762785
C        3.98375893      15.62862110       2.86181569
C        0.91585261      13.97174072       2.07856870
C        0.21621980      16.38799858       6.11733007
C        4.30432272      17.27182007       6.22585249
C        4.85518456      14.82234955       2.15107918
C        1.11264467      13.59040546       0.74877256
C       -0.01176771      16.25079346       7.48283291
C        4.01231241      17.70037651       7.50362444
C        5.12508774      15.11307335       0.83343011
C       -2.85325885      14.25870323       7.21495867
C        3.73595023      17.13005257       0.95575851
C        7.87860966      16.88062859       1.40681732
C        1.32422507      14.18511772       7.51239538
C        7.56428766      17.17999649       2.69084907
C        1.66867685      14.39044189       6.17420864
C       -2.71884131      14.01262379       5.88332748
C        3.50690913      16.81553459       2.27298450
H        0.17108485      13.64715576       4.02065229
H        1.51656783      15.73487568       4.51949120
H        5.11931229      17.93309784       4.32018185
H        3.80285883      15.29526138       3.87109661
H        1.46152771      14.82569599       2.34695077
H       -0.00422529      17.33594322       5.61786699
H        4.03522539      16.25700188       5.99637175
H        5.30765724      13.98994160       2.61262298
H       -2.28342199      15.06479645       7.62675142
H        3.38383746      18.10752296       0.47061345
H        7.61984491      15.94997025       0.98692888
H        1.70493817      13.31897259       8.06204796
H        6.83930492      16.65690994       3.27299333
H        2.37477756      13.77023983       5.70686626
H       -2.09307551      14.62431717       5.30643940
H        2.89229941      17.54661560       2.81030869
C       -4.69584322      13.02988529      10.23558044
C       -3.80513120      15.81801033      12.47218323
C        0.24208212      18.34636879      12.64849472
C       -0.72083843      15.71305180      10.17138958
C       -3.89407349      13.72761822       9.41886997
C       -4.45153999      16.70917130      13.26613235
C       -0.59281754      17.50689507      13.39896297
C        0.01658579      14.82651806       9.48860550
C       -3.64274430      13.39701271       8.07683086
C       -4.68034697      16.42000198      14.61664867
C       -0.94979525      17.74043465      14.74768448
C        0.44975227      15.04646587       8.12510300
C       -7.40327549      14.39330101      14.61200523
C       -0.83174115      17.15716553       8.15951443
C        3.35876083      16.86761665       8.39633942
C       -3.52236342      14.24582195      14.23204327
C        3.13564301      17.18168259       9.71311569
C       -3.44253349      14.56659889      12.86733437
C       -7.08903551      13.89853382      13.32573128
C       -1.19650972      16.86479759       9.44013691
H       -4.88870382      13.42488384      11.26480007
H       -3.46655941      16.13122940      11.50764847
H        0.44139510      17.95691872      11.65293312
H       -0.90124828      15.48777199      11.16542339
H       -3.35984349      14.64013767       9.66511345
H       -4.76156330      17.66921043      12.92359161
H       -1.09284484      16.58359146      12.92932606
H        0.20944016      13.86407089       9.97413540
H       -6.97181797      15.30427170      15.19046402
H       -1.12443471      18.10974503       7.73780823
H        3.06202769      15.91970348       7.98186827
H       -3.12367988      13.38786793      14.64710999
H        2.48205471      16.49001503      10.26295471
H       -2.93817472      13.82561970      12.24812889
H       -6.42354488      14.47349644      12.71801758
H       -1.97064281      17.46242332       9.93070507
C       -9.55632973      13.07107925      17.44676971
C       -8.43675709      16.09405518      19.66971588
C       -4.44991636      18.41307068      19.77568436
C       -5.13860178      15.65287590      17.24014091
C       -8.69642448      13.82686234      16.73122406
C       -9.39036846      16.79289055      20.45917702
C       -5.20006943      17.53886414      20.53215408
C       -4.43413639      14.74427319      16.51793289
C       -8.36476040      13.58934784      15.36686134
C       -9.54960251      16.38439560      21.74563408
C       -5.56159878      18.01357651      21.82366371
C       -4.25703144      15.11785412      15.09237671
C      -12.16766453      14.43542385      21.61636925
C       -5.48937368      17.23589897      15.47653103
C       -1.61997187      16.85710526      15.61007500
C       -8.28822517      14.35528946      21.35513306
C       -1.98009646      17.13485336      16.95046997
C       -8.01201820      14.82163525      20.09808350
C      -11.75600338      14.03767014      20.36404419
C       -5.71535921      16.81747246      16.71483040
H       -9.87374687      13.23569107      18.51914024
H       -8.30445290      16.53072357      18.72137451
H       -4.13474798      18.11040497      18.76600647
H       -5.20437813      15.51877880      18.27738953
H       -8.14231014      14.67434120      17.21080399
H       -9.83857536      17.72905540      20.16718483
H       -5.51887989      16.53457642      20.18485451
H       -4.18898869      13.75387573      16.83219910
H      -11.72514439      15.31889248      22.01393890
H       -6.00885153      18.11404228      15.12118149
H       -1.84437525      15.85678291      15.24750805
H       -7.89277172      13.43262482      21.77557182
H       -2.41582894      16.31040764      17.48080635
H       -7.47647524      14.24476147      19.38304710
H      -10.99119759      14.62211037      19.83480453
H       -6.39520359      17.35806656      17.33324814
C      -13.88076210      13.15050602      24.61923409
C      -13.12634659      15.75430107      26.64259720
C       -9.21481705      18.23146248      26.94981956
C       -9.87371731      15.63318920      24.49829864
C      -13.13303661      13.94801807      23.83984566
C      -13.91167927      16.57116699      27.38051033
C       -9.94661713      17.40010071      27.76939964
C       -9.13234425      14.85942554      23.64586449
C      -12.94286823      13.67212009      22.45148087
C        4.63161230      16.29158974       0.22542331
C        8.62746048      17.79508591       0.54913449
C       -9.02534676      15.18446350      22.26515579
C      -16.90328979      14.44577122      28.39212418
C      -10.28898239      17.16315079      22.71818733
C       -6.35012388      17.23295975      22.67587280
C        5.97365141      14.27677631       0.03441730
C       -6.67092323      17.67485809      23.95718002
C      -12.53102112      14.63633060      27.26803207
C      -16.56034660      13.87068462      27.18493080
C      -10.39350033      16.85834122      24.00732040
H      -14.13890553      13.41684437      25.64696693
H      -12.79697418      16.10869598      25.65880966
H       -9.00305176      17.89946175      25.94846725
H       -9.85642719      15.47997570      25.54450989
H      -12.59625149      14.77507401      24.21043015
H      -14.25840187      17.56163979      27.10733604
H      -10.30243874      16.44175720      27.45676613
H       -8.44081974      14.08710766      23.98575592
H        2.14337993      15.42292500       0.25901857
H      -10.71646500      18.04595947      22.27145576
H       -6.77148867      16.40646744      22.11686516
H        6.41988087      13.43060780       0.45183831
H       -7.38138914      17.02644157      24.50642395
H      -11.84762096      14.02497768      26.68565559
H      -15.98034287      14.44123173      26.43752289
H      -10.93955517      17.55678940      24.67573166
C       -0.03589668      18.40799522       2.93272567
C        0.87691319      21.24205589       5.60633564
C        4.30242729      23.79660225       5.18505669
C        3.76953363      20.96035767       3.02268457
C        0.70228088      19.27629852       2.17796612
C       -0.02119195      22.02034950       6.25740623
C        3.77316618      22.82280350       6.00857115
C        4.56155634      20.16548347       2.29012799
C        1.10155618      18.85563850       0.87164670
C       -0.35174188      21.85359001       7.65399837
C        3.39175606      23.29617882       7.31774759
C        5.00742531      20.53160477       0.96158630
C       -2.85072041      19.74612236       7.35800982
C        3.70998096      22.60455132       1.31849909
C        7.65994930      22.51375389       1.14293814
C        1.00504160      19.82468796       7.48569489
C        7.09474039      22.94354630       2.31080484
C        1.41873622      20.05951691       6.24415112
C       -2.55222917      19.38307381       6.07960892
C        3.33891988      22.21797371       2.56543112
H       -0.39043820      18.68449211       3.93339849
H        1.09015954      21.44671059       4.56790161
H        4.83230877      23.41321754       4.29275274
H        3.33323789      20.48602867       3.88648438
H        0.93748277      20.23254013       2.59086609
H       -0.43396786      22.82280159       5.65370274
H        3.76403666      21.71478653       5.67066383
H        4.83464861      19.11603546       2.59007573
H       -2.50876856      20.65374565       7.82701826
H        3.52118135      23.62856483       1.06040168
H        7.56681681      21.48831558       0.88301480
H        1.29528022      18.86610794       7.89198303
H        6.45942020      22.26626205       2.93123221
H        2.05193400      19.40534973       5.66347027
H       -2.08042097      20.05617142       5.33487368
H        2.70871663      22.80794334       3.28482485
C       -4.91284847      18.65289307      10.28296375
C       -3.78569293      21.19765663      12.95495319
C        0.03002832      23.34078026      12.39223671
C       -1.10234046      21.23670006      10.24564457
C       -4.03439474      19.38246727       9.53075027
C       -4.62789726      22.08278084      13.60306358
C       -0.73279041      22.67501450      13.34511566
C       -0.13905704      20.43531418       9.61272621
C       -3.72030497      19.00155067       8.17885399
C       -5.02794075      21.83009338      14.93678474
C       -1.01690722      23.29951096      14.60528183
C        0.23574461      20.71003532       8.26664925
C       -7.70148706      19.92107964      14.38179302
C       -1.29203343      22.67268753       8.31932068
C        2.94823384      22.32891273       8.29203320
C       -3.64392662      19.77151680      14.86376476
C        2.62450790      22.67373276       9.53909779
C       -3.31511641      20.02716637      13.56736565
C       -7.45509911      19.58849335      13.04434586
C       -1.70959377      22.34060478       9.56174850
H       -5.10628080      18.90803528      11.31878185
H       -3.55515051      21.29123497      11.85458183
H        0.34436867      22.79095650      11.55455494
H       -1.55172288      20.92828560      11.18477154
H       -3.48816347      20.24075127       9.93474960
H       -5.03952837      22.89134598      12.99554634
H       -1.18514812      21.71696472      13.10406780
H        0.37429217      19.60802078      10.11161423
H       -7.41363478      20.88083649      14.81312847
H       -1.69836342      23.50282097       7.75058508
H        2.73907590      21.27486801       8.06639385
H       -3.37837887      18.88451195      15.41243267
H        2.40189505      21.87182999      10.17495155
H       -2.59000278      19.38326836      13.01864052
H       -6.89494181      20.25179291      12.37435246
H       -2.54537416      22.91445160      10.00113869
C       -9.44502163      18.42614746      17.36422920
C       -8.64504623      21.28232574      19.87543297
C       -4.52208614      23.77716255      19.83034515
C       -5.91697788      21.05601120      17.46001434
C       -8.79566002      19.36275482      16.57057953
C       -9.34929180      22.20073318      20.55347824
C       -5.34922361      23.02635765      20.62631798
C       -4.98460531      20.27874184      16.82559395
C       -8.38519287      19.00799561      15.25637150
C       -9.69653416      22.00247574      21.87943459
C       -5.69412041      23.46960831      21.93205452
C       -4.53456402      20.61346626      15.53644180
C      -12.12779999      19.96346092      21.69865227
C       -5.95986366      22.64456940      15.63048553
C       -1.86868060      22.70048523      15.55310822
C       -8.42004776      19.94013596      21.86234283
C       -2.06854630      23.23695564      16.76165390
C       -8.14514923      20.13412476      20.55480194
C      -11.74218750      19.56600761      20.42334175
C       -6.39763927      22.24915314      16.83875656
H       -9.79156113      18.73921585      18.32393837
H       -8.36258507      21.39404678      18.87797928
H       -4.26689625      23.47073936      18.85145569
H       -6.15288019      20.74974632      18.47659492
H       -8.48180962      20.34509277      16.99664879
H       -9.76250172      23.13262177      20.14503288
H       -5.56530476      21.98595428      20.38477707
H       -4.64527369      19.34613991      17.31484795
H      -11.77856159      20.97297096      21.89941216
H       -6.25979996      23.59552193      15.10873222
H       -2.20503759      21.72572899      15.34334373
H       -8.16125965      19.02878761      22.34336281
H       -2.55500722      22.63554192      17.51609612
H       -7.53887510      19.40657616      19.96668053
H      -11.15511322      20.18308830      19.77825546
H       -7.24094868      22.80331802      17.26880264
C      -14.13503265      18.76025200      24.57608414
C      -13.08077812      21.34214592      26.95291710
C       -9.12228107      23.98744202      26.87180710
C      -10.44928837      21.50284576      24.49734879
C      -13.36696720      19.58502197      23.79986954
C      -13.94117260      22.10390663      27.64546013
C       -9.83489990      23.08394814      27.57995224
C       -9.64005089      20.61124802      23.86573029
C      -12.93884468      19.19314194      22.53599548
C        4.51020908      21.71462250       0.48852053
C        8.46768475      23.35947800       0.39211565
C       -9.28925419      20.83747101      22.54842567
C        1.85968852      19.74265862       0.05497715
C      -10.40004253      22.97664070      22.65432167
C       -6.56360388      22.67927170      22.70984650
C        5.84396982      19.71214104       0.20956522
C       -6.91483974      23.00598335      23.96772575
C      -12.60773754      20.11493683      27.51768684
C      -16.46152496      19.41023254      27.35185242
C      -10.82886791      22.73364258      23.93479347
H      -14.48270130      19.10492706      25.58788109
H      -12.76372814      21.52850914      25.96441650
H       -8.71615124      23.73918152      25.87048149
H      -10.87034988      21.17465782      25.45074081
H      -13.20141888      20.61417389      24.15389061
H      -14.35777760      23.04693031      27.21637917
H       -9.86494827      22.12462044      27.16574860
H       -9.31215668      19.74240494      24.34111214
H        2.05205512      20.73587227       0.54578036
H      -10.61223412      23.94377136      22.18220520
H       -6.91863728      21.76586914      22.30350494
H        6.15932131      18.70706940       0.71109486
H       -7.59700441      22.30270958      24.48546028
H      -11.90783119      19.54647636      26.86244202
H      -15.71318054      20.06875992      26.87048912
H      -11.46266651      23.40018654      24.43598557
C        7.43298101      24.29177666       2.78358173
C        6.84176588      27.24223518       5.14152384
C       13.07652187       2.23244333       5.43836880
C       11.56087875      27.21018791       3.41677761
C        8.24627018      25.14954948       2.09207964
C        6.01691771      27.70005798       6.18869638
C       12.51368618       1.12189412       6.06853628
C       12.33920288      26.29929543       2.76186371
C        8.73092365      24.71546555       0.82841235
C        6.26053619      27.16585732       7.46751690
C       12.25973606       1.29305935       7.46224833
C       12.62226200      26.50230408       1.40814674
C        3.77368283      25.53997421       6.79657793
C       11.21119690      28.57769203       1.47225082
C       15.74668598       0.70247942       1.26661623
C        8.14331818      25.85980034       6.62604380
C       15.27587032       1.19905996       2.43533635
C        7.93603182      26.36728096       5.35490513
C        4.27967978      25.17365265       5.55447817
C       11.00570202      28.37519646       2.79175782
H        6.87588263      24.55830383       3.73650742
H        6.67316914      27.64494514       4.13830185
H       13.32870197       2.25136900       4.36093473
H       11.36815834      27.06541634       4.51213694
H        8.38377094      26.12841225       2.36326671
H        5.35822773      28.57029152       6.04371738
H       12.35768032       0.20964096       5.56068516
H       12.82551002      25.51393700       3.33006096
H        3.70364022      26.60189629       7.09754038
H       10.83717728      29.48834991       0.92078012
H       15.34576416      58.71326447       0.83450198
H        8.87247849      25.10394859       6.79965782
H       14.39135838       0.81902903       2.95537758
H        8.49538040      26.01346779       4.52785301
H        4.56865215      25.97095108       4.88202429
H       10.56048107      29.03277397       3.46823549
C        2.93175149      24.00141335      10.02733994
C        3.73601198      26.26910400      12.77198505
C        8.76098442       2.60266924      12.06497478
C        6.91895294      26.30953407      10.08214760
C        3.40885997      24.95067406       9.15219212
C        3.03692770      27.15882874      13.52092171
C        7.87570333       1.68685699      12.53537655
C        7.55838203      25.73083115       9.01351261
C        3.53242850      24.62916183       7.75158596
C        2.76661682      26.99850082      14.90488529
C        7.26587343       1.87023556      13.80444431
C        7.32551479      26.23315620       7.69455910
C        0.13308103      25.28950119      13.89181805
C        5.56649160      27.70508957       8.63823414
C       11.71519947       0.16565238       8.24142170
C        4.15200138      25.03011513      14.76565742
C       11.58599472       0.25426090       9.59185314
C        4.27189207      25.17320251      13.42248821
C        0.42135158      24.70007706      12.63301086
C        5.92499113      27.25090599       9.85999680
H        2.72542667      24.26242065      11.09304333
H        3.87061977      26.44213104      11.72788525
H        9.42503548       2.26791430      11.19948673
H        6.93669081      25.77449799      11.05035496
H        3.53138518      25.97965813       9.47108078
H        2.47548532      27.95521545      13.02159500
H        7.73540497       0.69705063      12.04609489
H        8.34768867      24.96870995       9.14411545
H        0.47704619      26.31077194      13.99172974
H        4.75583267      28.41170311       8.42479515
H       11.66098404      58.18310165       7.69492292
H        4.54981375      24.16103745      15.21260071
H       11.41897106      58.33555603      10.23565769
H        4.72440577      24.39531326      12.83014107
H        0.93363905      25.32476234      11.81305981
H        5.50039244      27.66233444      10.77019024
C       -1.62595677      24.52531815      17.02128410
C       -0.77327460      27.06120300      19.51095200
C        3.20057893       1.08849335      20.23762512
C        2.37845802      26.51022911      17.63649368
C       -0.89448750      25.24066162      16.09790611
C       -1.32355821      27.91141129      20.46039963
C        3.16091633       0.15809849      21.24384880
C        3.15916085      25.66969681      16.88836670
C       -0.47360897      24.55370522      14.90238953
C       -1.41103923      27.55148506      21.75007057
C        2.72799277       0.58768553      22.52181053
C        3.37124610      25.87913132      15.52642345
C       -4.35355234      25.48634338      21.53559494
C        1.81611943      27.72266006      15.67443562
C        6.58515501       0.86721545      14.54402542
C       -0.27192447      25.42753410      21.20004654
C        6.22377300       1.02396357      15.81317902
C       -0.24216355      25.81260490      19.87929535
C       -3.95210481      25.00920296      20.32450485
C        1.67419779      27.56385803      17.02738571
H       -1.88604915      24.94984245      17.95491409
H       -0.59608859      27.37939453      18.47929382
H        3.45854354       0.82654750      19.20560455
H        2.04089093      26.24321365      18.68351555
H       -0.64365137      26.24117661      16.40424728
H       -1.67771268      28.88930893      20.09858894
H        3.30453801      58.02973557      21.00695610
H        3.33799696      24.60124397      17.25963402
H       -3.93753958      26.34979248      21.99969101
H        1.20672190      28.47975540      15.12752056
H        6.25217628      58.81923294      14.06449509
H        0.08160909      24.46417618      21.54386902
H        5.60959816       0.36391488      16.27067947
H        0.19879447      25.09963608      19.10848999
H       -3.25735521      25.53282166      19.72901154
H        1.06555414      28.35133934      17.51263809
C       -6.38589430      24.23461533      24.49908066
C       -5.51517057      26.86327362      27.30082893
C       -0.73231858       1.61355042      27.08985329
C       -1.71332264      26.56316376      24.41909981
C       -5.64804459      25.09958267      23.73460579
C       -6.39402819      27.79038429      27.81299400
C       -1.50870645       0.81800026      27.93327904
C       -1.11134768      25.81368637      23.47226906
C       -5.21881294      24.73926544      22.40179253
C       11.98743629      27.55396271       0.70354348
C       16.64937973       1.40642023       0.47286141
C       -0.93254292      26.25822449      22.10990906
C        9.37497044      25.65243721       0.00151424
C       -2.02644444      28.30829048      22.82569695
C        2.47424173      58.48611832      23.48798561
C       13.35872269      25.50704193       0.71093309
C        2.33040953      58.85922241      24.79392815
C       -5.00938559      25.72413826      27.99460602
C       -8.82965851      25.30784607      27.35603333
C       -2.21151590      27.83094978      24.05119514
H       -6.59289360      24.43984222      25.56208611
H       -5.15300894      26.97784233      26.28562164
H       -0.23708051       1.24092269      26.14626503
H       -1.92443252      26.14384079      25.41694260
H       -5.28595161      26.07173157      24.16712379
H       -6.91428518      28.56108093      27.22607613
H       -1.72541904      58.77784348      27.55942154
H       -0.75357831      24.82003784      23.58135223
H        9.43271637      26.67003822       0.31915507
H       -2.68445587      29.20341492      22.52706146
H        2.65693498      57.45652008      23.22202683
H       13.65537167      24.64874458       1.27165782
H        2.35294843      58.08314133      25.59726524
H       -4.40012074      24.98280144      27.45387268
H       -8.19288826      25.93246460      26.79444313
H       -2.79273415      28.32928467      24.70690537
C        7.27371740       2.32598400       2.80158114
C        8.91480637       4.52317333       5.26373529
C       12.94809341       7.56634665       5.52703428
C       11.82556343       4.41066217       2.91071153
C        8.31885529       2.89570665       2.15292001
C        8.04488850       5.29323864       5.99193048
C       12.06335735       6.68639755       6.03485060
C       12.51883316       3.54049897       2.14573717
C        8.64213848       2.54857016       0.76193720
C        7.55357170       4.83957052       7.22357655
C       11.52896500       6.86554384       7.31244946
C       12.86444473       3.84967875       0.82371277
C        4.63252211       2.96294403       6.87305164
C       11.73910236       6.00493956       1.08230758
C       15.67594337       5.86160326       1.11723185
C        9.03420639       2.92027593       7.04919863
C       15.31157589       6.15945435       2.36630011
C        9.41202927       3.29696321       5.76724005
C        4.67861891       2.54275513       5.61255836
C       11.42735291       5.66641426       2.36937642
H        7.22724915       2.45352626       3.91875672
H        9.15124130       4.85213614       4.22799253
H       13.18609142       7.50422478       4.48127413
H       11.40227509       4.12606430       3.89093161
H        9.00725651       3.57579470       2.63205981
H        7.65602875       6.21550083       5.53337193
H       11.67375088       5.86917353       5.47186136
H       12.85497379       2.53312612       2.42686582
H        4.99032545       3.93839502       7.23570156
H       11.26481342       6.86921358       0.64622104
H       15.38901615       4.97562265       0.58054835
H        9.47421551       1.98084247       7.41681194
H       14.72343254       5.56039238       2.99187374
H       10.04738808       2.57936502       5.25543165
H        5.23263597       3.17669129       4.88753748
H       10.70354843       6.27324963       2.95754719
C        2.56756854       2.06800246       9.93706226
C        4.23233747       4.23928928      12.43808270
C        7.65157413       7.48867273      12.42257595
C        6.83592319       4.00549459       9.83588028
C        3.46504998       2.66922426       9.11291695
C        3.54758430       5.12032318      13.27055740
C        6.78659678       6.82484913      13.26850891
C        7.63512421       3.17011595       9.03207779
C        3.86570716       2.21830320       7.79851532
C        3.19104600       4.65687370      14.60881042
C        6.76699877       7.08595943      14.65020752
C        8.06261253       3.62588882       7.74679089
C        0.27065992       3.45535302      14.16041183
C        6.78351021       5.66233635       8.09090614
C       10.72004509       5.83536768       7.95332336
C        4.02661562       2.46418953      14.02554512
C       10.29507065       5.97669888       9.24252224
C        4.47602987       2.90921497      12.84603024
C        0.53968859       3.12733006      12.87839222
C        6.47826242       5.30369234       9.37748432
H        2.36028504       2.42486095      10.90294266
H        4.41943550       4.65777397      11.44312859
H        7.69328165       7.12527370      11.44307804
H        6.52705240       3.60610676      10.78109455
H        3.88584542       3.57979727       9.41925240
H        3.15409112       6.12599373      12.99758339
H        6.20248747       6.01219559      12.92351437
H        7.88726997       2.11465931       9.33168316
H        0.72685206       4.33609056      14.67661381
H        6.61044312       6.67097712       7.76540184
H       10.44444561       4.92795610       7.40948868
H        4.22187901       1.45420969      14.30629253
H        9.58526802       5.28517342       9.67352867
H        4.98597670       2.22574258      12.18474865
H        1.33428168       3.67629123      12.31352043
H        6.02335739       6.02654171      10.02844906
C       -1.76116347       2.11869311      16.97211266
C       -0.84100688       4.60770750      19.60944557
C        3.40856457       6.63084507      19.84088135
C        2.27778912       3.67156887      17.08789444
C       -0.85525936       2.93367004      16.30226135
C       -1.45088923       5.51084709      20.50529671
C        2.55899715       6.08093119      20.69338226
C        2.92302108       2.85896945      16.19156837
C       -0.53605384       2.68851280      14.96515656
C       -1.77780926       5.06551886      21.79317856
C        2.30492425       6.65673304      21.97994614
C        3.44596028       3.32776284      14.96727848
C       -4.65516424       3.00462174      21.46662903
C        2.51657891       5.46777344      15.53458691
C        6.02889633       6.32739782      15.57570648
C       -0.88689649       2.86139369      21.34576988
C        6.11484909       6.49699211      16.90742493
C       -0.48157847       3.29707718      20.06359673
C       -4.59005642       2.79416347      20.10039520
C        2.07660651       5.03672123      16.76883316
H       -1.90070009       2.24432945      18.05062294
H       -0.62647653       4.97504807      18.60001755
H        3.63342428       6.11021376      18.92642593
H        1.90653634       3.23898840      17.99703789
H       -0.33097872       3.77417707      16.80657005
H       -1.77201247       6.49301529      20.18676949
H        2.10502148       5.09995556      20.43176079
H        3.11269093       1.82202768      16.52347946
H       -3.99022317       3.79307795      21.86083984
H        2.33893561       6.50822115      15.28180981
H        5.53601742       5.42090940      15.24544334
H       -0.70616210       1.83517098      21.59696960
H        5.48652840       5.87339401      17.49602318
H       -0.12238231       2.53737545      19.47725677
H       -3.94649124       3.30911565      19.44524956
H        1.50451958       5.76542902      17.38343048
C       -6.49305916       1.80901158      24.38022614
C       -5.07011509       4.53445530      26.83413887
C       -1.24424434       7.54284716      26.90328598
C       -2.36114931       4.26851892      24.49737167
C       -5.60777092       2.52566433      23.62650681
C       -5.99978256       5.31328106      27.43475342
C       -2.05742979       6.64200640      27.54141998
C       -1.74142146       3.37329841      23.63283920
C       -5.52927494       2.25259209      22.30392647
C       12.44023609       5.03939104       0.27189735
C       16.38331795       6.83983088       0.38013136
C       -1.50416541       3.78165245      22.27048111
C        9.79028034       3.08146930       0.14312387
C       -2.43086386       5.93561888      22.69548035
C        1.40799057       5.93840647      22.82582283
C       -5.20773745       2.97131705      28.50022888
C        1.12660730       6.44313049      24.05253601
C       -4.71926498       3.27476883      27.32381248
C       -8.65616989       2.62201524      27.41504478
C       -2.72613120       5.56379557      23.99555016
H       -6.71831846       2.09098363      25.39089012
H       -4.74251080       4.77248716      25.80968285
H       -0.88170469       7.30310440      25.95847893
H       -2.62948894       3.89453721      25.49459076
H       -5.10942459       3.35783911      24.07273293
H       -6.30731678       6.29763222      27.10412407
H       -2.37569857       5.70669699      27.09764099
H       -1.29322350       2.50314307      24.09928894
H       10.37518501       3.88718152       0.64239609
H       -2.85625482       6.88219357      22.26589203
H        0.99616164       5.06661654      22.44531631
H       13.94149208       2.08518004       0.44100228
H        0.46551794       5.86175013      24.76207542
H       -4.02606344       2.64411092      26.75622749
H       -7.72198439       3.01356769      26.97641373
H       -3.21234131       6.21826744      24.70103836
C        7.62525129       7.54608536       3.17149329
C        8.84117317      10.07262897       5.34658289
C       12.84552383      12.92160511       5.65340090
C       11.79759121      10.17977715       3.07890916
C        8.46726036       8.33216190       2.49471283
C        8.19728661      10.99440956       6.09810829
C       12.04040337      12.04965019       6.36032391
C       12.46764660       9.24490070       2.38132358
C        8.83516121       8.00682163       1.15129316
C        7.73420191      10.61454773       7.43292999
C       11.75223541      12.32457066       7.73072481
C       12.93317127       9.61169052       1.02119768
C        4.90105391       8.62227917       7.31897068
C       11.74939346      11.70320606       1.19284248
C       15.81320477      11.52070045       1.44292009
C        8.78321838       8.44185448       7.08133078
C       15.37212467      11.94963646       2.74704480
C        9.22388363       8.76335526       5.83495140
C        5.32142496       8.23633575       6.12533045
C       11.48417664      11.42860222       2.51232982
H        7.24265051       7.88020468       4.12742281
H        9.23655415      10.42343521       4.36817265
H       13.09141922      12.70173168       4.65966749
H       11.56306934       9.93822479       4.07717371
H        8.93781567       9.26154423       2.91370177
H        8.03212833      12.01297188       5.81438637
H       11.67284107      11.17569828       5.92402458
H       12.84992218       8.33523273       2.84824252
H        5.33511734       9.49855042       7.81178951
H       11.56395817      12.70021534       0.89414120
H       15.47760963      10.57884026       1.14930904
H        8.92960930       7.42078829       7.41904926
H       14.78083992      11.30950356       3.34938765
H        9.73949718       8.00611305       5.22264719
H        6.14653873       8.70288086       5.61788273
H       10.98192406      12.26756573       3.10574937
C        2.88649201       7.10384178      10.08952236
C        3.76645732      10.32391834      12.84130669
C        7.97523975      12.39157009      12.76247311
C        7.20020819       9.90363121      10.07796383
C        3.65199351       7.99696779       9.40241432
C        3.36523509      11.24224854      13.72735119
C        7.42490292      11.58536053      13.70563126
C        7.81281233       8.97436619       9.23190498
C        4.02992153       7.75839710       8.06176186
C        3.06651711      10.85194302      15.08356380
C        7.17205143      12.06397343      15.00445366
C        8.06232452       9.32660580       7.90608120
C        0.34561419       8.87007141      14.46646214
C        7.04179955      11.49640656       8.24393177
C       10.80140114      11.47563267       8.39236927
C        4.02311850       8.76153183      14.62509727
C       10.45030785      11.73240376       9.69026375
C        4.18011284       9.05775261      13.27346230
C        0.67812067       8.68875122      13.16191483
C        6.80018091      11.12982178       9.57244587
H        2.52730298       7.24149847      11.09125900
H        3.96117830      10.65101147      11.83295155
H        8.21376610      12.05072403      11.80718517
H        7.12221241       9.66182518      11.17511940
H        3.79689050       8.90205574       9.90238285
H        3.17746401      12.29266548      13.44788074
H        7.12022734      10.61597824      13.41593170
H        8.08237076       7.97794962       9.61534500
H        0.67619467       9.79845810      14.87938404
H        6.77225542      12.43756580       7.78364420
H       10.29187107      10.73770618       7.75462866
H        4.27745914       7.81597996      15.02117920
H        9.81152058      11.02440929      10.20561314
H        4.74833012       8.25629520      12.77032661
H        1.30753148       9.34935856      12.58594704
H        6.07650089      11.70676708      10.16412735
C       -1.65909338       7.38424826      17.20508766
C       -0.33804592      10.13349056      19.73401642
C        3.41137385      12.83088589      19.86692619
C        2.31353474       9.89267349      17.66143608
C       -0.76564252       8.24906731      16.63124084
C       -0.99219888      11.08487988      20.48395920
C        2.74098206      11.96371651      20.66094208
C        3.11452341       9.09503269      16.89318275
C       -0.34018606       7.97260952      15.27892303
C       -1.41575539      10.76894188      21.77599525
C        2.37522435      12.24368286      21.97167206
C        3.39562654       9.59984589      15.55814934
C       -4.39330196       8.89714527      21.64547348
C        2.41179943      11.67325783      16.00677872
C        6.39535713      11.29856396      15.86681557
C       -0.30308133       8.59941101      21.59004593
C        5.96758842      11.78829384      17.10857391
C        0.00933813       8.86543369      20.25710487
C       -3.99207282       8.52762985      20.40377617
C        2.00054836      11.19544411      17.20023537
H       -2.02983236       7.76351309      18.16559601
H       -0.10682236      10.30221653      18.73544693
H        3.98075080      12.48061466      18.95888519
H        2.00257492       9.52815151      18.61985016
H       -0.30947348       9.05877781      17.24601746
H       -1.06900680      12.14026928      20.16874313
H        2.52982807      10.98224258      20.20765305
H        3.34085369       8.13381386      17.14529800
H       -4.07657433       9.82499027      22.15345192
H        2.13461614      12.69168377      15.69704819
H        6.20511770      10.33487320      15.47759724
H       -0.09975362       7.64131546      22.05361366
H        5.43299770      10.96798420      17.59217644
H        0.53165835       8.15038300      19.63779068
H       -3.30823898       9.17538357      19.93728256
H        1.37786746      11.81196022      17.84072304
C       -6.22871971       7.37315035      24.55124283
C       -5.03920078      10.31807804      26.98440933
C       -1.14031017      13.03622246      27.01169395
C       -2.36310816       9.98152351      24.29097939
C       -5.45588493       8.25851536      23.85039139
C       -5.87644005      11.17272091      27.68311691
C       -1.91457820      12.16794777      27.73538017
C       -1.61917138       9.04972935      23.57033920
C       -5.13757992       8.00420094      22.50134087
C       12.51208782      10.80810356       0.42431325
C       16.50878143      12.46336079       0.56969559
C       -1.10975432       9.51505947      22.33941460
C        9.79279900       8.75132751       0.43626505
C       -2.25683737      11.61425018      22.52766991
C        1.58765435      11.37902069      22.75375175
C       13.87102890       8.83932304       0.32372415
C        1.24352741      11.67067146      24.03141403
C       -4.52424288       9.23663425      27.57448959
C       -8.63907909       8.47949791      27.68000793
C       -2.60728192      11.31645584      23.76478386
H       -6.34258842       7.51603413      25.62385368
H       -4.64480734      10.57523918      26.00082588
H       -0.77463293      12.80194473      26.05107307
H       -2.70378065       9.79347134      25.30572510
H       -5.10672283       9.22977638      24.23570442
H       -6.45659113      12.05338383      27.23296165
H       -2.35536265      11.23808002      27.34625816
H       -1.28681397       8.14888477      24.09340477
H       10.09596443       9.66113758       0.98104858
H       -2.51906538      12.49578762      21.98733521
H        1.18635678      10.53174114      22.29097557
H       14.24596024       7.92106295       0.79907125
H        0.74555212      10.93406773      24.63738823
H       -3.72171497       8.60404682      27.12058830
H       -7.92066383       9.09683228      27.15558243
H       -2.94133139      12.07344341      24.45528412
C        7.93315458      13.05514431       3.18722653
C        8.85872078      15.84479427       5.42137289
C       13.16946697      18.08628273       5.40870571
C       11.82657623      15.48967934       2.94508386
C        8.62519264      13.90488625       2.31317019
C        8.15193462      16.65264130       6.35941267
C       12.27423477      17.28752136       6.06942034
C       12.57687473      14.72740364       2.08497930
C        9.03894043      13.56057262       1.01744318
C        7.86854362      16.25005531       7.70984411
C       11.78425217      17.53717041       7.41946411
C       13.05577850      15.25487518       0.87347180
C        5.32776308      14.31905651       7.43162489
C       11.82179165      17.29813194       1.38859558
C       15.85589504      17.03248405       1.36484230
C        9.03736591      14.25647831       7.17586088
C       15.40795994      17.40468216       2.58425379
C        9.31268787      14.59676838       5.93033314
C        5.59801531      14.09379673       6.13821411
C       11.43158245      16.85155106       2.60311246
H        7.67111301      13.37943745       4.17274332
H        9.01073551      16.19483185       4.47766495
H       13.63889122      17.88249588       4.50189257
H       11.51703358      14.99293041       3.88184977
H        8.82828140      14.91597843       2.59056497
H        7.66741133      17.51064301       5.93015623
H       11.90345383      16.39137840       5.65218496
H       12.90413380      13.70214367       2.48372674
H        5.69505882      15.17292500       7.96673441
H       11.51138401      18.24409294       0.99014014
H       15.57445145      16.05993843       0.93601513
H        9.37740231      13.31287861       7.59680891
H       14.81801128      16.71504974       3.17531681
H        9.91200066      13.92875195       5.22004461
H        6.13111830      14.68401051       5.45106316
H       10.76605606      17.41800117       3.20648742
C        3.44677210      12.65536976      10.16016293
C        4.30164385      15.71788216      12.51079559
C        8.33806419      18.25469780      12.61290264
C        7.09265041      15.25503349      10.15457439
C        4.14397764      13.57578754       9.47641850
C        3.43658543      16.59739494      13.19410324
C        7.48907280      17.44056892      13.38222980
C        8.06758595      14.59529972       9.39433765
C        4.43037462      13.38256359       8.11151600
C        3.13729072      16.33751297      14.56841946
C        7.19675446      17.77740288      14.66581821
C        8.27586460      14.99025536       8.10614681
C        0.35543096      14.26612282      14.16895103
C        6.99182701      17.00889206       8.48082447
C       10.87835503      16.78601837       8.10668182
C        4.35607862      14.14613342      14.33136559
C       10.48017311      17.04765701       9.43660927
C        4.70915127      14.50055599      13.08768558
C        0.58089972      13.86838436      12.87815952
C        6.63696671      16.48022842       9.72047997
H        3.37868595      12.76354885      11.25717449
H        4.57659626      16.03282356      11.50600147
H        8.66914845      18.07962418      11.59434700
H        6.81874943      14.83124733      11.08728313
H        4.37082338      14.54856205       9.84194660
H        3.02149868      17.50701332      12.72306728
H        7.20680332      16.50302887      13.01720142
H        8.57930183      13.71980762       9.76714039
H        0.78502637      15.16677761      14.54833221
H        6.58242702      17.93253326       8.10347271
H       10.32727146      15.98964500       7.65534735
H        4.71810770      13.24503899      14.80766296
H        9.73287868      16.45992851      10.01842022
H        5.38824129      13.89116764      12.54135990
H        1.23233008      14.42053890      12.28316593
H        5.95276022      16.98025513      10.40973949
C       -1.30056512      13.07071590      17.22883415
C       -0.45321432      15.88301659      19.76667976
C        3.48966932      18.54134560      19.81596375
C        2.60878706      15.71686172      17.24535751
C       -0.62096095      13.84989738      16.39155579
C       -1.26589441      16.68869781      20.45601082
C        2.60579705      17.69570541      20.49096107
C        3.33715248      14.82926655      16.47010803
C       -0.35489875      13.41958904      15.06792068
C       -1.59137619      16.37857246      21.82784271
C        2.25903225      17.98074722      21.82230568
C        3.68830752      15.10955715      15.12777233
C       -4.27954626      14.53795815      21.63237381
C        2.28475976      17.09590721      15.33349800
C        6.35476923      16.94526863      15.46525288
C       -0.42079407      14.30004883      21.60631371
C        6.03037834      17.29091263      16.71808243
C       -0.03067177      14.63205147      20.33198738
C       -3.90021396      14.15712929      20.37455940
C        1.98879063      16.80887413      16.62820625
H       -1.58787167      13.33765125      18.21365356
H       -0.12272292      16.11978149      18.76039886
H        3.79437208      18.37955284      18.73663330
H        2.42959309      15.51685905      18.26481819
H       -0.26532260      14.83795452      16.74090576
H       -1.65491652      17.61877060      20.04953384
H        2.23311305      16.81542015      19.95841217
H        3.79513693      13.91304111      16.93575478
H       -3.73514318      15.39675808      21.94966888
H        1.77554834      17.92100334      14.87841320
H        5.99540186      16.04746056      14.91690254
H        0.03794583      13.44013500      22.10685730
H        5.48691320      16.60651970      17.40191078
H        0.57588500      13.89339161      19.76425362
H       -3.11691093      14.67026997      19.80814934
H        1.33821619      17.47649956      17.13965034
C       -6.19263983      13.26000309      24.58711052
C       -5.25401640      16.13604927      26.81455612
C       -1.13206100      18.36377525      26.94995880
C       -2.06704760      15.88347626      24.55633926
C       -5.45904303      14.11603451      23.80248261
C       -5.93562841      16.92622948      27.70009995
C       -1.77547431      17.48083115      27.79294968
C       -1.40416956      14.96450329      23.80153084
C       -5.11901617      13.77042198      22.44878960
C       12.61017704      16.50315285       0.48694029
C       16.76523590      17.84188652       0.66550040
C       -1.19447792      15.18344688      22.42195702
C        9.82686710      14.41903877       0.21937035
C       -2.26649332      17.35611343      22.64275932
C        1.43142867      17.09234047      22.64471817
C       -4.94262695      14.48176098      28.50660324
C        1.31028175      17.29911232      23.97757530
C       -4.75381565      14.89248562      27.22113609
C       -8.61608887      14.04299450      27.48036194
C       -2.41841722      17.09908104      23.97826576
H       -6.61034107      13.66639900      25.52195168
H       -5.06493950      16.61168861      25.85846138
H       -0.91527206      18.00076294      25.96175194
H       -2.30999517      15.76655960      25.62245750
H       -5.04830980      15.03955841      24.23730278
H       -6.41568184      17.89476395      27.42177773
H       -2.17839980      16.49471283      27.35238457
H       -1.21767712      13.96164703      24.24099159
H       10.31886196      15.26250648       0.67479318
H       -2.66984987      18.19281960      22.11748886
H        1.17578232      16.12394714      22.23880768
H       14.07760811      13.45425224       0.30672407
H        0.76121980      16.61204910      24.55348969
H       -4.19284201      14.31861782      26.46757698
H       -8.09572315      14.72697163      26.81317520
H       -3.03761411      17.77790642      24.59445953
C        7.88252592      18.47454643       3.20057082
C        8.95334530      21.42234612       5.52349424
C       12.24093342      23.19633484       5.80230188
C       11.56790924      21.13465309       3.10371709
C        8.59308624      19.35412407       2.45533991
C        8.10198975      22.19104004       6.27289867
C       11.80011845      22.37858009       6.76232910
C       12.50844479      20.44380379       2.38437986
C        9.03206348      19.00858307       1.13564837
C        7.66820002      21.75986290       7.53060436
C       11.40214443      22.85419846       8.01335716
C       12.91830635      20.85450554       1.06401610
C        5.04470015      19.86768913       7.07685280
C       11.49341011      22.80953026       1.37968504
C       16.13603783      22.52053642       1.07219768
C        8.93014908      19.70037651       7.18880939
C       15.57329369      22.76059723       2.32360005
C        9.39920425      20.14620972       5.94922972
C        5.33300066      19.39219284       5.82588482
C       11.02363396      22.39265633       2.58409095
H        7.49086952      18.82074356       4.18893814
H        9.29503155      21.70286369       4.53876066
H       12.55715084      22.72611427       4.87474775
H       11.17742920      20.73805428       4.01198196
H        8.84922886      20.30207062       2.84515882
H        7.76371384      23.12551308       5.76926565
H       11.95409584      21.29882050       6.67973900
H       12.69347572      19.46945000       2.79822302
H        5.25562620      20.85746193       7.32999563
H       10.94457722      23.70814896       0.99743700
H       15.96349049      21.53520966       0.60346276
H        9.26320457      18.69449997       7.53260612
H       15.15679836      21.89666939       2.85484338
H       10.04595375      19.44893456       5.43150711
H        5.94740391      20.07860565       5.23033571
H       10.23718929      22.80044556       3.04098201
C        3.32675552      18.52163887      10.12686253
C        3.97691774      21.11810493      12.32345009
C        7.78780556      23.58925056      12.38966084
C        7.03721380      20.79220772      10.15616894
C        3.99390841      19.36598206       9.27026558
C        3.27573800      21.99020386      13.08135223
C        7.09450674      22.71398926      13.21045017
C        7.73313618      20.04116249       9.24504185
C        4.31145954      18.96010971       7.97741508
C        2.98929286      21.72860909      14.44707489
C        6.94389439      23.04469681      14.57254601
C        8.08120823      20.50952339       7.97750950
C        0.12251255      19.90464020      14.52734375
C        6.83659220      22.46757507       8.49305153
C       10.93472099      22.01724434       9.08578968
C        4.26670790      19.67287445      14.23027515
C       10.52979374      22.59499550      10.29577541
C        4.55970192      19.97587395      12.92687035
C        0.68375582      19.52237129      13.36290169
C        6.61313248      22.04517937       9.72075653
H        3.03167987      18.87313080      11.11538982
H        4.18503857      21.31151962      11.27313805
H        7.98485470      23.36099625      11.36144257
H        6.72857714      20.31183434      11.13631344
H        4.24223804      20.36536789       9.57448769
H        2.72729158      22.86753464      12.69887638
H        6.77423620      21.75626946      12.91031647
H        8.18202400      19.10188484       9.51477051
H        0.49440092      20.81981850      14.92669201
H        6.35322189      23.38435364       8.16250992
H       11.02389336      20.90637016       9.04557323
H        4.76510096      18.84201813      14.71989632
H       10.33473396      21.99446678      11.14617062
H        5.19828844      19.31494904      12.40975189
H        1.56524813      20.14839363      13.03713512
H        6.07269430      22.71817017      10.41986847
C       -1.67711139      18.40239525      17.46309471
C       -0.64049816      21.41881180      19.77016067
C        3.50247240      23.80087471      19.76893234
C        2.33908606      21.08730507      17.16156197
C       -1.10258865      19.34173203      16.59384155
C       -1.31824815      22.28568840      20.57215881
C        2.73291779      22.95673752      20.54168510
C        3.01282120      20.13566971      16.34391785
C       -0.70579892      19.01472282      15.27944660
C       -1.54287672      21.97789001      21.90823174
C        2.39664626      23.38280869      21.85251427
C        3.41022635      20.51176643      15.02271843
C       -4.20969725      20.07261467      21.55068398
C        2.17492127      22.60310745      15.23635864
C        6.18105078      22.23886490      15.41563988
C       -0.38851622      19.83476067      21.59311676
C        5.82133055      22.65215492      16.65152359
C       -0.20039666      20.17557907      20.25663757
C       -3.97987151      19.71057510      20.23653793
C        1.92814147      22.29010582      16.57300758
H       -1.91011524      18.89113426      18.48092461
H       -0.59234214      21.51281738      18.66528320
H        3.70709276      23.39247322      18.80882072
H        2.14368176      20.78860283      18.23267555
H       -0.79719973      20.34841156      16.93706512
H       -1.71738756      23.22816849      20.18919373
H        2.28577137      22.03030396      20.16302490
H        3.20626950      19.13888168      16.74872208
H       -3.86043644      20.96153259      21.91694069
H        1.85486865      23.55944633      14.87587452
H        5.86849642      21.24653244      15.07711315
H        0.17235747      19.02083969      21.99135208
H        5.31805468      21.95086098      17.27350616
H        0.38875279      19.56644821      19.60005760
H       -3.22080588      20.24379349      19.66466522
H        1.36408269      23.02157402      17.17747307
C       -6.12405682      18.88691902      24.48607063
C       -5.22955847      21.76497841      27.03778648
C       -0.82289118      24.38257980      27.00291443
C       -2.10500193      21.19012451      24.60391235
C       -5.24960375      19.61642647      23.74623489
C       -6.00007772      22.56808281      27.87544823
C       -1.39529467      23.35284042      27.65033150
C       -1.32950878      20.44184685      23.80105972
C       -5.03987455      19.26337624      22.36900902
C       12.47679329      22.09525108       0.57855284
C       16.75613594      23.55466461       0.39680821
C       -1.10773563      20.75879669      22.43693542
C        9.72557449      19.85828972       0.25708577
C       -2.13548279      22.83077431      22.83208847
C        1.75184727      22.48461342      22.74778175
C       13.80089283      20.05551338       0.24780987
C        1.30552006      22.97810173      23.96712303
C       -4.71779251      20.52482414      27.52909851
C       -8.78670788      19.45335388      27.46156502
C       -2.45533395      22.46421051      24.10388374
H       -6.39313889      19.18835449      25.44104385
H       -4.96718359      22.16255760      26.04043579
H       -0.33008930      24.14756775      26.03990555
H       -2.36022806      20.92073059      25.65622139
H       -4.77458811      20.45514107      24.18080330
H       -6.36386871      23.52102470      27.53422737
H       -1.34980130      22.30178261      27.28719711
H       -0.87995899      19.50337982      24.18116760
H        9.87412739      20.84539604       0.72955656
H       -2.54966140      23.82704163      22.55588722
H        1.40038061      21.51717567      22.30407715
H       14.10651970      19.11528587       0.67482394
H        0.70547044      22.46471024      24.75070763
H       -4.05448866      19.91944885      26.89897156
H       -8.35921383      20.10768318      26.74771690
H       -2.99349427      23.19658089      24.74040604
C       15.52230835      24.04017830       2.87622809
C       15.33084488      26.89709663       4.66349363
C       21.05788231       1.59327543       5.74181557
C       20.11595917      26.98206139       2.48636556
C       16.08583832      25.04631233       2.12356043
C       14.69112873      26.70210457       5.86120987
C       20.04430389       0.93445611       6.33746910
C       20.88936806      26.23169708       1.66151440
C       16.72535324      24.85655022       0.92466474
C       15.21184540      26.02534103       6.98714542
C       19.56676483       1.31034863       7.58926916
C       21.33855820      26.66600418       0.35830507
C       11.55401897      25.12753296       7.05910206
C       20.06302452      28.70573998       0.77985889
C       23.06331635       0.00905922       1.06709051
C       17.31043625      25.78722000       5.61937094
C       22.93126678       0.22643556       2.43056178
C       16.73231888      26.49746704       4.60075474
C       12.18253231      24.63838577       5.95720434
C       19.68544197      28.27333832       2.01194167
H       15.02336884      24.24905205       3.80799270
H       14.69494534      27.25442314       3.83284736
H       21.45958710       1.20681548       4.76359653
H       19.82682800      26.71304512       3.50954390
H       16.06006241      26.07865906       2.40979886
H       13.66159153      27.00149345       5.95866013
H       19.68673325       0.03565999       5.88923407
H       21.29103851      25.33465385       2.07855582
H       11.52502346      26.16177750       7.20617723
H       19.75156021      29.57915878       0.26879129
H       22.38452911      58.41144562       0.49252599
H       18.34944725      25.51220894       5.54849768
H       22.20629311      58.50245666       2.99520969
H       17.29815292      26.68122673       3.70405054
H       12.60065556      25.19883156       5.15283489
H       19.05559731      28.88239479       2.62420821
C       10.70271301      24.05409622      10.46918583
C       11.40051937      26.79254341      12.80176258
C       15.45740604       2.13179278      12.40582466
C       16.57146454      24.98984337       9.21690369
C       10.91136360      24.86762810       9.37867451
C       10.54579163      27.51697922      13.57864571
C       14.52046108       1.53090072      13.21985149
C       17.23264503      25.05029869       8.02141571
C       11.25870991      24.25558090       8.16050053
C       10.42764187      27.23116493      14.99176598
C       14.46320057       1.80289626      14.59627914
C       16.56756973      25.57820320       6.86497068
C        8.08747768      25.18937302      14.21310425
C       14.52939510      25.79856491       8.22319317
C       18.55788422       0.53719753       8.23741436
C       12.16902924      25.46049309      14.71770477
C       18.28350639       0.84974921       9.52781677
C       12.19110870      25.74969673      13.32873917
C        8.29919624      24.84500504      12.92393684
C       15.20718384      25.28165817       9.28239059
H       10.57156467      24.48136139      11.43070602
H       11.49446869      27.03716087      11.72663689
H       15.52121735       1.83428001      11.37326431
H       17.17965889      24.69976997      10.06164455
H       10.81423569      25.94538879       9.44512653
H        9.89541340      28.24693108      13.18297577
H       13.86862850       0.82591337      12.72663307
H       18.26931381      24.62033081       7.96534348
H        8.55117798      26.05881310      14.62072086
H       13.48834991      25.97787094       8.29710007
H       17.99572945      58.80278778       7.65898371
H       12.65113258      24.55877113      15.08702946
H       17.68665695       0.19950150      10.08341885
H       12.86660480      25.11088943      12.69794273
H        8.61443996      25.60501862      12.26252460
H       14.69044781      25.08976555      10.22726345
C        6.28749132      23.86876297      17.17035103
C        7.31931877      26.20333672      19.68260956
C       11.01962852       2.46038222      19.70229721
C       10.17173481      26.76603889      17.66182137
C        7.07152605      24.63552475      16.42433357
C        6.57306576      27.13839531      20.34426880
C        9.97458267       2.03050756      20.38404655
C       11.07524395      26.02162170      16.93497276
C        7.37511301      24.26873016      15.06696224
C        6.53058434      27.17534256      21.76368523
C        9.84260368       2.37944126      21.73437309
C       11.23710823      26.21008110      15.54979420
C        3.64463282      25.49007225      21.47223663
C        9.53975391      27.97162056      15.78816891
C       13.54868793       1.11462533      15.41373539
C        7.79418087      25.13976097      21.74436760
C       13.38378048       1.45283556      16.68453789
C        8.01007652      25.23110962      20.38971710
C        3.98541403      25.08576965      20.20906830
C        9.51922321      27.86491013      17.12984657
H        6.09822559      24.09536362      18.21672821
H        7.12025642      26.06541634      18.61915970
H       10.97656918       2.19719458      18.65645599
H       10.10469246      26.58496666      18.70675278
H        7.43910933      25.59390831      16.82962990
H        6.00277042      27.90604019      19.78685570
H        9.15333843       1.46146584      19.94260979
H       11.71081448      25.32531166      17.38981247
H        3.95803928      26.39935684      22.05328178
H        9.00861931      28.73128700      15.26140785
H       12.95405960       0.32822344      14.90399742
H        8.23096371      24.32361794      22.25906181
H       12.63225555       0.94438148      17.23377419
H        8.65497684      24.50145912      19.90450478
H        4.46411800      25.77684975      19.49286652
H        8.83352757      28.48029137      17.69793129
C        1.82223713      24.25473785      24.41259003
C        3.23943067      27.56149101      26.36014366
C        5.73210907       1.46867430      26.47737312
C        6.43769360      27.18152237      24.56225777
C        2.66428900      25.03552246      23.63850784
C        2.51470351      28.36941338      27.14973831
C        4.97031021       0.71927273      27.26000595
C        6.99089098      26.17366028      23.89621544
C        2.85898924      24.60618591      22.29945183
C        2.11967134      27.96881104      28.45293617
C       23.82621384       0.74203587       0.19538927
C        7.13191843      26.15977669      22.50115395
C       17.37974930      25.92389870       0.28672069
C        5.81198597      28.19194794      22.46094322
C        8.74134636       1.92853940      22.49987221
C        3.26219106      25.80109596      28.03798866
C        8.61373901       2.24980068      23.78785133
C        3.64810872      26.26262474      26.78855515
C       -0.76311922      25.66407967      27.63549995
C        5.69563150      28.12721825      23.82063675
H        1.44736373      24.66049194      25.37850189
H        3.73784518      27.93587875      25.47335052
H        5.56770229       1.41743600      25.42617226
H        6.46208572      27.23324013      25.67350388
H        2.91075230      26.07454300      23.92651367
H        2.23238015      29.29486847      26.67718697
H        4.14711237       0.18194528      26.83542824
H        7.53825712      25.49234200      24.46848297
H       17.41113472      26.93023491       0.73227137
H        5.41352797      29.00899887      21.83376312
H        8.00276470       1.34239304      21.93340111
H        3.51761889      24.82712173      28.39526749
H        7.62736416       2.01071429      24.23711586
H        4.27468824      25.77081871      26.04751015
H       -0.27067423      26.53318405      27.18563080
H        5.13689375      28.93419838      24.32068062
C       15.75023174       2.48495698       2.88831329
C       16.70710182       5.20796490       5.45918131
C       21.07651138       7.04102850       5.64542007
C       20.16181946       4.47049952       3.25759006
C       16.66800308       3.15823603       2.14288616
C       15.85441780       5.91708851       6.26110029
C       20.23743057       6.28167820       6.42243767
C       20.84496880       3.67654848       2.40547752
C       17.06434441       2.68184924       0.88040090
C       15.69997501       5.52568579       7.57550001
C       19.94587135       6.67963409       7.75560093
C       21.07867432       4.09495306       1.06041312
C       13.12196064       3.63471961       7.38233614
C       19.85940933       6.11490536       1.52286363
C       23.78917122       5.94092274       1.12567520
C       17.07461166       3.57247686       7.18410492
C       23.46092415       6.41779089       2.35476184
C       17.31830788       4.03227329       5.92934418
C       13.36038971       3.46089029       6.04889870
C       19.73123932       5.72198439       2.81675959
H       15.37332058       2.96751356       3.76123190
H       16.92305374       5.63989544       4.49486589
H       21.38953400       6.61431694       4.67810965
H       19.94805336       4.07078648       4.24472570
H       17.00377464       4.12582207       2.34009266
H       15.38830376       6.85971785       5.90082741
H       19.96423149       5.25203991       6.11777067
H       21.20634079       2.62785935       2.71604896
H       13.35102940       4.56709290       7.89691114
H       19.42625237       7.07375765       1.29176843
H       23.34983063       5.04688025       0.68272209
H       17.40732765       2.54655337       7.49445152
H       22.82212639       5.87080193       2.99900579
H       17.92848969       3.43611693       5.22274637
H       13.78110981       4.27386999       5.49016619
H       19.41192436       6.47736406       3.55369806
C       11.85958958       1.51629412      10.20165920
C       12.07130623       5.31866455      12.45117092
C       16.33193207       7.30698252      12.58849812
C       15.18462086       4.54239798      10.09213638
C       12.34475517       2.53685188       9.48818684
C       11.41901398       6.05396175      13.37590599
C       15.43069363       6.57879591      13.30730438
C       15.96764374       3.82551551       9.28355026
C       12.54200649       2.57576370       8.05654240
C       10.99152184       5.46757555      14.56608105
C       15.09323120       6.94215775      14.64758587
C       16.24785995       4.30077982       8.02456951
C        8.23066616       4.11232090      13.84775257
C       14.98648167       6.35698557       8.47237396
C       19.24645233       5.88652802       8.67426968
C       11.91972923       3.38215518      13.81661415
C       18.91167831       6.38606071       9.93502617
C       12.31035709       3.94886827      12.65157986
C        8.95357704       3.83215666      12.66559696
C       14.69371414       5.82382536       9.71351147
H       11.73394775       1.68840742      11.26646614
H       12.55946922       5.81098652      11.61512947
H       16.67543221       7.01731682      11.63440609
H       15.00586319       4.22400951      11.05225182
H       12.46186352       3.48779416      10.01066685
H       11.19973660       7.10789013      13.25457096
H       15.22838974       5.53570890      12.95625401
H       16.40730858       2.83462739       9.65580368
H        8.44342136       5.04255390      14.35236931
H       14.73051834       7.34529924       8.20105839
H       18.96488571       4.89789104       8.39844894
H       12.04186630       2.37384653      14.09069729
H       18.31407166       5.81665564      10.62468433
H       13.02682781       3.39487910      12.01995754
H        9.43148136       4.67653179      12.17201805
H       14.03475094       6.41563988      10.37372017
C        6.51873446       2.22729039      16.51224709
C        7.42270422       4.99112654      19.40486908
C       11.57986546       6.97347975      19.72306442
C       10.03028488       4.33434916      16.91836166
C        7.13107109       3.21678996      15.85375977
C        6.93986559       5.79598427      20.36433029
C       10.70010185       6.33098507      20.58057022
C       10.73187542       3.52138734      16.04056740
C        7.61644363       3.07963657      14.52252483
C        6.27445126       5.19540262      21.51082039
C       10.37970257       6.86623955      21.80418015
C       11.25083637       4.14089155      14.81089687
C        2.86073065       2.92595649      21.76491737
C       10.21895218       6.24822569      15.52848721
C       14.27823162       6.07801867      15.42176914
C        6.59332085       2.98584104      20.53023338
C       13.93792152       6.38145876      16.67970848
C        7.21378040       3.56028199      19.50969696
C        3.08486223       2.47887445      20.51663017
C        9.80601025       5.70360565      16.66820526
H        6.06366062       2.41155934      17.47216988
H        7.97916842       5.28787422      18.53647614
H       11.81340504       6.61127615      18.71527672
H        9.53553486       3.92517757      17.83197975
H        7.28877592       4.20742273      16.33822060
H        7.01410341       6.90512419      20.36735153
H       10.22325611       5.35865688      20.26472664
H       10.95465946       2.49823642      16.26263046
H        2.97878194       3.91821623      22.11051750
H       10.05453014       7.26065207      15.39624405
H       13.91507339       5.12476635      14.93350792
H        6.46189404       1.91982222      20.61135674
H       13.24158669       5.71877432      17.17831039
H        7.63658857       2.87574720      18.76786041
H        3.30924416       3.15027070      19.67613029
H        9.19611263       6.25016117      17.35406303
C        2.17224979       1.28779507      25.12755775
C        2.47783709       4.92282152      26.85548782
C        6.75169230       7.25838614      26.59716988
C        5.23692369       3.99672580      23.84327698
C        2.32908726       2.27693629      24.18572426
C        1.81881690       5.70453024      27.77001190
C        6.08533144       6.38749599      27.38846779
C        5.71943569       3.23408175      22.84930229
C        2.62689996       1.95445895      22.82374382
C       20.55195618       5.37540007       0.63284063
C       24.49712372       6.81304216       0.23208015
C        6.17490482       3.78946257      21.64125633
C       17.84548759       3.47244048       0.01990781
C        5.80068731       5.96210861      22.56244278
C        9.55345154       6.05630875      22.61027336
C       21.67827034       3.29483294       0.08414073
C        9.34880924       6.43687010      23.87156487
C        3.05911922       3.72169852      27.34503746
C       -0.53328389       2.94944644      27.36556625
C        5.32821178       5.40030670      23.76551247
H        2.14319658       1.63196838      26.15124321
H        2.57724023       5.20715427      25.79316521
H        7.15737581       7.01547480      25.60573959
H        4.93864107       3.52113152      24.76786613
H        2.25763917       3.34578156      24.49131203
H        1.28653300       6.59910345      27.49329948
H        5.77632046       5.38185024      27.12315369
H        5.77545023       2.15842795      22.89507484
H       18.02443886       4.53168201       0.29201463
H        5.76800585       7.00911140      22.50020218
H        9.17392635       5.16182566      22.21690178
H       22.08206940       2.34358883       0.45657516
H        8.68435669       5.80796623      24.51307106
H        3.53152323       3.09785676      26.61960411
H       -0.03517278       3.62035584      26.61772919
H        4.88075781       6.10475111      24.45037842
C       15.69855785       7.41160965       3.02905178
C       16.79143143      10.36797714       5.58348560
C       20.75054550      12.74278545       5.56325436
C       20.18188286      10.19665146       3.26440382
C       16.41217613       8.33739662       2.33508587
C       16.00047874      11.10616207       6.42788410
C       20.13093376      11.86462975       6.38073254
C       20.90674400       9.40257835       2.46794653
C       16.79456139       8.05080795       1.00407350
C       15.77955914      10.69229698       7.71875525
C       19.78646088      12.22227669       7.73171186
C       20.97209358       9.66261864       1.01938307
C       12.93925381       8.89726067       7.60029554
C       19.50847816      11.55625820       1.39471304
C       23.71618271      11.60327911       0.91601801
C       17.22336578       8.73139000       7.31527758
C       23.29063988      12.02599239       2.20926929
C       17.35461044       9.12305927       6.00972557
C       13.38735104       8.69597149       6.32125282
C       19.38328552      11.27393246       2.70556164
H       15.38042164       7.56708622       4.06193209
H       16.98974037      10.85739231       4.61025953
H       21.06768608      12.54909801       4.56245995
H       20.20846176       9.98996544       4.33688974
H       16.70410347       9.29666424       2.61674261
H       15.60632992      12.11598110       5.97661972
H       19.85603333      10.82244968       6.09802914
H       21.55684853       8.61936665       2.83914208
H       13.33522797       9.67300034       8.16737270
H       19.15260696      12.52459240       1.05260396
H       23.20002174      10.71536732       0.45555812
H       17.61276436       7.77614117       7.71965504
H       22.72329712      11.37509823       2.82795119
H       17.84489632       8.44466591       5.32436323
H       14.08100986       9.49762344       5.85640049
H       18.70184708      11.89085579       3.41439533
C       10.56649876       7.20529652       9.97697163
C       12.10822487      10.38868046      12.69924545
C       16.36064529      12.90085793      12.57368469
C       15.48400021       9.89568424      10.37923336
C       11.44439316       8.10267353       9.46114254
C       11.41835403      11.22367954      13.61802769
C       15.62695885      12.06080914      13.31507683
C       16.23364449       9.09668636       9.48673058
C       11.98007011       7.96292162       8.08750057
C       11.24676132      10.83431053      14.93650913
C       15.19265842      12.35903835      14.64689064
C       16.41473198       9.52772331       8.14814472
C        8.40165520       8.80688858      14.26431751
C       15.06405449      11.51054287       8.65551662
C       18.97810173      11.41107273       8.54547882
C       12.26188660       8.69604778      14.36119270
C       18.70089340      11.77317429       9.84293938
C       12.52056885       9.11333752      13.10971546
C        8.54554558       8.46315575      12.93746376
C       14.89954853      11.11407566       9.95344353
H       10.15205002       7.33680677      10.94756031
H       12.38413143      10.63738918      11.69933891
H       16.82718849      12.68523026      11.64742851
H       15.46857166       9.50277615      11.38219357
H       11.69903564       8.93878746      10.10871410
H       11.07045364      12.19460011      13.31815910
H       15.49635792      10.98127937      12.96393967
H       16.66486168       8.18001938       9.87755680
H        9.08322620       9.43189430      14.76656628
H       14.76931381      12.44774723       8.20053482
H       18.72460365      10.41196537       8.21737862
H       12.59093094       7.72395945      14.70133972
H       18.23287010      11.02647591      10.44795227
H       13.02732182       8.41821289      12.40497875
H        9.24656963       8.92032528      12.18882275
H       14.36533546      11.82827473      10.66040707
C        6.89205599       7.58337212      17.38675880
C        7.77860832      10.18051243      19.71847725
C       11.54603195      13.18580914      19.88842583
C       10.82952023      10.16287613      17.54853058
C        7.63307238       8.40775967      16.56958389
C        6.94387293      11.07329178      20.40488052
C       10.91860199      12.24957561      20.63831520
C       11.47018528       9.24078751      16.76231194
C        7.55667067       8.15526867      15.14538574
C        6.64017677      10.86108494      21.78848457
C       10.59109020      12.52107048      21.98555374
C       11.74278927       9.58340359      15.39006042
C        3.74576235       8.48274803      21.37092018
C       10.48164368      11.62921619      15.76939392
C       14.50949478      11.42075062      15.44343281
C        7.99441004       8.84034061      21.63652802
C       14.08756256      11.85933495      16.69423103
C        8.28348446       9.03654385      20.35309601
C        3.99720168       7.85742283      20.17921638
C       10.26232147      11.36973190      17.08235741
H        6.77472639       7.97243595      18.46115303
H        7.93890762      10.31927776      18.64727783
H       11.78531456      13.00165558      18.83469009
H       10.82699203       9.82038784      18.59184647
H        8.33034325       9.18640137      16.93305778
H        6.63363409      12.03570843      20.01840019
H       10.58851528      11.36130905      20.14377975
H       11.88014889       8.33996105      17.20414925
H        4.14254236       9.53499031      21.48310661
H       10.01608467      12.50812531      15.28620338
H       14.27753544      10.38257504      15.03065014
H        8.46933937       7.97219753      22.07401085
H       13.41479683      11.15308857      17.34043312
H        8.97082710       8.33666229      19.90853119
H        4.64148426       8.34488392      19.39255524
H        9.63746452      12.03050900      17.69619370
C        1.72691643       7.67280149      24.50462914
C        2.52551293      10.46008968      26.91268730
C        6.54532766      13.09270954      26.51035500
C        5.79436493      10.14887810      24.30812836
C        2.62085295       8.29042339      23.66569328
C        1.72944343      11.20300102      27.73475266
C        5.85654402      12.20739174      27.27881813
C        6.74205780       9.37455654      23.69887924
C        2.90905166       7.79134369      22.36405182
C       20.31574631      10.79633808       0.53012574
C       24.49726105      12.50240231       0.13786122
C        7.17942858       9.69314098      22.42274094
C       17.53369331       9.00945663       0.27838755
C        5.68212557      11.69004440      22.42035866
C        9.69607353      11.70646286      22.72944641
C       21.73026848       8.90273476       0.14292346
C        9.31833172      12.10836411      23.98285484
C        3.12064219       9.29633808      27.34451675
C       -0.85356981       8.72877216      27.54711342
C        5.26136112      11.33018970      23.64605904
H        1.45877063       8.08330727      25.45482826
H        2.84976220      10.84993172      25.95824814
H        6.63110638      12.84484291      25.41484070
H        5.50771093       9.91408062      25.33203888
H        3.08928013       9.26992035      23.89213943
H        1.24926782      12.13064861      27.46460152
H        5.53204203      11.36041546      26.72314644
H        7.21758890       8.43461800      24.10825920
H       17.98546791       9.97475815       0.63340682
H        5.50502348      12.71800137      22.04613876
H        9.28082943      10.81124496      22.20912552
H       22.02606201       7.93455601       0.37649468
H        8.79100037      11.41166306      24.65840149
H        3.77991223       8.70792103      26.70059586
H       -0.35438448       9.50939178      27.05354881
H        4.51450920      11.96798515      24.12002373
C       15.84322166      13.19060230       3.26818705
C       17.11424255      15.90518093       5.70217419
C       20.98249626      18.47420311       5.48624039
C       19.92911720      15.66637802       2.98573947
C       16.61336708      13.99633026       2.41903591
C       16.32346153      16.71540260       6.46808720
C       20.16434669      17.64044952       6.16623783
C       20.59077072      14.80922985       2.10975838
C       16.94437599      13.65642166       1.12136602
C       15.86441326      16.20063972       7.72625351
C       19.78518867      17.85023689       7.51092577
C       20.90026665      15.31633377       0.82668674
C       13.05470371      14.37835598       7.58378744
C       19.92269135      17.45602989       1.38866234
C       23.75361252      17.24525642       1.23017991
C       17.11115074      14.14787483       7.37283659
C       23.27472687      17.50566483       2.46015263
C       17.47636032      14.59036541       6.15617704
C       13.41561317      14.01311207       6.30838585
C       19.65419388      16.99172211       2.63993979
H       15.39347363      13.54270649       4.19146776
H       17.39015961      16.34329224       4.74307442
H       21.05536842      18.28749275       4.40003967
H       19.53034973      15.27428246       4.00522423
H       16.95691299      14.95454502       2.78938174
H       15.98973560      17.67423248       6.13878012
H       19.71397018      16.75858498       5.62456083
H       20.87879562      13.77537823       2.32206392
H       13.32166862      15.26816940       8.08210945
H       19.66884995      18.49100494       1.14651060
H       23.31080246      16.41515160       0.71761960
H       17.44445801      13.20774651       7.70808411
H       22.61873436      16.75448608       2.89021420
H       18.12639618      13.96093464       5.56075954
H       14.11422825      14.69523048       5.83718109
H       19.06938553      17.50902939       3.41635585
C       10.91598034      12.87584591      10.28870487
C       12.05561447      15.67227936      12.82775211
C       16.07052040      18.41597557      12.80601406
C       15.12874508      15.34694290      10.28668308
C       11.73468018      13.79010296       9.63941860
C       11.30645561      16.54574394      13.60189343
C       15.26970196      17.66202164      13.55839252
C       15.89207268      14.52601719       9.50711060
C       12.14439869      13.57997894       8.33332729
C       11.14301395      16.38613319      14.98751545
C       14.96004009      17.99972153      14.87931442
C       16.35965919      14.98786163       8.22282124
C        8.23114109      14.20624352      14.41284275
C       15.05124474      17.03419876       8.54272270
C       18.94388580      16.97265816       8.26328373
C       12.37281609      14.25176525      14.68901348
C       18.67673492      17.26573181       9.56273365
C       12.64177513      14.54443836      13.40224457
C        8.37095165      13.68637466      13.16798496
C       14.67178917      16.66799545       9.80271912
H       10.70635223      13.12876892      11.35054207
H       12.25362110      15.98523998      11.78512287
H       16.28676605      18.00292778      11.79411697
H       14.70006371      14.99108791      11.18459702
H       12.10402107      14.63510895      10.14041805
H       10.89727020      17.45023918      13.21595955
H       14.79322243      16.76986885      13.12900639
H       16.01852036      13.48369789       9.71208572
H        8.51276302      15.17461109      14.78238106
H       14.60581779      17.87393951       8.05120468
H       18.59237480      16.07057190       7.73999643
H       12.77700615      13.34582996      15.14330578
H       18.14142799      16.54075623      10.11982632
H       13.26497173      13.92425156      12.76056099
H        8.74298668      14.33840179      12.40439892
H       14.02898216      17.26486778      10.48715210
C        6.39501667      13.12533665      17.52375603
C        7.87134933      15.76881790      19.82205009
C       11.90760422      18.49376869      19.97446823
C       10.77694130      15.82241917      17.67358780
C        7.17887974      13.84068584      16.64509583
C        7.00659513      16.61694336      20.41182899
C       10.99075890      17.80969620      20.68596649
C       11.38457203      14.89921284      16.91634369
C        7.52691889      13.38906288      15.35808754
C        6.53331184      16.40579605      21.76796341
C       10.66119957      18.07994843      21.98097229
C       11.59918404      15.14645195      15.52359390
C        3.60909367      14.39871788      21.77185822
C       10.54804230      17.39030647      15.86245060
C       14.21921158      17.12892532      15.72607040
C        7.55771685      14.20677948      21.66429901
C       14.11503410      17.47305679      17.07789230
C        8.11229229      14.50461292      20.43980598
C        3.77805996      14.08500481      20.44231987
C       10.41980743      17.11373329      17.19845581
H        5.90718508      13.52773857      18.46537972
H        8.41553307      15.97440910      18.95004082
H       12.01049900      18.22957611      18.90071487
H       10.70859814      15.70495892      18.78605080
H        7.49060011      14.86004353      16.80187798
H        6.77907753      17.53853989      19.84862137
H       10.56614590      16.88884544      20.28788948
H       11.80661297      13.98009586      17.33793640
H        3.95377827      15.32730865      22.17506218
H       10.32345390      18.34924507      15.42854023
H       13.75232124      16.24670982      15.34052181
H        7.69556761      13.28349495      22.16297722
H       13.70182037      16.76682281      17.74601173
H        8.69926167      13.79055786      19.91478157
H        4.34065771      14.81376171      19.82248116
H       10.03035545      17.86402893      17.90231895
C        1.80222249      12.84834671      24.61636734
C        2.92873144      16.35947227      26.83816719
C        6.82854223      19.05751419      26.97095299
C        5.61181736      15.73802662      24.32263756
C        2.47845483      13.75358677      23.89851952
C        2.20860195      17.14399910      27.74127960
C        6.13175201      18.07784653      27.64431381
C        6.42714262      14.84225273      23.67388344
C        2.83008099      13.51121712      22.54070091
C       20.56647682      16.64066315       0.45685586
C       24.50933456      18.18386841       0.49164832
C        6.79814196      15.14290237      22.38999939
C       17.79244232      14.57676792       0.37542915
C        5.63147926      17.30084419      22.47055054
C        9.83758259      17.24065018      22.78942299
C        2.86693358      14.57229233      28.42754173
C        9.53534222      17.49880409      24.04403114
C        3.22092628      15.03090477      27.20736504
C       -0.69312072      14.29480648      27.58568382
C        5.22203541      16.96831512      23.74522209
H        1.61807930      12.95189667      25.68849182
H        3.23626375      16.65070343      25.86258316
H        7.16121054      18.85954857      25.97804260
H        5.33156633      15.61199951      25.35921669
H        2.89760208      14.61263275      24.39197159
H        1.92914140      18.15743446      27.49393272
H        5.76756859      17.24992752      27.08036613
H        6.67249727      13.89537239      24.14023209
H       18.16931534      15.47066498       0.90822083
H        5.33604097      18.24447441      22.05111885
H        9.51690102      16.29776573      22.23327827
H       21.81377792      13.53676033       0.25845566
H        8.92337418      16.85760117      24.60243988
H        3.69102025      14.30074883      26.56309891
H        0.06237182      14.83169365      27.14392281
H        4.68722248      17.74537849      24.31855202
C       15.88416195      18.59930992       3.11223412
C       16.70863724      21.34383774       5.43446112
C       21.13785934      24.02868843       5.54947567
C       19.89566612      21.40685844       3.02661633
C       16.74299622      19.42786407       2.42576408
C       15.82271862      22.06393242       6.16295910
C       20.38889503      23.11093140       6.22877455
C       20.65131187      20.58702278       2.25288916
C       17.19806671      19.03942490       1.13639736
C       15.43544292      21.72073746       7.46682882
C       20.08264923      23.26485252       7.64393473
C       21.03280067      20.92699432       0.93598229
C       13.25649071      19.43096352       7.35027790
C       19.87616158      23.02069664       1.26650774
C       23.75550270      22.82707787       1.87587917
C       16.96264839      19.72936821       7.17703056
C       23.53629494      23.15576172       3.17241097
C       17.31609535      20.19237137       5.94965649
C       13.73619270      19.19865227       6.11812067
C       19.48986053      22.64375114       2.55653596
H       15.59148312      19.01407051       4.09288979
H       17.02576637      21.78755951       4.50380135
H       21.26142693      23.93000603       4.49188089
H       19.51736832      21.04805946       4.05739641
H       17.03728485      20.34993935       2.84103131
H       15.49627209      23.03656960       5.72314548
H       19.78100967      22.38816452       5.68499231
H       20.96340942      19.68441963       2.73418808
H       13.73947906      20.21347809       7.87484217
H       19.52411842      23.91915512       0.85401905
H       23.12488747      22.07248688       1.43490267
H       17.40777779      18.91635895       7.69062376
H       22.96452332      22.46708298       3.78982687
H       18.22071075      19.80528641       5.51805449
H       14.43721485      19.94622231       5.80314779
H       18.83641624      23.28044701       3.11430836
C       11.11859035      18.09741211      10.09841919
C       12.31844234      21.46841812      12.85235882
C       15.67316818      23.90482140      12.75807762
C       15.23387146      21.00211906      10.11558437
C       11.95825863      18.93991852       9.45532990
C       11.55720043      22.36832047      13.57681084
C       15.11962032      23.00865364      13.62773895
C       15.92891884      20.17612267       9.31146050
C       12.40803814      18.63085175       8.11098003
C       11.16196156      22.04049683      14.87579823
C       14.88211823      23.38829041      15.00228405
C       16.05511475      20.51029778       7.95826626
C        8.32078552      19.88445473      14.32261276
C       14.59895802      22.42992210       8.35154819
C       19.17969131      22.44564438       8.32374668
C       12.43371391      19.95603943      14.69609547
C       18.94230080      22.67344856       9.69022751
C       12.79261875      20.27583313      13.40885067
C        8.67875004      19.54186249      13.04385757
C       14.55854893      22.12825012       9.65472698
H       10.78752327      18.45832825      11.03762531
H       12.48310184      21.65889931      11.76407814
H       15.81461906      23.61688423      11.75479221
H       15.17686558      20.86570740      11.19024563
H       12.31952477      19.82857323       9.99384880
H       11.18028641      23.25214958      13.09245491
H       14.79983234      21.98081398      13.26374817
H       16.30974770      19.21762466       9.55403233
H        8.59917355      20.83734322      14.71149540
H       14.07756710      23.19175339       7.89621592
H       18.58760834      21.65916252       7.76872921
H       12.78053474      19.01074600      15.12477970
H       18.20067215      22.04787064      10.17023468
H       13.44042587      19.59946442      12.83868790
H        9.24481106      20.20644379      12.44662380
H       14.06439304      22.80664635      10.37988377
C        6.54701471      18.53263283      17.27733040
C        7.69970655      21.10968399      19.86802292
C       11.23575020      23.65299606      19.82789803
C       10.24417973      21.23096848      17.48339844
C        7.33061123      19.35756683      16.49871254
C        6.97275591      22.04405594      20.58092117
C       10.64964294      22.74119186      20.63265419
C       11.16889477      20.47901154      16.77838516
C        7.65784407      18.95501709      15.20041752
C        6.54335642      21.75256348      21.88899803
C       10.51690865      23.07001305      22.00276566
C       11.56944561      20.79133034      15.44300938
C        3.56222010      20.00484848      21.65281868
C       10.13182068      22.75394058      15.54595661
C       14.26410580      22.64976120      15.97848129
C        7.61876011      19.56881714      21.71462059
C       14.11621571      23.07461929      17.22199440
C        8.10188484      19.95669937      20.48287582
C        3.95760012      19.69106865      20.44225693
C        9.67218113      22.34719467      16.77440643
H        6.27145243      18.71146584      18.23139000
H        8.02024841      21.37003708      18.88018036
H       11.51004887      23.36912727      18.84482574
H        9.94948673      21.13329697      18.53604507
H        7.71608639      20.32276535      16.86187172
H        6.67684221      23.03115273      20.17831421
H       10.36517906      21.71349335      20.31144524
H       11.65326500      19.56448936      17.18590355
H        3.98104072      20.86314201      22.15373611
H        9.74616337      23.71077919      15.08339024
H       13.80781841      21.66367531      15.75044632
H        7.91616583      18.57749176      22.07021713
H       13.56847191      22.45302582      17.92056274
H        8.74337292      19.21480179      19.95096207
H        4.58655739      20.37662506      19.97249413
H        8.88383007      22.86316872      17.28533745
C        1.80738115      18.49592972      24.60161972
C        2.75091314      21.65241814      26.77815247
C        6.61024094      24.23796654      27.38771248
C        5.54452276      21.06806374      24.49368095
C        2.56500459      19.29539490      23.83175087
C        2.04552341      22.46948433      27.56777763
C        5.85575867      23.42300797      28.16034698
C        6.38463545      20.22253418      23.72890663
C        2.77078056      19.11965561      22.42385292
C       20.61040115      22.14670372       0.44244871
C       24.58700371      23.66123009       1.01887023
C        6.78869247      20.49525070      22.39210892
C       17.93029785      19.95204735       0.26964796
C        5.66029978      22.59760094      22.61943054
C        9.97081852      22.12874794      22.85402679
C       21.73869324      20.06367874       0.11053032
C        9.56933117      22.40633583      24.08375168
C        3.25701761      20.43987465      27.33611488
C       -0.72008061      19.59414864      27.45841789
C        5.24119425      22.32441139      23.87892532
H        1.78477728      18.65734482      25.62185478
H        2.96438742      21.86440849      25.76226807
H        6.62465048      24.10473824      26.29214096
H        5.32349300      20.85684586      25.58705139
H        3.02824044      20.11513710      24.34915352
H        1.56345212      23.32907486      27.04822159
H        5.28390217      22.55552292      27.83593369
H        6.61290073      19.23986626      24.10710907
H       18.17878914      20.90810966       0.60969937
H        5.57172489      23.59853935      22.29815674
H        9.81229115      21.11458969      22.42829704
H       22.05537033      19.16550636       0.52839369
H        9.09369183      21.62808228      24.71802521
H        3.92042494      19.78631973      26.73786163
H       -0.19260189      20.25480080      26.81635475
H        4.69455051      23.10512352      24.37298965
C       24.02485085      24.39276123       3.71703196
C       25.69175529      27.47840691       6.20583582
C       28.56339455       1.55992818       4.77165413
C       28.42938614      26.74944305       3.42336392
C       24.78794861      25.18548775       2.94743776
C       25.02804756      28.22189713       7.17292595
C       28.16863060       0.89685476       5.89210272
C       29.08755493      25.87149620       2.62721181
C       25.10588646      24.88117218       1.55507135
C       24.43280029      27.57308960       8.29524422
C       28.29029655       1.45596921       7.20165873
C       29.32752800      26.12606812       1.24486744
C       21.63852119      25.11116219       7.61736774
C       28.17663383      28.27143669       1.59983122
C       31.00682449       0.74194020       1.16658401
C       25.42547226      25.42317390       7.55220985
C       30.87739182       0.83067882       2.50244522
C       25.76856613      26.02241516       6.37934208
C       21.84595299      25.14153099       6.28212881
C       28.04453278      28.00609779       2.91858268
H       24.12613487      24.53771782       4.79614639
H       26.11511421      27.98271561       5.35715866
H       28.43548584       1.21473837       3.77023673
H       28.19880676      26.51992989       4.47685575
H       25.29264641      26.05621338       3.36151958
H       25.00346565      29.34016609       7.29843855
H       27.79747009      58.81487274       5.82096243
H       29.39032364      24.90538979       3.03087473
H       22.23682976      25.72881508       8.29110909
H       27.91604424      29.25098419       1.19916713
H       30.33765411       0.00630235       0.68165469
H       25.49468231      24.32644081       7.63143492
H       30.13419342       0.17590854       3.00096703
H       26.42915153      25.46953392       5.68367338
H       22.56135941      25.75592804       5.74494410
H       27.56595612      28.74289703       3.57523847
C       19.65540123      23.61217880      10.39793682
C       20.62873268      26.66679573      12.88689995
C       24.39017487       1.56167948      12.41418838
C       23.59668541      26.38091469      10.63342381
C       20.54298592      24.41543579       9.73741913
C       19.92130470      27.52871704      13.64845943
C       24.51779175       0.40119529      13.10439777
C       24.34670448      25.64378929       9.77419472
C       20.73160553      24.25097847       8.34327698
C       19.38162994      27.12733459      14.87987900
C       24.67982292       0.31621119      14.50520515
C       24.80559349      26.22817612       8.50485420
C       16.01949692      25.48855019      14.42953110
C       23.59435081      28.25318909       9.24420166
C       27.69957542       0.77997816       8.30733109
C       20.73534966      25.12450600      14.73318100
C       27.60403824       1.42100942       9.50185966
C       21.08562660      25.45872688      13.46601295
C       16.20227432      25.19377899      13.14021206
C       23.11439133      27.66566467      10.35976791
H       19.66930199      23.61926842      11.47177219
H       20.96456718      26.98982811      11.88839722
H       24.19974136       1.63440216      11.33921528
H       23.28367996      25.85816002      11.57886887
H       21.09754562      25.19619179      10.22281265
H       19.48976898      28.44407463      13.29311848
H       24.61680603      58.38941574      12.56036472
H       24.47480202      24.60754395      10.01362801
H       16.31562042      26.45810509      14.79127407
H       23.38358498      29.33833885       9.15602303
H       27.31571388      58.67038345       8.09478569
H       21.10976601      24.23522377      15.21658421
H       27.11560440       0.92121822      10.31058502
H       21.83598328      24.82231331      12.86826038
H       16.82992554      25.76265717      12.46143055
H       22.52706337      28.23644257      11.13447762
C       14.46247482      24.38930130      17.57013702
C       15.84523582      26.88208199      19.94410515
C       19.82001114       1.82880282      19.69216537
C       18.25269890      26.19843864      17.15124321
C       15.12959766      25.19320297      16.70722771
C       14.70007133      27.48184204      20.44994545
C       19.19230461       0.90749323      20.45265007
C       19.35063934      25.57463264      16.71034241
C       15.33225346      24.69696808      15.33438206
C       14.34487629      27.29364586      21.77298355
C       18.73788452       1.21458757      21.74806595
C       19.87505341      25.94292641      15.47444630
C       11.33938694      25.32030106      21.57142639
C       18.43830872      27.95715141      15.57730675
C       24.79062271      58.03895950      15.20947170
C       16.24060249      25.79782486      21.98523712
C       24.73046684      58.02391052      16.56877518
C       16.68381882      26.13029861      20.76060104
C       11.61850548      24.91858101      20.27604294
C       17.84328079      27.43528938      16.66558266
H       14.26661396      24.69277573      18.60128021
H       16.10180092      27.00424004      18.93356895
H       20.05825424       1.60325885      18.63918114
H       17.66354942      25.70162964      17.96382523
H       15.33630562      26.24226761      16.90635490
H       14.12393761      28.11730385      19.79718971
H       19.11637115      58.84464264      20.01514244
H       19.75868416      24.63978004      17.07644081
H       11.59647179      26.29047775      21.97675133
H       18.27400398      28.97152519      15.19076347
H       24.80343056      57.12231445      14.60043812
H       16.80569649      25.00034332      22.52287483
H       24.69861984      57.06526566      17.05710030
H       17.49784851      25.62813568      20.36676788
H       12.14414883      25.63768005      19.56979561
H       16.95393562      27.93785095      17.01933861
C        9.90283298      23.65987206      24.65494728
C       10.82407475      26.65489388      26.98494339
C       14.34194660       2.14442396      27.02762032
C       13.56535530      26.58518410      24.44701767
C       10.50537014      24.60885429      23.85497284
C       10.19055176      27.47228813      27.85603142
C       13.32390404       1.43524385      27.62947845
C       14.68481159      26.02615547      23.91692924
C       10.87941265      24.32463264      22.45699501
C       28.81346703      27.33173752       0.69691300
C       32.00802612       1.47567260       0.48411193
C       15.06934261      26.34722328      22.57833290
C       25.81813431      25.73592186       0.66001016
C       13.20598698      27.85050964      22.38724518
C       18.03407478       0.19819641      22.47086334
C       30.04625702      25.24150085       0.37800574
C       17.51084709       0.49507478      23.68036270
C       11.31964874      25.48321724      27.57386780
C        7.21356869      25.39660835      27.84986687
C       12.84389114      27.44280052      23.63267899
H        9.71741962      23.91545486      25.70647621
H       11.01645088      26.88898849      25.93682098
H       14.47221184       2.07388425      25.95962334
H       13.28845310      26.39053726      25.48132324
H       10.78611946      25.59838295      24.20577049
H        9.79433918      28.39083099      27.48586464
H       12.75562572       0.84093302      26.97506714
H       15.30422783      25.33402824      24.41004753
H       26.29888344      26.57937241       1.08716941
H       12.41635704      28.47796631      21.87248421
H       17.86981201      58.10302734      21.98369980
H       30.35354996      24.29693794       0.80966342
H       16.92954063      58.60465622      24.14438820
H       12.00531197      24.82771111      26.95873451
H        7.80163860      26.04353142      27.23193550
H       11.89519596      27.83499718      24.02178764
C       23.65881348       1.22815812       2.99685454
C       24.67750168       4.44738007       5.13313580
C       28.59656334       7.55752754       5.08159113
C       27.51771736       4.59229422       2.79216838
C       24.64031792       1.93074095       2.21711731
C       24.11909676       5.35373116       5.94180727
C       27.83796692       6.64735985       5.83606958
C       28.21568871       3.84409404       1.92338836
C       24.60235786       1.77082920       0.78643137
C       23.87149811       5.04287052       7.30913448
C       27.59984970       6.81292486       7.22697735
C       28.55636406       4.28533983       0.61979473
C       21.10366440       3.17663836       7.50663233
C       27.40918350       6.31995964       1.22181058
C       31.66983032       5.91631460       1.03161120
C       24.93365288       2.91393256       6.95004320
C       31.40396118       6.18538427       2.37201023
C       25.13534927       3.22109365       5.67062187
C       21.54998207       2.79389048       6.28363848
C       27.13599968       5.91217566       2.47244787
H       23.51943207       1.38662159       4.01986933
H       24.80495262       4.71972799       4.05227661
H       28.68230629       7.43770027       3.97822046
H       27.32132339       4.15220690       3.79091978
H       25.13669968       2.78416801       2.60471416
H       23.80465889       6.36363173       5.67779207
H       27.37253761       5.76069832       5.35423279
H       28.55638123       2.85019422       2.23942494
H       21.48290634       4.12601852       7.91918468
H       27.06366920       7.23516512       0.79137498
H       31.31316376       5.10744238       0.45247546
H       25.22406006       1.98356712       7.34582138
H       30.60729218       5.55835867       2.78177285
H       25.72907448       2.53603101       5.12108231
H       22.28434753       3.37264180       5.77461576
H       26.55817795       6.51557922       3.15357757
C       18.77016640       2.03129196      10.12259388
C       20.03232574       4.63961983      12.56805038
C       24.19901657       7.49830675      12.33949471
C       23.14439201       4.26575756       9.97364998
C       19.67659187       2.77727771       9.45916271
C       19.45402718       5.60609436      13.37289333
C       23.57228279       6.46670771      13.04830265
C       23.95723152       3.41791487       9.19824314
C       20.09533310       2.48379636       8.15279198
C       19.11523628       5.29255342      14.75505066
C       23.14432526       6.63136244      14.39139843
C       24.34137154       3.80204916       7.86786842
C       16.25262451       3.42966437      14.18709183
C       23.27095222       5.94398546       8.16236019
C       26.91206741       5.83956051       7.99551725
C       20.28484535       3.23965526      14.47935390
C       26.50245094       6.10950756       9.23880386
C       20.47688484       3.43908930      13.14634514
C       16.29126739       3.11310816      12.87830639
C       22.87340927       5.51607466       9.41891670
H       18.45437622       2.14012074      11.14900208
H       20.23363495       4.79174376      11.48229790
H       24.45715332       7.35957241      11.29037857
H       22.77184677       4.03030109      10.98407364
H       20.13373566       3.59387517       9.98334312
H       19.32659149       6.61907530      13.09670734
H       23.41588402       5.52088308      12.59978390
H       24.25895691       2.42228723       9.49624443
H       16.88273048       4.30503941      14.56456280
H       23.00608253       6.97318649       7.84793997
H       26.49045753       5.02920866       7.44514322
H       20.71161461       2.37642741      14.92901611
H       25.81529427       5.38236284       9.65749931
H       20.95029068       2.67276049      12.50885105
H       16.95158958       3.65676618      12.19994831
H       22.18030548       6.14581823       9.89471340
C       14.35006523       2.33315468      17.30928993
C       15.52111721       4.86826181      19.79769135
C       19.54555702       7.21372032      19.69692612
C       18.58765984       4.67984533      17.38296890
C       15.36952209       2.95370483      16.54445267
C       14.77015591       5.63672018      20.68553352
C       18.81219673       6.39257717      20.48466492
C       19.43339539       3.91958857      16.67858887
C       15.41974545       2.76381040      15.13324547
C       14.60743618       5.25156784      22.08456230
C       18.43927574       6.81163645      21.80413628
C       19.62949753       4.13041353      15.29878616
C       11.97290325       3.55460835      21.65876770
C       18.34047699       6.18968821      15.54041004
C       22.54240990       5.57227373      15.13239002
C       15.90039444       3.25774026      21.55768204
C       22.32097435       5.69155312      16.47096252
C       16.05603600       3.63651514      20.21532822
C       12.03271294       3.27243280      20.32421684
C       18.06212807       5.89184618      16.81386566
H       14.26930428       2.64585567      18.33631706
H       15.59520245       5.23197699      18.74534798
H       19.83230591       6.82729101      18.75650406
H       18.44770432       4.49828625      18.45956802
H       15.99568748       3.63314080      17.10078812
H       14.25361347       6.53801584      20.36680412
H       18.47792816       5.38655710      20.19682884
H       19.85283279       3.02303052      17.06956291
H       12.68414211       4.31828403      22.07068634
H       17.94713783       7.06234074      15.06232738
H       22.09049797       4.70113087      14.68090820
H       16.30215645       2.29378772      21.87894630
H       21.73666382       4.91873837      16.97100830
H       16.74383926       3.09800434      19.60762596
H       12.82877254       3.73584938      19.71988678
H       17.50773048       6.56266403      17.44140434
C        9.58119869       2.99570298      24.46676254
C       10.59416294       5.38641834      26.71567345
C       14.85162067       7.44977379      26.79151535
C       14.12205505       4.36274242      24.60447693
C       10.75722218       3.34924078      23.81403923
C        9.65827465       6.03798246      27.53262329
C       14.09567928       6.53542185      27.46181870
C       14.81511211       3.57046890      23.74241447
C       10.83915043       3.11184716      22.40603638
C       28.16702271       5.57114840       0.32274300
C       32.49845123       6.81599474       0.24784327
C       15.09331131       3.99326682      22.44441605
C        6.56981373       2.64005756      28.45628929
C       13.81952381       6.04516411      22.98503494
C       17.66279793       5.91350746      22.63131905
C       10.60450840       3.52230024      28.31380844
C       17.33823204       6.37177563      23.89855385
C       11.01862621       4.10606050      27.14748001
C        6.66283846       2.39719415      27.11257935
C       13.63373375       5.57398367      24.24646568
H        9.44706726       3.16065669      25.51309204
H       10.81929684       5.77860069      25.75375366
H       15.24918938       7.13403702      25.80133629
H       13.76538944       3.97570109      25.57081413
H       11.44616985       3.93802643      24.40399742
H        9.22840214       6.91574478      27.12076569
H       13.78976917       5.60348177      26.91048622
H       15.18156719       2.62068844      24.06999588
H       26.09616089       3.31798816       0.40496042
H       13.32374573       6.94642687      22.63107491
H       17.45809746       4.88822794      22.26162720
H       10.89003849       2.50461912      28.52642059
H       16.85456276       5.80649090      24.68020248
H       11.83208752       3.57089353      26.57213020
H        7.27325153       3.06959343      26.52511215
H       13.01983356       6.19481325      24.89522934
C       23.93299484       7.63171530       2.85910845
C       24.83121490      10.70300579       5.18162155
C       28.95328331      12.80079556       5.58066750
C       27.97079086      10.59865379       2.93682361
C       24.69204521       8.44778347       2.08950090
C       24.03858185      11.38083172       6.10748434
C       28.12228012      11.96826935       6.32958698
C       28.72610664       9.63009548       2.23481941
C       24.91542816       8.03579044       0.74760777
C       23.76506233      10.96580410       7.42341900
C       27.83491325      12.34521484       7.67007732
C       28.89798927       9.73651218       0.83738989
C       21.14202881       8.76587486       7.28754997
C       27.57903862      11.83879662       0.90672153
C       31.86909294      11.37404251       1.18040669
C       25.00128937       8.91908455       6.79640627
C       31.65423775      11.70395756       2.52922893
C       25.44579315       9.42420101       5.59004498
C       21.54194832       8.31752205       6.03451586
C       27.33485413      11.65616226       2.24667192
H       23.73247719       7.97093153       3.87093043
H       25.09484863      11.05050468       4.15474510
H       29.20591164      12.52859879       4.50306988
H       27.71998405      10.37441635       3.99650431
H       25.05346107       9.46308136       2.39886951
H       23.67630577      12.36955452       5.88814783
H       27.89435577      10.99224758       6.03509521
H       29.02748871       8.78080273       2.82238388
H       21.55705452       9.67186260       7.65039778
H       27.08058739      12.64823437       0.42928144
H       31.47877502      10.43557739       0.77891034
H       25.30684280       7.93748379       7.13734293
H       31.04832268      11.02600384       3.13935494
H       26.09920692       8.91191387       4.85702229
H       22.09181404       8.90742207       5.41222191
H       26.54927254      12.34222794       2.58764887
C       19.38054848       7.67082357      10.39030075
C       20.54304123      10.29458237      12.59852123
C       24.26136780      12.86404228      12.53532600
C       23.17177963       9.85154247       9.90230179
C       20.07591629       8.41450596       9.55501747
C       19.66589737      11.12213802      13.26019859
C       23.47206879      12.02896976      13.28794384
C       23.90544319       9.08363819       9.07382584
C       20.41930199       7.98499250       8.24797726
C       19.17901421      10.80190849      14.58448410
C       23.18786621      12.33654594      14.67688751
C       24.21034241       9.61870480       7.75329447
C       16.35631752       9.02726746      14.42053318
C       22.88581848      11.60887432       8.30558395
C       26.98455048      11.59285927       8.48678017
C       20.55451202       8.69384766      14.45642471
C       26.62503624      12.07440472       9.74115849
C       20.92458153       9.07959366      13.18797970
C       16.72698784       8.59963512      13.16667461
C       22.67835426      11.06931400       9.57295990
H       19.12178230       8.13690567      11.32780361
H       20.97550011      10.62578011      11.62919998
H       24.49954796      12.64659405      11.49978256
H       22.88768196       9.45666885      10.87965107
H       20.43107796       9.41854477       9.85488129
H       19.33472443      12.12298584      12.87558842
H       23.15040588      11.02044582      12.86573505
H       24.25754929       8.11872387       9.34819603
H       16.80435371       9.90631008      14.78821182
H       22.63759995      12.63317490       8.12507820
H       26.59753990      10.71438408       8.04302883
H       20.83010101       7.67321730      14.84526730
H       25.94664001      11.39629841      10.30765057
H       21.58238792       8.35532761      12.77752113
H       17.43575668       9.22248554      12.62010670
H       22.25262451      11.60580921      10.43263531
C       14.50165367       7.51096725      17.28994370
C       15.51277637      10.39846516      19.62672424
C       19.45811081      12.62417698      19.92376900
C       18.35126305      10.17419720      17.12780190
C       15.31963730       8.37863827      16.59460640
C       14.82453728      11.28099728      20.40577507
C       18.58143425      11.97006130      20.75076103
C       19.27316666       9.30279827      16.53967285
C       15.56843281       8.15084171      15.27141762
C       14.49122143      10.89280415      21.73218918
C       18.29887009      12.37858295      22.05637550
C       19.68553543       9.59458542      15.19263363
C       11.64317417       8.85747910      21.25914955
C       18.27708244      11.65626431      15.28705406
C       22.41975403      11.38465500      15.40283966
C       15.67027569       8.70386124      21.35457611
C       22.13118553      11.70347691      16.71870613
C       16.00792313       9.11853409      20.11348915
C       12.05753422       8.25636292      20.11244392
C       17.87580681      11.39681721      16.55903435
H       14.23980045       7.81174374      18.29476547
H       15.83414745      10.76024818      18.62108612
H       19.71142769      12.21941185      18.94839668
H       18.22173691       9.87919235      18.13752937
H       15.61856270       9.23635960      17.15231133
H       14.55047035      12.25031185      20.01342392
H       18.00626183      11.18182850      20.31654739
H       19.62290573       8.45967484      17.12508011
H       11.94947720       9.86911392      21.54888916
H       17.99556923      12.55437851      14.67298889
H       22.24071884      10.38087654      15.03905010
H       15.94498444       7.69588947      21.55787849
H       21.68762398      10.88572121      17.31890678
H       16.56613541       8.40341473      19.57603645
H       12.67886448       8.85398579      19.43374443
H       17.29763412      12.09537506      17.15364647
C        9.82857323       7.70203590      24.32246590
C       10.72786808      10.25640392      26.62724686
C       14.67618752      12.82196617      26.79405594
C       13.80696297      10.04062557      24.37215614
C       10.56149578       8.51042652      23.49515152
C        9.92243958      11.12338352      27.30902290
C       13.83789444      11.98655796      27.52361298
C       14.63188171       9.25269032      23.56241989
C       10.85857105       8.12884521      22.19441605
C       28.40858078      10.95522118       0.17138709
C       32.49403000      12.30588627       0.30828339
C       14.98419952       9.63031483      22.22639847
C        6.90153408       8.85185909      28.45293236
C       13.70606899      11.65489292      22.59562111
C       17.50279427      11.54456902      22.88696289
C       29.58823013       8.79189873       0.01342648
C       17.33077049      11.91830444      24.15950584
C       11.16060925       9.01926041      27.23443604
C        7.16074228       8.53423309      27.15833855
C       13.42335224      11.28214073      23.88214684
H        9.67877674       8.00321865      25.29426002
H       10.99567318      10.46297932      25.55348015
H       14.73576832      12.64024162      25.70685387
H       13.56084442       9.65298653      25.32873344
H       10.92444611       9.46163654      23.87854576
H        9.73778343      12.09153748      26.88374710
H       13.17312431      11.15949059      27.13006401
H       15.07674503       8.23716354      23.89303398
H       25.95488167       9.78305531       0.38841692
H       13.30570602      12.61493206      22.26368713
H       16.99448204      10.71994019      22.42683983
H       29.99258423       7.82362890       0.40973741
H       16.68743706      11.33281136      24.76510239
H       11.62248707       8.21862221      26.65096283
H        7.83527088       9.17609692      26.70053673
H       12.87075138      11.91714478      24.58084106
C       23.72499275      13.28368187       2.77742505
C       24.89981461      15.78951931       5.61623383
C       28.88416100      18.20318031       5.32909012
C       27.69069672      15.23333263       2.79530382
C       24.47435761      14.10164070       1.99062586
C       24.02902603      16.55811501       6.37653780
C       28.09371758      17.41302490       6.12088966
C       28.63898087      14.50403881       2.08443236
C       24.83512115      13.73088837       0.66763681
C       23.67160606      16.18515015       7.67509890
C       27.85936356      17.78234482       7.49722624
C       29.04921150      15.00642395       0.82675487
C       20.88191986      14.31081390       7.32018661
C       27.75908661      17.04067230       1.14169681
C       31.72344017      17.00271225       1.33511364
C       24.99135971      14.19495392       7.36321640
C       31.35949898      17.35038757       2.63392210
C       25.28985023      14.56571579       6.06668806
C       21.17188644      13.99847412       6.05469847
C       27.24677086      16.49234581       2.30226851
H       23.33402061      13.69145012       3.72140312
H       25.30771446      16.16858292       4.65127182
H       29.08451843      17.75073433       4.39672327
H       27.51470566      14.87465763       3.78045273
H       24.77703285      15.09200859       2.36602759
H       23.65423393      17.44143295       5.99145699
H       27.76828003      16.42030334       5.86825562
H       29.06438637      13.53450203       2.47808099
H       21.03514671      15.26755428       7.76739454
H       27.48123360      18.01552200       0.77651620
H       31.51496315      16.03109932       0.87868214
H       25.32624435      13.20636749       7.63751364
H       30.80097008      16.57706642       3.17320395
H       25.86057091      13.85704613       5.45387554
H       21.67658234      14.65246773       5.36961269
H       26.50955963      17.04877281       2.83280706
C       19.17620850      12.97788143      10.33414555
C       19.87367821      15.80429745      12.58647442
C       24.39668846      18.40974236      12.88407040
C       22.92160416      15.30983543      10.29994297
C       19.87987328      13.85518837       9.53395653
C       19.07428551      16.51532936      13.47188091
C       23.45233917      17.63309479      13.47969437
C       23.80642700      14.52867985       9.53565693
C       20.18556595      13.46536350       8.21911240
C       18.95627785      16.19911003      14.85945606
C       23.08805847      17.87814713      14.81592655
C       24.11859512      14.93833447       8.19956684
C       16.22400093      14.54306126      14.36098862
C       22.86704445      17.01706505       8.54461861
C       27.14953232      16.97086525       8.38102818
C       20.35144615      14.31628037      14.45103168
C       26.85065842      17.39086342       9.63078976
C       20.56054115      14.66621494      13.12723064
C       16.66921806      14.17809105      13.13013554
C       22.44870758      16.56976891       9.80524826
H       18.97644234      13.25511932      11.35384178
H       19.81087494      15.97577858      11.46985149
H       24.73334694      18.15847206      11.87475395
H       22.63018227      14.94290543      11.24149036
H       20.13751984      14.81968689      10.01384735
H       18.61487389      17.48052979      13.33722877
H       22.95200729      16.79715538      13.02059841
H       24.05356026      13.50147820       9.90747738
H       16.34218407      15.56280613      14.73662472
H       22.58515549      17.99390984       8.18831253
H       26.83962440      15.99064445       8.01603317
H       20.97062683      13.56774235      14.95139694
H       26.20503807      16.79460144      10.34292507
H       21.18877029      14.07628632      12.52695656
H       17.16819000      14.77024364      12.43363476
H       21.67478371      17.04923439      10.42481995
C       14.37708378      13.12385273      17.23303795
C       15.82193851      16.01148796      19.78488159
C       19.58117294      18.38177872      19.88583374
C       18.40548515      15.51342010      17.44792748
C       15.10299873      13.96917343      16.46686554
C       15.25614929      16.90589905      20.66443443
C       18.91933823      17.51779175      20.72836113
C       19.10065460      14.61092663      16.64816666
C       15.49180985      13.65895939      15.17206478
C       14.77290344      16.54579544      21.94170570
C       18.62138176      17.91145897      22.06355476
C       19.47825623      14.99808693      15.33613491
C       11.70064640      14.74124908      21.68381119
C       18.13937950      17.06575584      15.66452599
C       22.29828835      16.99160576      15.56432629
C       15.86225319      14.39659977      21.51834297
C       21.94297600      17.21135139      16.89539146
C       16.15167236      14.73272991      20.22120094
C       11.96377087      14.42298985      20.37988091
C       17.86989212      16.75266647      16.99715996
H       13.95536518      13.43466854      18.16039658
H       15.96094322      16.24705315      18.69110489
H       19.72431183      17.99602699      18.85693359
H       18.13598824      15.14930439      18.43204498
H       15.46953678      14.91047192      16.92128181
H       14.98211098      17.87296867      20.26735878
H       18.56381607      16.52179527      20.34352684
H       19.34146690      13.63371658      17.03032303
H       11.99184322      15.65151501      22.13298225
H       17.57389069      17.91775131      15.16747093
H       22.16381264      16.06000710      15.09666634
H       16.18520737      13.42063236      22.04885101
H       21.50216484      16.43906212      17.52089119
H       16.80692863      14.01421833      19.69903183
H       12.53337765      15.05202103      19.65187645
H       17.27525139      17.48122597      17.50393295
C        9.73317528      13.36792469      24.48670006
C       11.06255150      15.86992264      26.75974846
C       14.86341381      18.62754822      27.13017082
C       13.78862858      15.60661125      24.38289070
C       10.56578541      14.20633507      23.79719162
C       10.17683220      16.65599823      27.55606461
C       14.04046249      17.70801926      27.79295540
C       14.51823711      14.76666641      23.56920815
C       11.02325439      13.79916096      22.52939224
C       28.56358719      16.21276665       0.31536478
C       32.54876328      17.94141769       0.58318508
C       15.07262516      15.21933365      22.32471466
C        6.71638107      14.69324207      28.34308624
C       13.96547985      17.28160858      22.73453522
C       17.94317627      17.02928162      22.91855812
C       11.06964302      14.19899464      28.48315048
C       17.52703476      17.37867355      24.17720795
C       11.50489140      14.66383743      27.28344727
C        7.03562164      14.33623314      27.01272392
C       13.40987206      16.89319229      23.92192841
H        9.29535675      13.63883114      25.42428589
H       11.44935513      16.29291534      25.89488029
H       15.05727196      18.48517036      26.06702995
H       13.49706459      15.14138222      25.35122490
H       10.77857208      15.11147881      24.27498245
H        9.88068104      17.55506706      27.04914284
H       13.67326832      16.87151909      27.22213364
H       14.95221806      13.81711960      23.87171745
H       25.75187683      15.65498734       0.22619049
H       13.80073452      18.28852081      22.38982964
H       17.70033073      15.99838257      22.68620110
H       30.10367584      13.17132282       0.27913922
H       17.05322075      16.66343689      24.86331749
H       12.30110264      14.17098141      26.75608063
H        7.53887987      15.03084183      26.38855362
H       12.81771946      17.52494431      24.42909050
C       23.82571030      18.65387154       3.18430114
C       25.21961784      21.57099915       5.79517460
C       28.96592140      23.98447227       5.69327784
C       28.11542511      21.36045265       3.34438181
C       24.71103096      19.49464607       2.56681108
C       24.34651947      22.24169159       6.64124250
C       28.20463753      23.12375641       6.48608017
C       28.78647995      20.47598457       2.50550103
C       25.02507973      19.34366226       1.18066382
C       24.00705338      21.80432892       7.93710756
C       27.95551491      23.42313004       7.85562944
C       28.90657234      20.84269905       1.14180076
C       21.13482475      19.87338066       7.42328644
C       27.81808472      23.01927376       1.51048672
C       31.99402618      22.48938370       1.49667835
C       25.20704269      19.72825432       7.34864807
C       31.68229675      22.86479378       2.75459909
C       25.66115189      20.30860329       6.17981148
C       21.46181488      19.62240219       6.12478971
C       27.69191742      22.63286972       2.85617518
H       23.62034035      18.83582115       4.23893452
H       25.36664200      22.01989365       4.90823603
H       29.37628746      23.66106606       4.72159719
H       27.93425369      21.23129463       4.33796453
H       25.30023384      20.24891090       3.13634729
H       23.95805359      23.17440414       6.35591459
H       27.78038216      22.22037125       6.00577402
H       29.03605270      19.49213028       2.88895988
H       21.42893982      20.73887634       7.93072271
H       27.27928352      23.85983849       1.13756812
H       31.75457382      21.50433922       1.22950196
H       25.50958061      18.68894196       7.62130022
H       31.16249466      22.17685699       3.40898728
H       26.37593460      19.76541901       5.60170221
H       22.25204277      20.25809860       5.67616320
H       27.19748878      23.27169609       3.56556058
C       19.14627838      18.43917656      10.19456196
C       20.06197929      21.19037437      12.83374310
C       24.40676117      23.63237953      12.75703621
C       23.24744797      20.68953705      10.38520145
C       19.89761543      19.32168388       9.49718857
C       19.27405930      22.03991699      13.52771282
C       23.70938492      22.76645088      13.50319290
C       24.03998375      19.92901230       9.53263569
C       20.26354027      19.00843811       8.16713905
C       19.01882935      21.72927475      14.85711670
C       23.35725594      23.12180519      14.83813953
C       24.40255165      20.44973373       8.23559380
C       16.42003059      19.96907997      14.67597961
C       23.18858337      22.55625534       8.85826015
C       27.34655762      22.52072906       8.70027161
C       20.16241837      19.61831665      14.69861889
C       26.95248222      22.83749771       9.95619965
C       20.46380806      19.95902252      13.40024471
C       16.71806526      19.59994316      13.34623528
C       22.83728027      21.97970009      10.05161858
H       18.78198814      18.59524155      11.21809387
H       20.33438492      21.39748383      11.78707695
H       24.65021324      23.43057442      11.75240803
H       23.01070404      20.24410629      11.39988613
H       20.34438896      20.17288971      10.00083637
H       18.86608315      22.89117813      13.09149265
H       23.22794151      21.89173126      13.15168476
H       24.17147064      18.89801979       9.80687046
H       16.90407372      20.88024139      15.09109592
H       23.04579926      23.62461281       8.64746189
H       27.04259300      21.58192444       8.31451988
H       20.36277390      18.67107391      15.20177650
H       26.45071411      22.11894417      10.57146835
H       21.08107185      19.24394989      12.75625610
H       17.22733688      20.25554466      12.70808697
H       22.39531326      22.58945084      10.84678555
C       14.57025814      18.71469498      17.53202820
C       15.88600159      21.70494080      19.99739647
C       19.65391159      23.98928261      19.88392830
C       18.48225403      21.22285271      17.58530235
C       15.29859638      19.53051949      16.74993324
C       15.33391476      22.55729866      20.96755600
C       18.98143005      23.08016586      20.59463501
C       19.22706795      20.32123184      16.85157776
C       15.57847881      19.17269516      15.42041588
C       14.88106060      22.01417542      22.19515228
C       18.74193382      23.42683411      21.97718620
C       19.53808594      20.55423546      15.47248745
C       12.06804180      20.01275635      21.77958679
C       18.24345016      22.64761162      15.66766644
C       22.49935150      22.34233284      15.66077518
C       15.99757862      19.93299866      21.60821342
C       22.08359528      22.77191925      16.89683723
C       16.16560173      20.38003349      20.34379196
C       12.30437946      19.74051094      20.48881912
C       17.94692421      22.41573143      16.96450233
H       14.47400093      18.93521309      18.58043098
H       15.97936058      21.98250961      18.93770027
H       19.87097359      23.75844574      18.86613083
H       18.08160019      20.97887421      18.58541107
H       15.64603424      20.53242302      17.12626648
H       15.11968708      23.50982475      20.66229057
H       18.58607292      22.15306854      20.23944855
H       19.49210548      19.39742279      17.36232376
H       12.54935360      20.91216278      22.15210915
H       17.83385658      23.54460716      15.20073891
H       22.13431358      21.37014771      15.29391098
H       16.22791481      18.91685867      21.92722130
H       21.41407013      22.09912300      17.41801071
H       16.62133598      19.67738533      19.64454651
H       12.82880211      20.47392273      19.87932014
H       17.39897919      23.15344810      17.54036331
C       10.11323071      18.69496918      24.70361710
C       10.85424805      21.66774940      27.08477783
C       15.02070332      23.85239601      26.96062469
C       14.12932873      21.02018166      24.69000244
C       10.95820904      19.47021484      23.95969963
C        9.96300793      22.45283318      27.82691574
C       14.37206650      23.01010513      27.87921524
C       14.90152264      20.20404625      23.87613678
C       11.24568939      19.18500328      22.60887527
C       28.44952774      22.07388115       0.60223889
C       32.72924042      23.38937378       0.59673679
C       15.27210903      20.70452309      22.59660149
C       25.73970795      20.30478477       0.47789747
C       14.11878681      22.83745956      23.05949783
C       17.95175171      22.64963150      22.81838989
C       29.58313751      19.98250198       0.29171383
C       17.68132591      22.96028900      24.11940002
C       11.21661091      20.39961624      27.57058525
C        7.25321150      20.19921684      27.68243980
C       13.76317120      22.39988899      24.32850647
H        9.94676876      19.18022156      25.63341331
H       11.25466156      21.99907303      26.09326744
H       15.44751835      23.38190460      26.05324364
H       13.89289093      20.77411079      25.70867920
H       11.41290474      20.38359833      24.28883362
H        9.73683262      23.39803123      27.44807816
H       14.12619972      22.04087067      27.53752136
H       15.23948002      19.23490906      24.16497803
H       25.96358490      21.17859077       1.08181131
H       13.76635647      23.72180367      22.50815964
H       17.47636604      21.73546410      22.39153671
H       29.85716629      19.03061104       0.71694702
H       17.05601120      22.33686638      24.71231651
H       11.72926140      19.72934723      26.91295052
H        7.67332363      20.98077583      27.10249329
H       13.26254463      23.08604431      25.00881386
C       31.14599037      51.83511353       9.56524277
C       -8.59193039      49.82162857      14.15858364
C       30.75680351      52.34467316      10.81531525
C       -8.20313454      49.37536621      12.90745068
C       30.98489952      51.47137451      11.98082161
C       31.52097130      50.18923187      11.75905228
C       30.50054550      51.90387344      13.22898769
C       31.82926178      49.75959396      10.45481682
C       31.67747498      50.56723785       9.39498425
C       -9.17641544      51.12791061      14.31434917
H       31.10688210      52.52301407       8.66119385
H       -8.52825832      49.05616760      14.96902275
H       30.36320877      53.32738113      10.95425320
H       -7.97014475      48.35207367      12.77802753
H       29.87295723      52.76321793      13.17226791
H       32.28088379      48.73674393      10.28697586
H       31.95530701      50.30601883       8.39102936
H       -9.49491501      51.25066376      15.33577061
C        3.52055788      55.19836807       3.38983798
C        4.79416704      50.61966705       1.59556341
C        2.81882024      54.05411148       3.03054476
C        5.47186184      51.72309875       2.00568080
C        3.43655467      52.87133408       2.63365555
C        4.87387085      52.90147781       2.58637977
C        2.71442580      51.73506546       2.19164252
C        5.58273363      54.07758331       2.85272813
C        4.92515135      55.19774628       3.26500082
C        3.34118032      50.63388443       1.70835531
H        2.97249341      56.05057144       3.71974730
H        5.18240309      49.76979446       1.04452574
H        1.68057895      54.08334732       3.04760313
H        6.53326988      51.72017670       1.95774591
H        1.65869224      51.79649353       2.02920389
H        6.68087196      53.94721985       2.84225273
H        5.51118946      56.06401825       3.57911849
H        2.87029958      49.83915710       1.17057550
C       28.57472801      49.18226624      11.09056568
C       28.72169685      45.86273956      14.96977615
C       28.23829842      49.23006439      12.38388443
C       29.15453529      45.80032730      13.68437195
C       28.46887588      48.09869003      13.28419304
C       29.01011848      46.91474915      12.79327679
C       27.98723984      48.11356354      14.65101051
C       29.47032738      46.93798065      11.44778252
C       29.23367882      47.98684692      10.67712116
C       28.17989349      47.04054260      15.46893787
H       28.46978569      50.06663895      10.38805389
H       28.91823387      45.08164978      15.72102737
H       27.83543587      50.11413574      12.86115456
H       29.55862999      44.80756378      13.33386803
H       27.72062874      49.10456467      14.89770794
H       29.87773895      46.08590317      10.96563911
H       29.59698677      48.01536179       9.62381554
H       28.08833885      47.13697433      16.55037498
C       15.37683392      37.11247253      12.69995689
C       15.69853783      34.73501587      17.04603958
C       14.51314640      36.31459427      13.40138912
C       16.58315849      35.44439316      16.32351303
C       14.93822384      35.82701492      14.60202789
C       16.22287369      36.05583954      15.11625099
C       14.08160400      34.93667221      15.33996391
C       16.94680405      37.07386780      14.48103046
C       16.54947472      37.54484177      13.27225113
C       14.42798424      34.44452667      16.52465248
H       15.20177746      37.50825882      11.69330978
H       16.02149010      34.25119019      17.93846512
H       13.62969971      35.90469360      13.05734920
H       17.70927811      35.48616791      16.54084969
H       13.14882851      34.63312912      14.90799522
H       17.97497368      37.37104797      14.85653877
H       17.26747322      38.14819336      12.68166542
H       13.65167427      33.88449097      17.09269524
C       10.34544659      52.15603256      20.51945686
C       13.50478077      48.35631561      20.09758186
C       10.48383236      51.12260056      19.64615822
C       13.55891705      49.45977020      20.82513237
C       11.49868965      50.19143677      19.76589394
C       12.50423145      50.41907501      20.67198563
C       11.59840870      49.09694290      18.88725090
C       12.48400688      51.59669876      21.52773285
C       11.38433361      52.35893250      21.48248482
C       12.57733631      48.21467590      19.07008553
H        9.50445080      52.84476089      20.64347649
H       14.33532429      47.58116531      20.09131622
H        9.63675213      51.02582169      18.89879417
H       14.43261433      49.56766510      21.47809792
H       10.96302414      49.00884628      18.01546288
H       13.32304287      51.71296692      22.15242004
H       11.25020981      53.25941849      22.08997154
H       12.84076881      47.44171524      18.36458778
C        9.67807770      41.05847931      12.50505829
C        9.82299328      39.10321426      17.24382401
C        8.59194660      40.40311432      13.28470039
C       10.69006920      39.73303223      16.33815384
C        9.04846859      39.75120163      14.58840466
C       10.36339188      39.91149139      15.00837135
C        8.14116287      39.27898026      15.53726292
C       11.43624401      40.29760742      14.02530575
C       10.94628525      41.20124435      12.88888168
C        8.52224445      38.96690369      16.86691284
H        9.32816696      41.74113083      11.74023724
H       10.19358253      38.83743668      18.16880798
H        8.02719307      39.71244049      12.62775230
H       11.66897869      40.01814270      16.65319252
H        7.05694103      39.14997101      15.30566216
H       12.21534061      40.74893951      14.57578659
H       11.66923332      41.79104233      12.30609703
H        7.72930479      38.65422058      17.55114937
C        8.59910488      41.01547241       8.44275856
C        7.75987959      44.72448349       5.20793152
C        8.58921909      41.06354523       7.12294245
C        7.55146694      44.65128326       6.54225016
C        7.84652185      42.14312363       6.36068916
C        7.82950401      43.47497940       7.18709469
C        8.34121418      42.37226105       4.99830532
C        8.00629044      43.41749573       8.52765369
C        8.31287956      42.25609970       9.17772961
C        8.16636658      43.60726547       4.45429516
H        8.99004173      40.12693024       8.99458885
H        7.56554317      45.67404175       4.63642502
H        8.91628838      40.24194717       6.54955101
H        7.33968925      45.57436752       7.15347624
H        8.65106201      41.61490631       4.31105947
H        7.68365002      44.19171524       9.18176174
H        8.33807564      42.28443146      10.26894093
H        8.43024635      43.88173294       3.46942782
C        5.90123653      57.67642212      23.07040787
C        9.85268784      58.59406281      25.98823357
C        7.22986460      57.90991592      22.84306145
C        8.57602406      58.13232040      26.35465240
C        8.18942928      57.91464996      23.94054222
C        7.77329350      57.77699661      25.26191330
C        9.56265450      58.11350632      23.60173225
C        6.42366934      57.38586426      25.41938782
C        5.50380373      57.36418533      24.39859962
C       10.33324432      58.52291489      24.63507843
H        5.23597717      57.84770966      22.28018951
H       10.46669292       0.13071296      26.67757988
H        7.59094620      58.13753128      21.85730934
H        8.23583889      58.04851532      27.40017319
H        9.85014057      58.22055817      22.55213547
H        6.17940712      57.10626602      26.42891312
H        4.44567823      57.21419907      24.58810997
H       11.27234364       0.04777774      24.29717255
C       11.87207413      44.21866608      10.27921104
C       14.27541733      45.85014725      14.23863983
C       11.47424316      44.35996628      11.54072571
C       14.43556690      46.09415436      12.90420723
C       12.34701347      44.94690323      12.47478199
C       13.55260754      45.57398987      11.96902275
C       12.09575176      44.83878708      13.87761307
C       13.86213303      45.44860458      10.60435104
C       13.05992126      44.76781845       9.76610947
C       13.09143639      45.19708252      14.76624393
H       11.21881294      43.68505859       9.57845879
H       14.99003029      46.18260956      14.96007919
H       10.56007671      43.89014053      11.87668037
H       15.38445950      46.47653198      12.55055046
H       11.18215752      44.25580597      14.17746067
H       14.71887302      45.99572372      10.21490955
H       13.32511806      44.68414688       8.73396301
H       12.92187595      45.02629852      15.84172535
C       10.85979939      42.24744034      18.46705437
C       14.80477428      39.60207748      20.16745949
C       10.92639160      41.12765503      19.23966026
C       14.69036961      40.74646759      19.45046806
C       12.26048088      40.57681274      19.58317757
C       13.41750240      41.23846436      19.17159843
C       12.42013073      39.32340240      20.27316856
C       13.27065563      42.35523987      18.25459480
C       12.03421974      42.88846970      17.98005486
C       13.66724682      38.85927200      20.56045532
H        9.84424210      42.52914810      18.19683266
H       15.85799503      39.19654846      20.40398788
H       10.06253147      40.63053894      19.57303619
H       15.54433250      41.32953644      19.26940155
H       11.46757412      38.76818466      20.56823921
H       14.23165321      42.70777512      17.77806664
H       11.95221233      43.74925232      17.30734253
H       13.71258450      37.86091614      21.04246521
C       27.26615143      31.69478989      10.86852264
C       28.58662224      31.92206573       6.04289818
C       27.55872536      30.76735878       9.93123055
C       28.29450035      32.91361618       6.93865013
C       27.89123726      31.17186928       8.61454391
C       27.95964050      32.55164337       8.26820374
C       28.13262749      30.19724846       7.66955519
C       27.71596527      33.50294876       9.28482151
C       27.33304024      33.09217453      10.57479572
C       28.53613281      30.57943726       6.39014149
H       26.98700905      31.43461609      11.90545368
H       28.88290215      32.12145996       4.97813988
H       27.36576462      29.73068810      10.18161106
H       28.29735756      33.95240784       6.66573381
H       28.04920387      29.12723732       7.91057062
H       27.75995636      34.57641983       9.10576439
H       27.15269852      33.94156265      11.28927708
H       28.73838043      29.81643867       5.64389229
C       13.25281429      28.95241547      11.26990318
C       11.80393314      30.77298927       6.82404423
C       12.98213387      28.42366982      10.05603695
C       11.98430252      31.38256645       7.99157524
C       12.69522953      29.24496841       8.92476273
C       12.58601379      30.60723686       9.10675621
C       12.61543751      28.66868782       7.63878202
C       12.97863770      31.15588760      10.35035515
C       13.35500240      30.37383842      11.39283943
C       12.19069386      29.40184021       6.57546520
H       13.40388203      28.32863998      12.15258312
H       11.45218277      31.38591576       5.93714571
H       13.04685116      27.30150986       9.93499088
H       11.83435154      32.51240921       8.07779503
H       12.86780453      27.63229179       7.61921597
H       13.02968502      32.19356537      10.48789501
H       13.74993324      30.90248871      12.29503727
H       12.13563919      28.97880554       5.58434153
C       15.48850155      46.24741745      25.28632927
C       17.58614922      50.05351639      22.79577827
C       15.62283516      46.56132507      23.98570633
C       17.50819969      49.69139481      24.08650208
C       16.33399963      47.68949890      23.57127762
C       16.89588165      48.48900223      24.57040024
C       16.59401321      47.96132660      22.17744827
C       16.76162720      48.15273666      25.99452400
C       16.02186203      47.07280350      26.29174042
C       17.15607262      49.17724228      21.80176735
H       14.91755581      45.41468048      25.53359795
H       17.97499275      51.05325699      22.46210098
H       15.07196331      46.02919769      23.21615410
H       17.88279724      50.31797791      24.91286659
H       16.15447998      47.31874847      21.47324181
H       17.17995644      48.75659561      26.78592491
H       15.84285736      46.73022461      27.30518150
H       17.34945869      49.47192764      20.76421928
C       10.36187649      51.55421829       2.04051685
C        9.13446712      54.97758865       5.50811625
C       10.46614742      52.93701935       2.05324483
C        8.89212704      53.65268707       5.36826229
C        9.90853214      53.64103317       3.15619206
C        9.22546196      52.98299408       4.16300583
C       10.05476284      55.03810120       3.26032734
C        8.94680214      51.65037155       4.00943041
C        9.44527626      50.92055511       2.94098973
C        9.63831329      55.67574692       4.36521339
H       10.68523216      50.99916458       1.18846261
H        9.04625988      55.66228867       6.32665396
H       11.02327442      53.47253418       1.30061948
H        8.35345840      53.09130096       6.14318037
H       10.45710182      55.63700104       2.43760610
H        8.22490597      51.05356979       4.66800117
H        9.11436272      49.91423416       2.79577851
H        9.89342117      56.70636368       4.51868057
C       24.91048050      34.44370270      18.72599030
C       24.88984489      34.36123276      13.73221111
C       24.99390411      35.41953659      17.76110268
C       24.67459488      33.37278366      14.62504959
C       24.84554291      35.07204437      16.38837624
C       24.65278816      33.73132324      16.00524521
C       24.95771790      36.09253311      15.36489201
C       24.54605103      32.76342392      17.05965424
C       24.73567772      33.07544708      18.36589432
C       25.00402832      35.66157913      14.09324265
H       25.02400017      34.60135651      19.80480385
H       25.04552841      33.99399185      12.75582027
H       25.21065712      36.47284317      18.00785065
H       24.68472862      32.35718918      14.23855114
H       25.02295494      37.18296814      15.58629990
H       24.47967720      31.66425896      16.87390137
H       24.42520523      32.36349487      19.10879707
H       25.12465286      36.40251541      13.30824184
C       13.06738091       0.23778175      20.81867027
C       16.78867340      55.77518845      20.58240700
C       14.38318443       0.31504488      20.36632538
C       15.52313995      55.71506882      21.08177376
C       15.19619656      58.06678391      20.36053658
C       14.68983555      56.89320755      20.84019089
C       16.48290825      57.99885559      19.73779678
C       13.32348919      56.85798264      21.39584351
C       12.54882622      58.00115585      21.40632057
C       17.22562218      56.88882828      19.80703163
H       12.44127464       1.10294378      20.87492180
H       17.50014496      54.95921326      20.62477493
H       14.71321392       1.26455677      19.92164230
H       14.98011589      55.00051880      21.60964966
H       16.78451157      58.72922897      18.98538399
H       12.92808723      55.85557556      21.74534988
H       11.53615189      57.87907028      21.74548149
H       18.09087563      56.88406372      19.17263412
C       25.94938087      53.09189224      12.32716465
C       26.31357574      51.93207169      17.25677109
C       25.95378113      53.86486435      13.42573166
C       26.07337761      51.25905991      16.09737396
C       26.05423355      53.23087311      14.71570683
C       26.03061295      51.84189987      14.81736374
C       26.07578087      53.97101593      15.90891838
C       25.81428719      51.07921219      13.62346458
C       25.83863068      51.64507675      12.36636829
C       26.19951439      53.36639404      17.17243576
H       26.01800346      53.56954193      11.37293911
H       26.41641998      51.43979263      18.23107338
H       26.04954529      54.92782211      13.20146275
H       25.97599220      50.19186401      16.22283554
H       25.96600533      55.03711700      15.83002090
H       25.79722595      49.98309708      13.69155884
H       25.83470154      50.95692062      11.43324089
H       26.42083931      53.89390564      18.14053345
C       21.87594414       0.40040299      16.57451630
C       20.37005615      54.57831192      15.86132145
C       21.56301689      58.31084061      17.45626068
C       20.77922821      55.57549286      15.07700253
C       21.25498772      57.01389313      16.96602249
C       21.24286079      56.76844406      15.60984039
C       20.80394554      55.93579483      17.82377815
C       21.38544464      57.90800095      14.76870918
C       21.83406830       0.17543167      15.22206116
C       20.38933754      54.76984024      17.24694061
H       22.15307045       1.35140312      16.95808792
H       20.02096367      53.58119965      15.53183365
H       21.61232758      58.46115112      18.50524139
H       20.63396645      55.53401566      14.02053356
H       20.62022781      56.04317856      18.89023590
H       21.02175522      57.83567810      13.70637798
H       21.88084221       1.00179267      14.53009987
H       19.96330833      53.99130249      17.82179832
C       23.60007095      28.37760162       2.50855184
C       27.27430725      31.65616989       1.41038001
C       24.11025429      28.81625366       1.29352224
C       26.75302315      31.18736267       2.59280229
C       25.14838791      29.77216911       1.28688753
C       25.63378143      30.25087929       2.52516198
C       25.63995934      30.38882256       0.07839579
C       25.05798912      29.76132774       3.73286438
C       24.10859489      28.76433945       3.73751807
C       26.69315338      31.26088905       0.18857060
H       23.04832840      27.43980408       2.47511506
H       28.16926193      32.33370590       1.44795036
H       23.76733208      28.34746361       0.36589876
H       27.07808685      31.56130028       3.62151670
H        6.48844385      30.19623756      27.61594963
H       25.42180824      30.20082855       4.68139982
H       23.79730797      28.30927849       4.65322924
H        8.30283070      31.65794373      27.74816704
C       22.86903381      39.17396164      16.15468979
C       23.71753311      43.61169815      18.39416122
C       22.68914223      40.52040100      15.80965233
C       23.82230759      42.27780914      18.78783989
C       23.17228508      41.55265808      16.57429123
C       23.60171318      41.23802948      17.86748505
C       22.98818398      42.88311005      16.20289421
C       23.80514526      39.85296249      18.21554947
C       23.46295357      38.81401062      17.39759636
C       23.29895973      43.91289902      17.08313370
H       22.53203392      38.42469406      15.44187069
H       23.92829323      44.41601181      19.17711449
H       21.95855141      40.64047241      15.01843166
H       24.00482750      41.99628830      19.87338066
H       22.87450790      43.34819031      15.09065628
H       24.32240868      39.70038986      19.12214088
H       23.56882668      37.75675201      17.74234009
H       23.26919174      44.94149017      16.71269035
C       -5.23499107      37.31762695      20.74704933
C       -2.61623573      34.65312576      17.38120651
C       -5.14495277      36.00133896      20.46518517
C       -2.96827698      35.94790268      17.46016312
C       -4.36591101      35.47821045      19.38413429
C       -3.83233571      36.43848419      18.45948982
C       -3.99505115      34.08402634      19.23215485
C       -3.86052084      37.84522629      18.84623528
C       -4.57409334      38.25755310      19.94235611
C       -3.07549548      33.68743515      18.32353210
H       -5.85236502      37.72733307      21.55878639
H       -1.92770135      34.26967621      16.56648445
H       -5.61526489      35.25096512      21.16091156
H       -2.69087768      36.65487289      16.71550369
H       -4.23753500      33.37269592      20.07231522
H       -3.38580036      38.64564514      18.24056625
H       -4.64487600      39.30517197      20.16427994
H       -2.85624790      32.65159988      18.32441711
C       13.98794651      42.25692368      13.78490257
C       18.62018776      42.13819504      15.84777164
C       14.52667618      41.49544144      14.90562820
C       18.01071930      42.82760239      14.77447128
C       15.94022655      41.83417130      15.36280060
C       16.66928101      42.72941208      14.54047966
C       16.55715179      41.21298599      16.46391487
C       16.08011055      43.27473450      13.37526226
C       14.83375740      42.93904114      12.94966221
C       17.85969543      41.38270950      16.68500710
H       12.91675854      42.13987350      13.55362034
H       19.64782333      42.29082870      16.03322792
H       13.79450130      41.29397583      15.74715233
H       18.61897659      43.43634796      14.09980869
H       16.03187561      40.59472275      17.18994331
H       16.69572639      43.92563629      12.69576550
H       14.40907097      43.27887726      12.01287460
H       18.31195831      40.86309433      17.49227905
C       -9.48802471      50.04157257      25.19330978
C       -9.60053349      45.11582184      26.07640648
C       -8.52619839      49.18281174      25.55411339
C      -10.58668900      46.04926682      25.98642159
C       -8.89249134      47.78308868      25.75343895
C      -10.21955013      47.37851715      25.67146873
C       -7.89457893      46.79545212      25.89156342
C      -11.12406445      48.35465622      25.27076149
C      -10.76934624      49.65322876      24.99542809
C       -8.24466228      45.49996185      26.02904129
H       -9.17245960      51.04755402      25.01995468
H       -9.85894966      44.07764053      25.99834442
H       -7.52469683      49.53896713      25.68396759
H      -11.64224339      45.80116272      26.10513115
H       -6.89540482      47.17155838      25.82874870
H      -12.15115547      48.13748550      25.34877014
H      -11.61733150      50.36440659      24.87726021
H       -7.46903706      44.67160416      26.06662178
C        3.64653468      44.17889023      17.35461617
C        1.28095436      47.09619904      14.20724392
C        3.74866319      45.51099777      17.09309769
C        1.14544260      45.78738785      14.46571541
C        2.88265538      46.05651093      16.12752724
C        1.88528442      45.19118500      15.51820374
C        2.98678923      47.42562103      15.77779865
C        1.80310082      43.81642914      15.83149433
C        2.65104175      43.38619232      16.79455376
C        2.15094376      47.93700027      14.85436726
H        4.36168766      43.61618805      17.98421860
H        0.67087001      47.45148087      13.39546204
H        4.52705145      46.18217850      17.54732323
H        0.43809780      45.22649002      13.93495560
H        3.80403471      47.87894058      16.27936745
H        1.10811567      43.16740417      15.39319229
H        2.60997939      42.33713913      17.16389084
H        2.19245243      48.92049408      14.48257446
C        5.79926968      56.70307541      16.29471016
C        1.11077678      58.88973618      16.63616371
C        4.78278637      57.03092957      15.37007809
C        2.06961226      58.44324875      17.55781174
C        3.61561823      57.63462067      15.86862469
C        3.35404468      57.93336868      17.21943855
C        2.64879656      58.17000198      14.95196819
C        4.43878603      57.61446381      18.09557533
C        5.60220242      57.04644012      17.63920212
C        1.47239697      58.74600983      15.28034115
H        6.71459007      56.22653580      15.91599846
H        0.12917821       0.35446328      17.02784729
H        4.86486721      56.50435638      14.38376236
H        1.78264821      58.45035172      18.59655571
H        2.89958000      57.98537064      13.91894722
H        4.32495451      57.88917923      19.10107422
H        6.48560810      56.89610672      18.28450966
H        0.83751470       0.18966746      14.48917961
C       16.73195457      42.76377869      25.33381271
C       21.41819382      41.11132431      25.02336502
C       17.89189339      43.40806580      25.61207962
C       20.21413231      40.58539200      24.60543251
C       19.09424591      42.72427750      25.34178162
C       19.06526947      41.37870407      24.82281494
C       20.38632584      43.18743134      25.77609825
C       17.78562164      40.81123352      24.53798103
C       16.63014603      41.48754883      24.80160713
C       21.47820473      42.36320496      25.64369392
H       15.78758049      43.30465698      25.55999947
H       22.39440918      40.63264084      24.89379501
H       17.82774162      44.39167786      26.15677261
H       20.15963554      39.68517685      24.01086998
H       20.33004761      44.23806000      26.25764847
H       17.78418922      39.78011322      24.10762215
H       15.68028927      41.04561615      24.58079720
H       22.37151527      42.82450867      26.04163742
C       14.66827774      31.10935593      19.79089737
C       13.55650425      28.45202255      15.61172104
C       15.28545952      30.95755196      18.59092522
C       12.85173702      28.73727417      16.77637482
C       14.68365955      30.26817131      17.50324249
C       13.43143082      29.62100029      17.75151825
C       15.38048649      29.95994949      16.29622650
C       12.75622749      29.88212967      19.01109886
C       13.40674019      30.56282043      20.03660202
C       14.78113651      29.10186386      15.36402512
H       15.19590378      31.48764229      20.65196991
H       13.10497379      27.82173729      14.83306408
H       16.29242706      31.26374817      18.40662384
H       11.87615681      28.43548012      16.88537216
H       16.32256126      30.40630150      16.00256348
H       11.78673935      29.37926674      19.16072273
H       13.13724327      30.57169914      21.13091469
H       15.37563419      28.81834602      14.49083614
C      -16.76265335      51.89732742      25.53385353
C      -13.86087036      55.99104691      25.62194061
C      -16.15166092      52.63469696      24.54721642
C      -14.53770351      55.31010056      26.57729721
C      -15.42064381      53.79106903      24.89742279
C      -15.34051800      54.13362503      26.24378967
C      -14.68190193      54.46149445      23.94969368
C      -15.97988796      53.34497070      27.27051544
C      -16.71415520      52.20753479      26.90841484
C      -13.84636498      55.49654770      24.23438072
H       22.26047134      51.11208344      25.30595970
H      -13.52514648      56.96695328      25.89533806
H       23.49822235      52.38855362      23.48012924
H      -14.51267338      55.68827057      27.67663383
H      -14.69353104      54.13062286      22.91152000
H      -15.80724144      53.55682373      28.32945251
H      -17.41641998      51.71539307      27.58506203
H      -13.25386524      55.87678528      23.43025589
C       -7.51947689      30.12702942      21.90765381
C       -4.39314556      30.39411926      17.85366058
C       -6.58529329      29.30920219      21.34903336
C       -5.42843246      31.21435356      18.33169174
C       -5.79296255      29.66392517      20.21476173
C       -6.05344915      30.87487602      19.56574249
C       -4.67268801      28.90103722      19.78295708
C       -7.11192322      31.70984459      20.13625336
C       -7.75513315      31.37370682      21.26866150
C       -3.95751834      29.24908066      18.61783600
H       -8.02382469      29.98939896      22.80131340
H       -3.88481498      30.72290993      16.99571991
H       -6.47089005      28.26790047      21.76088142
H       -5.78756237      32.04819489      17.71462059
H       -4.53803349      27.97947121      20.31874275
H       -7.34434605      32.63593292      19.60599899
H       -8.41476727      32.07673264      21.80090141
H       -3.15292096      28.61439514      18.15085030
C        3.65210366      46.63314056      12.08203888
C        2.99329901      47.94506836       7.14303875
C        3.65624976      45.89379120      10.89549923
C        2.89790678      48.61989212       8.29018497
C        3.53340912      46.58299255       9.60140705
C        3.28954983      47.91947556       9.50960350
C        3.63792944      45.92618561       8.33992577
C        3.36421967      48.68528366      10.70713043
C        3.53680396      48.02622986      11.93458176
C        3.40931416      46.60032272       7.21282196
H        3.90945077      46.19792938      13.01785946
H        2.71587300      48.44057083       6.13118124
H        3.69029903      44.76649475      10.75891113
H        2.62468624      49.65541458       8.46000767
H        3.81004286      44.85789490       8.27948093
H        3.19849348      49.75703049      10.76588917
H        3.65935397      48.69496918      12.81805325
H        3.26755238      46.02391434       6.33286762
C        0.18754537      35.37398911      25.66829300
C        0.67189229      39.81792450      23.41579247
C        0.09020616      36.64582062      26.12762642
C        0.56789321      38.52639771      22.95673561
C        0.22145568      37.70486069      25.21501160
C        0.30204201      37.45537567      23.84700203
C        0.35750470      39.06937027      25.67999458
C        0.41380674      36.11692429      23.41531944
C        0.47342482      35.11296844      24.34597015
C        0.63679850      40.10044861      24.81493568
H        0.08050449      34.58361053      26.39666748
H        0.95373702      40.66470337      22.83870697
H        0.04065698      36.95077515      27.17047501
H        0.70749307      38.33828354      21.89388847
H        0.39181551      39.26032257      26.76202011
H        0.61959016      36.02793121      22.34534836
H        0.52762091      34.20013046      23.83474922
H        0.91911817      41.09564209      25.18971634
C       32.27140427      39.36015701       0.91183949
C       27.56979942      40.44815826       2.41718149
C       31.03127289      38.76184845       0.69329357
C       28.68083954      41.22601318       2.27167344
C       29.81735611      39.34822845       1.13143027
C       29.87472916      40.67052460       1.65070808
C       28.58862686      38.68099976       1.09881425
C       31.15758705      41.25952530       1.87213850
C       32.36736298      40.60764694       1.62232769
C       27.52200317      39.17514801       1.80261385
H       33.17838287      38.73176575       0.70924896
H       26.70170212      40.85258484       3.01144123
H       30.94321251      37.76670456       0.25513938
H       28.80709457      42.27648926       2.63677931
H       28.56060982      37.74813843       0.51297563
H       31.17599487      42.11309433       2.53771615
H       33.37702942      40.81722641       1.98828411
H       26.67479706      38.50587463       2.04768634
C        9.39412403      55.17372131      26.53841400
C       32.54764557      54.20336151       0.16476493
C       10.62731838      54.93923187      26.05508614
C       31.36717415      54.31883240       0.70962340
C       11.76790142      54.77562332      26.96831512
C       11.44211578      54.54647446      28.37417412
C       13.01132870      54.95290375      26.57641602
C       28.88995361      54.78736496       0.34513783
C        9.16292858      55.21278763      27.95062828
C       14.05647087      54.70308304      27.45263481
H        8.54465485      55.35288620      25.94441795
H       33.36560059      53.76521301       0.75920594
H       10.80297661      55.18243027      24.95005608
H       31.20026588      54.30778885       1.78286433
H       13.13339520      55.27009583      25.55406761
H       28.86963272      54.77491379       1.46136129
H        8.16364765      55.49356461      28.21088982
H       15.09276676      54.71644211      27.16334534
C        2.47903037      58.19657135       1.54570913
C       -1.30965352      56.60408401       4.47197199
C        2.00594759      58.56066895       2.74553728
C       -0.75199842      56.16675949       3.30614114
C        0.94806188      57.87113571       3.33283663
C        0.38611370      56.76212692       2.73538065
C        0.31972668      58.36012650       4.57915974
C        0.98260528      56.41046906       1.55170846
C        1.97755408      57.02107620       0.91184521
C       -0.73148996      57.69984817       5.12994385
H        3.23946428      58.74801636       0.91527390
H       -2.18743253      56.11322021       4.84416771
H        2.29568505       0.51284742       3.26681232
H       -1.21324646      55.28130341       2.88733482
H        0.66132003       0.30903071       5.16335011
H        0.58081555      55.54329300       1.03248096
H      -16.40283966      56.71424484      28.49192810
H       -1.15628934      58.07904816       6.07114792
C       33.36584473      57.09546661       3.70460653
C       29.94348717      56.25682068       7.28727961
C       33.00499344      57.78261566       4.80715847
C       30.48913193      55.49776077       6.30663157
C       31.99353981      57.29334641       5.68782520
C       31.46779633      56.03994751       5.41097546
C       31.29010963      58.14270782       6.68574476
C       31.96893883      55.26556015       4.37093496
C       32.84372711      55.81982803       3.48846269
C       30.28808212      57.66340637       7.39294958
H       33.99793625      57.57893753       2.99254870
H       29.19767189      55.86104584       8.02169323
H       33.38714600      58.78028870       4.92642450
H       30.06652260      54.59045410       6.04924202
H       31.54026794       0.21054545       6.77609015
H       31.48888397      54.30605316       4.21411800
H       33.07346725      55.31334305       2.57937431
H       29.86136627      58.36858749       8.12466526
C       16.67334175      27.94913483      10.68386650
C       18.97029495      28.40114594       6.26123762
C       16.21181870      28.35416985       9.44695950
C       19.41317558      27.84008598       7.40536690
C       17.08068275      28.35142326       8.36980248
C       18.49348259      27.92975616       8.53514481
C       16.73177147      28.87720108       7.09679317
C       18.97305107      27.72728157       9.87496567
C       18.01470566      27.72339630      10.87768555
C       17.67097473      28.98227310       6.15430069
H       16.03134918      27.88970566      11.55674648
H       19.55993271      28.60121155       5.40149641
H       15.21976471      28.74745941       9.30617428
H       20.46862221      27.62285233       7.59136486
H       15.82207870      29.30375290       6.78145456
H       19.98172379      27.53679276      10.12559700
H       18.27765656      27.37793541      11.86681843
H       17.31724167      29.40208626       5.27693796
C        2.01575136      33.19614792      27.88743591
C       22.52852631      33.42137909       4.06256390
C        3.12332606      32.67979813      28.49036789
C       21.31356239      33.65242767       3.50378156
C       22.13251114      32.77511978       1.35907495
C       21.14675331      33.33662796       2.18667698
C       23.32264900      32.39515686       1.96489632
C       19.92183495      33.68581009       1.54244733
C       19.78253746      33.69098282       0.18014821
C       23.51460457      32.69566727       3.32573509
H        1.90673435      33.22420502      26.78502464
H       22.78714561      33.54696655       5.04542065
H        3.97979355      32.24379730      27.91507339
H       20.52119064      34.07257080       4.06242514
H       24.13438225      31.93451500       1.37469733
H       19.14619827      33.99712372       2.19019866
H        0.03932972      33.99872589      28.27632713
H       24.44790077      32.49782562       3.88987112
C       -5.69502735      45.04631424      18.42017364
C       -2.96176934      41.05907822      19.55115318
C       -5.44552135      44.45381546      19.61431122
C       -3.34496737      41.62246704      18.42032051
C       -4.61507368      43.28236771      19.65658188
C       -4.16623306      42.77499390      18.40835190
C       -4.11663628      42.72091293      20.83978462
C       -4.66035604      43.32561493      17.18366432
C       -5.28868103      44.52643967      17.16941452
C       -3.28755736      41.59093094      20.82136726
H       -6.20796204      45.96447754      18.40149879
H       -2.41611624      40.11547470      19.52882576
H       -5.87751913      44.93874359      20.52778244
H       -3.12100220      41.17213440      17.49604607
H       -4.38491201      42.99308777      21.86612701
H       -4.45460939      42.78227997      16.27918243
H       -5.53089523      45.06542206      16.29771805
H       -2.84494972      41.08960342      21.67953491
C       36.12573242      53.19838333       2.40618849
C       34.41529083      52.03224182       6.90858269
C       35.87205505      52.01266098       3.09179258
C       34.52543640      53.24488831       6.30219984
C       35.38023376      51.97021866       4.42824507
C       35.11244965      53.24621964       4.99549675
C       35.32002258      50.71512222       5.13040352
C       35.45990753      54.41769028       4.26178026
C       36.02312469      54.39784241       3.02106190
C       34.81752014      50.80110931       6.35432243
H       36.42517471      53.17419052       1.41047800
H       33.93264008      52.05350494       7.86594105
H       35.79286575      51.07022095       2.56695938
H       34.20922852      54.21796417       6.68645144
H       35.74693680      49.83341217       4.69394159
H       35.28520584      55.36861420       4.80374098
H       36.34103775      55.25274277       2.55373502
H       34.77166367      49.89738464       6.97209692
C       17.83961105      30.43228149      27.66918373
C       12.91810226      30.86499023      26.56241417
C       16.87553024      29.47526550      27.55191994
C       13.94405651      31.76465225      26.79654884
C       15.57476425      29.92251396      27.14678001
C       15.22683525      31.30395699      27.09686852
C       14.50869846      29.00836372      26.98278809
C       16.26499558      32.23555756      27.29238319
C       17.52046776      31.80846405      27.56960487
C       13.28220558      29.48717690      26.67835617
H       18.79171562      30.08713913      27.97235298
H       11.93344688      31.22603416      26.36644936
H       17.02855873      28.41708946      27.59630394
H       13.73027325      32.88083267      26.83783340
H       14.60363579      27.95354080      27.15199471
H       16.09152222      33.34133911      27.22611618
H       18.26865196      32.63009262      27.62408066
H       12.41310883      28.78266335      26.77228165
C        0.88614756      29.50792694       9.46515751
C       -0.86172718      30.98313713       5.07278156
C        1.42008400      29.45158005       8.27030182
C       -1.37108791      30.98536491       6.33852720
C        0.81247455      30.10193825       7.15064192
C       -0.52434558      30.62633705       7.43756390
C        1.26054513      30.15699577       5.79408360
C       -0.97384089      30.86965561       8.80201817
C       -0.24442741      30.26891327       9.76852131
C        0.45307893      30.54630280       4.78663254
H        1.32467675      28.99140930      10.32811356
H       -1.51786983      31.21615601       4.20910025
H        2.29948902      28.85741997       8.06716347
H       -2.40718102      31.33909035       6.53669882
H        2.31251478      29.88048744       5.59075737
H       -1.96313417      31.33681107       8.86713886
H       -0.58523232      30.27558327      10.80167294
H        0.73270774      30.51664352       3.77643538
C       16.10202980      35.28487778      10.09297752
C       16.64866447      32.84184647      14.39942932
C       15.28302670      34.46410751      10.85050869
C       17.39009857      33.78241348      13.78584194
C       15.75309849      33.84963989      12.04538631
C       16.99663544      34.19155121      12.53647518
C       14.91466045      32.99193573      12.82744122
C       17.82598114      35.12525558      11.80447483
C       17.33319855      35.62717819      10.62938976
C       15.35903358      32.47919083      13.97779751
H       15.87639713      35.76745987       9.13523674
H       16.99683762      32.38451004      15.33113956
H       14.39920425      33.98289871      10.49527359
H       18.32913208      34.04497910      14.25496769
H       13.90237141      32.90263367      12.53092957
H       18.86377716      35.33372116      12.10977173
H       17.90762520      36.28934479       9.97142124
H       14.77807140      31.84421539      14.57133865
C       -3.05772471      48.98519897      10.91815281
C       -4.08429718      44.67300415      13.30324554
C       -2.47768855      48.31476593      12.04010296
C       -4.71192789      45.36334610      12.32122421
C       -3.01936007      47.16505432      12.50412560
C       -4.15131235      46.53976822      11.80172443
C       -2.58296537      46.49635696      13.70085049
C       -4.56696701      47.12514114      10.63392544
C       -4.04572868      48.35129166      10.16136265
C       -3.03769588      45.24919128      14.02967930
H       -2.69014454      49.98952103      10.78022766
H       -4.52764797      43.72262955      13.64438057
H       -1.73901331      48.78877640      12.68862534
H       -5.53603888      44.98094177      11.68899918
H       -1.81730115      46.86278152      14.29219246
H       -5.27091312      46.57288361      10.02782249
H       -4.43921614      48.83078384       9.28736115
H       -2.56711102      44.62631989      14.78547764
C       22.23312378      43.26208878       7.60165262
C       23.66627693      39.97966003       4.07746267
C       21.71820450      42.13578033       7.09959078
C       24.26837730      41.04313278       4.64379215
C       22.32726860      41.42807388       6.04181767
C       23.62950325      41.90427780       5.59275627
C       21.80293846      40.24670410       5.51269865
C       24.17298317      43.07765579       6.15306139
C       23.51100731      43.76528168       7.13445902
C       22.39201927      39.51133728       4.56927156
H       21.86641502      43.66328812       8.55109787
H       24.15557671      39.35413742       3.28700686
H       20.75027847      41.73351288       7.47677422
H       25.23417664      41.34322739       4.16687489
H       20.78325081      39.90442276       5.81331682
H       25.10752296      43.42715073       5.82044792
H       24.04160500      44.54336548       7.61007738
H       21.89094353      38.68143082       4.11728954
C        8.17287445      53.54349518      16.42869377
C        3.97798061      52.27257156      18.83764458
C        6.82234335      53.64867783      16.15512848
C        5.30111170      52.07106781      19.15689468
C        5.81190443      53.13827515      17.01161385
C        6.27143478      52.51934814      18.19689369
C        4.44564199      53.34726715      16.72245598
C        7.69959402      52.53693771      18.47955132
C        8.66352940      53.04242325      17.67984009
C        3.52412772      52.93303680      17.61816788
H        8.87572670      53.86213684      15.77686024
H        3.24654984      52.04456711      19.66796875
H        6.55413151      54.09315491      15.21341801
H        5.63832331      51.66427231      20.12025261
H        4.09905672      53.97201157      15.87489128
H        7.90558243      51.94784164      19.41770744
H        9.71643066      52.99784851      17.81115150
H        2.50848722      53.12077332      17.54850960
C        3.64744878      42.03959656      14.18088913
C        7.48942089      43.45815659      17.18390656
C        4.40095043      43.24867630      14.21829987
C        7.29949856      42.25260544      16.30885315
C        5.37455988      43.39040756      15.21539593
C        5.87003899      42.20124435      15.86038494
C        6.02677155      44.60658264      15.62959290
C        5.12342453      41.01244354      15.75227547
C        3.95755219      40.95150375      14.93700409
C        6.92152929      44.62474823      16.74284363
H        2.74607515      41.93680573      13.56447029
H        8.08960819      43.42577362      18.03321838
H        3.90793037      44.19805527      13.80391026
H        7.71923828      41.30111313      16.71669388
H        5.67647314      45.51342011      15.15403652
H        5.38626242      40.13932037      16.32308578
H        3.33248067      40.09637451      14.88830376
H        7.22536945      45.53767776      17.25027847
C       15.02083588      45.62084579      17.89744568
C       17.70307922      42.71488571      20.95817757
C       14.82593632      45.23236084      19.23424530
C       17.85869789      43.18732071      19.64569283
C       15.87245846      44.49706650      19.85071754
C       16.99700928      44.12626648      19.08560944
C       15.78651142      44.01538086      21.16331100
C       17.18280983      44.69180679      17.77693748
C       16.22298431      45.48308563      17.22743797
C       16.72148514      43.18960190      21.72166443
H       14.23788834      46.18904114      17.28771591
H       18.37842369      41.90425491      21.26003456
H       13.83232117      45.32348633      19.69345284
H       18.62867165      42.80856705      19.02391434
H       14.86799049      44.35935974      21.71122932
H       18.10575485      44.38267899      17.28013420
H       16.34317970      45.89760208      16.22540665
H       16.62612724      42.88142014      22.74632645
C       34.71562195      34.34064102       1.11399794
C       17.98938942      37.94187164      26.75143814
C       35.98771286      34.76657867       0.91848218
C       16.66572380      37.46439362      26.89125442
C       36.22430038      35.90264511       0.04534715
C       16.37795258      36.43709183      27.79806709
C       18.76761818      36.31805801      28.41598129
C       15.03952026      36.02951813      28.00112152
C       33.64787674      34.99047470       0.42858255
C       19.03498459      37.36021042      27.52144432
H       34.47029114      33.50015640       1.77316892
H       18.14173126      38.82001495      26.22468758
H       36.87061310      34.41852951       1.46018124
H       15.79737377      37.89987183      26.35707664
H       38.37524033      35.89778900       0.50382257
H       14.28430271      36.42881012      27.44949913
H       32.66937637      34.61688232       0.49905083
H       20.07947731      37.70840073      27.29013634
C       23.38384247      46.57368469      21.34618950
C      -13.71317291      50.57810593      22.65480804
C       24.26855087      47.36668396      20.77586746
C      -14.79358578      49.91807556      23.27994347
C       24.70504761      48.56515503      21.29349136
C       24.32927895      48.87496185      22.59597778
C       25.68590736      49.31151962      20.62703705
C       23.37605667      47.99916840      23.27316093
C       22.96288872      46.87209320      22.67368126
C      -13.41911983      50.28608322      21.28897476
H       23.02122116      45.64539337      20.81057167
H      -13.10792351      51.24371719      23.30396080
H       24.53415298      47.04728317      19.79598618
H      -15.26954746      50.13337708      24.25449181
H       25.80896187      49.15876007      19.57375336
H       23.16500282      48.05395889      24.35277939
H       22.38094521      46.07541275      23.27217484
H      -12.49938011      50.75489044      20.86248016
C        8.89970970      48.15522385       5.96803522
C        6.65082121      51.78393173       8.53337955
C        7.61772251      48.21471786       6.42466211
C        7.92317200      51.54684067       8.08630085
C        7.28300285      49.42135239       7.10506821
C        8.25004673      50.41666031       7.31433058
C        5.96789551      49.66867828       7.58058310
C        9.57002163      50.20476913       6.84333992
C        9.88931561      49.12704849       6.10781002
C        5.62654352      50.87793350       8.13825035
H        9.18222141      47.23371506       5.48533630
H        6.42615318      52.62704468       9.19724846
H        6.79588461      47.43854904       6.34039307
H        8.73904705      52.25511932       8.26738834
H        5.22656202      48.90186691       7.42707825
H       10.28345490      51.01438141       7.22381115
H       10.94062710      49.00948715       5.81935215
H        4.56806374      50.97108841       8.37797928
C       -3.31615591      39.94448853      15.46178436
C       -0.36867401      41.11626434      11.54697323
C       -2.56935358      41.00048447      15.14940166
C       -1.18296659      40.05300522      11.80600166
C       -1.87121081      41.10934830      13.92008114
C       -1.92165613      39.99862289      13.02662754
C       -1.02407587      42.21991348      13.65449905
C       -2.60968041      38.81134033      13.43466759
C       -3.30309534      38.77109146      14.62145901
C       -0.26621762      42.22589111      12.51649857
H       -3.85246992      39.79002762      16.40523338
H        0.18174645      41.17273712      10.64957714
H       -2.52505851      41.85606766      15.76444149
H       -1.07079029      39.10730362      11.33986092
H       -0.97981811      43.12586975      14.31828499
H       -2.63678789      37.98450089      12.72739220
H       -3.85675859      37.88147736      14.96614933
H        0.47631571      43.00735474      12.34122658
C        7.40042400      45.61941910      23.28807449
C       12.21361065      44.54760361      24.24576378
C        8.19357395      44.49180222      23.37359810
C       11.40495205      45.75416183      24.62530708
C        9.40070438      44.45806503      24.02668953
C        9.95367146      45.69399261      24.24615288
C       10.19120693      43.13103867      24.07418060
C        9.18997288      46.85391998      24.16446686
C        7.83567142      46.80822372      23.75865364
C       11.50993824      43.30268097      24.84621048
H        6.41874218      45.39647675      22.86789513
H       13.24615192      44.58480453      24.63328362
H        7.77663422      43.55237961      23.01637650
H       11.89844227      46.66183472      24.23459816
H        9.46550846      42.44540405      24.61501312
H        9.51489162      47.75151443      24.57610321
H        7.23047972      47.74257278      23.83558273
H       12.20610714      42.50797272      24.62139511
C        1.60313880      34.93959045       9.55226994
C        4.18688583      30.79557228       8.23732567
C        2.09194517      33.83444214      10.22513390
C        3.79569626      31.95217896       7.55765963
C        2.70836878      32.80175781       9.49590397
C        2.92973399      32.89673996       8.14428902
C        3.22554374      31.66384125      10.18331623
C        2.39814210      34.03602982       7.44823456
C        1.78944504      35.05519867       8.12511158
C        3.85081482      30.62624931       9.60860920
H        1.10297346      35.75627899      10.09070015
H        4.71423388      30.03913307       7.66343308
H        1.95310211      33.76425552      11.29259682
H        3.85701728      31.86317062       6.47374344
H        2.97425914      31.52095413      11.16236687
H        2.40293884      33.91602707       6.30298138
H        1.29861248      35.87449265       7.54994774
H        4.01396561      29.62802505      10.07227612
C       18.85409737      31.51214600       3.42380428
C       20.98909760      31.10566330       7.98811007
C       20.08022308      31.09608459       3.91533446
C       19.72834206      31.46730423       7.59945917
C       20.33377075      30.93951035       5.29625177
C       19.38339615      31.44258118       6.22430372
C       21.67515564      30.61884880       5.72071075
C       18.10545540      31.77347565       5.72535515
C       17.85852814      31.84358406       4.41475391
C       21.94507980      30.65067673       7.06841183
H       18.59114647      31.37288475       2.36463952
H       21.22591972      31.05266190       9.03565693
H       20.84360313      30.62500954       3.28689027
H       18.91800880      31.75175667       8.28727818
H       22.37623596      30.24828339       4.92848539
H       17.36930656      32.12875366       6.41169930
H       16.89473915      32.13821793       4.03928089
H       22.87840080      30.32917976       7.42013407
C       30.48106575      36.59420013      11.42010021
C       31.21607018      32.78604507       8.27448463
C       30.50418472      35.23537827      11.58948326
C       31.23231506      34.11491776       8.07313919
C       30.70162010      34.46047592      10.43420982
C       31.03611946      35.03508377       9.17333603
C       30.68785477      33.04640198      10.54316616
C       31.22932816      36.42750931       9.10785389
C       30.81890488      37.19172287      10.16448593
C       30.94375229      32.20042801       9.52510071
H       30.29091644      37.14572144      12.34565449
H       31.23772049      32.08338165       7.44388008
H       30.34967995      34.70994949      12.54687023
H       31.58110428      34.51729202       7.16544485
H       30.66194534      32.63249588      11.54144382
H       31.52747726      36.90722656       8.16078281
H       30.95627022      38.24529266      10.20326900
H       31.18572235      31.12165642       9.63020897
C        2.05511284      52.27770615      26.18000031
C        6.47993660      50.13002396      27.37363052
C        2.87158489      51.42669296      25.48031425
C        5.65576839      51.03013229      28.01810837
C        4.17931080      51.07715607      26.07273674
C        4.46807337      51.41407394      27.41154480
C        5.03557920      50.13915634      25.43030739
C        3.54520917      52.26736450      28.04906273
C        2.46379781      52.77403641      27.47587776
C        6.15213776      49.63967514      26.05854607
H        0.99358821      52.46658707      25.85129356
H        7.49973679      49.89319611      27.73587990
H        2.62729287      51.13803864      24.47300148
H       24.64926529      51.47980881       0.44257379
H        4.78370047      49.79762268      24.43135262
H       22.58752060      52.52936172       0.56561071
H        1.83620465      53.40877151      28.07344246
H        6.87479401      49.01789856      25.52983093
C       11.96408939      41.57100296       7.79022694
C       10.55554199      38.24184799       4.26308298
C       12.03042793      40.20814896       7.72733498
C       10.50309372      39.63303375       4.33182049
C       11.55706120      39.50283432       6.55508327
C       10.98541260      40.25896835       5.52106619
C       11.59884167      38.11562347       6.41760492
C       10.96685600      41.70919800       5.64563179
C       11.35205173      42.33699036       6.78668642
C       11.14632130      37.48554230       5.30808830
H       12.45530128      42.07619476       8.63116074
H       10.27477837      37.70268250       3.33655977
H       12.45642376      39.59463501       8.53535557
H       10.09000683      40.14022446       3.46950459
H       11.92479324      37.56598663       7.25125074
H       10.70466423      42.27748489       4.77194548
H       11.46450138      43.44427490       6.74894333
H       11.25585651      36.40006256       5.32893372
C       14.46996689      33.31277084       7.76216412
C       12.49722672      32.29786682       3.32727122
C       14.76504135      32.39230728       6.85446119
C       12.36793613      33.34751129       4.20893192
C       14.12085915      32.44097519       5.55740643
C       13.16863346      33.44856262       5.39333296
C       14.31573391      31.39882851       4.57688093
C       12.93628693      34.44844055       6.40067863
C       13.55947781      34.42138290       7.60966682
C       13.49143505      31.29337692       3.50883293
H       14.81376362      33.19429016       8.76723862
H       11.76875591      32.06671524       2.54528546
H       15.38111496      31.49916267       7.23177290
H       11.67854977      34.10050583       4.05869627
H       14.90074444      30.53293800       4.75754690
H       12.11962509      35.14398956       6.25017786
H       13.27216434      35.01732636       8.45155334
H       13.66236305      30.54089737       2.74256563
C        9.65026474      35.65569305       8.17093372
C       11.42613983      34.11016083      12.63042641
C        9.67248344      34.41090775       8.74357796
C       11.39868164      35.34661865      11.99462700
C       10.36284637      34.25211716      10.01514244
C       10.93266964      35.41192245      10.64516067
C       10.58002853      33.04129028      10.70930195
C       10.89428806      36.64935684       9.99153137
C       10.34093380      36.76055145       8.73112965
C       10.98154831      32.97573853      11.99249268
H        9.06711388      35.86596680       7.26430655
H       11.69481468      34.08811188      13.69185448
H        9.21985531      33.55242920       8.26191902
H       11.66534233      36.27479553      12.45263386
H       10.17095661      32.18002701      10.22321129
H       11.31499672      37.54584503      10.56580639
H       10.21476364      37.75841522       8.24465275
H       10.90000534      32.05098724      12.57323265
C       13.74040222      34.60948944       0.16162612
C       16.16982460      30.26147652       0.46706343
C       13.32675838      33.32187653       0.21931048
C       16.54521370      31.55749702       0.43793541
C       14.25782299      32.28350067       0.26733467
C       15.58755779      32.57578278       0.38712469
C       13.87531185      31.00562477       0.17329614
C       16.00150299      33.88775253       0.33025989
C       15.10057545      34.91543961       0.17604704
C       14.80570698      29.97546005       0.25317302
H       12.99347210      35.41331482       0.18158652
H       16.91191483      29.47193336       0.45919108
H       12.26210785      33.21645355       0.11762326
H       17.60270309      31.82431412       0.47413510
H       -5.89193010      30.63893127      28.33695602
H       17.06341934      34.26655579       0.34716848
H       15.34354401      35.96257782       0.09928253
H       14.50510979      28.91756439       0.18079667
C        1.36747134      42.66643524       6.70602798
C        2.85767317      38.24887848       8.66533947
C        1.87653553      42.28959274       7.88747215
C        2.57297325      38.68395233       7.41650391
C        2.31540060      41.01253891       8.15051651
C        2.52590919      40.09006500       6.97851038
C        2.58939052      40.58144760       9.41882515
C        1.50662422      40.39025497       5.91706371
C        0.92427987      41.65243149       5.80965471
C        2.90585685      39.25556183       9.66928959
H        1.15015221      43.69031906       6.47444153
H        2.85288000      37.21840668       8.92362785
H        1.99754834      43.09688950       8.63324547
H        2.44033933      37.96597672       6.60111666
H        2.73837638      41.39663315      10.17986393
H        1.16866934      39.66384888       5.20467186
H        0.25171286      41.80878448       4.93139362
H        3.19760704      39.05839539      10.71510601
C       22.82447815      53.00547791      16.35342789
C       23.93007088      48.08310699      16.44270706
C       23.13684463      52.08615494      15.43793106
C       23.54348755      48.93558502      17.44607925
C       23.28009415      50.73869705      15.79459953
C       23.26736069      50.27740860      17.11500359
C       23.51063728      49.82817078      14.77406502
C       22.98236084      51.27971268      18.10533524
C       22.75980186      52.58220291      17.70809364
C       23.79955292      48.53189850      15.09088230
H       22.66525078      54.05589294      16.04953575
H       24.14736938      47.07513809      16.51430702
H       23.07234764      52.44007492      14.36705875
H       23.37340546      48.58103180      18.40647888
H       23.50311470      50.13013077      13.72222710
H       22.98597527      51.05175400      19.11750603
H       22.50840378      53.29624939      18.47688484
H       23.98138046      47.87828064      14.21737576
C       -4.48000240      45.39102554       7.31481695
C       -1.15362954      46.10507965       3.55133963
C       -3.88071871      44.59234619       6.39304256
C       -1.94126368      46.95152283       4.23568583
C       -3.09052157      45.03618622       5.36675215
C       -2.90055656      46.41904068       5.19578028
C       -2.31386089      44.15862656       4.51290369
C       -3.56228852      47.26814651       6.11545467
C       -4.31694794      46.79537201       7.11450720
C       -1.36616063      44.72732162       3.75008178
H       -4.99243402      44.92915726       8.18818283
H       -0.49927732      46.55413437       2.87422371
H       -4.00842142      43.51081848       6.49749660
H       -1.87216234      48.04255295       4.16572237
H       -2.47745633      43.08536911       4.52308178
H       -3.40902495      48.35407639       6.00117016
H       -4.76927805      47.53157806       7.79201412
H       -0.83055568      43.87265015       3.22690368
C       20.51696396      50.58877182       1.64708388
C       17.27756310      46.85824203       0.61551809
C       20.49634552      49.63709641       0.65143162
C       17.20653534      47.94573593       1.43976223
C       19.38464928      48.71763992       0.59389824
C       18.27844620      48.90755844       1.47938228
C        0.61827528      47.54163361      28.26695061
C       18.33753395      49.91450500       2.43266392
C       19.45259666      50.74034882       2.55118418
C       -0.39230290      46.69524384      28.26296806
H       21.32196045      51.22627258       1.72902727
H       16.46002197      46.14340210       0.50922906
H        2.56155491      49.56540298      28.47151184
H       16.40900993      48.01224136       2.24050117
H        1.59634101      47.30392838      27.81995583
H       17.55834198      49.86466980       3.13714767
H       19.65472794      51.52398682       3.29529762
H       -0.31517252      45.82188416      27.65296173
C        9.36330509      50.96649170      14.68537998
C        5.41501284      49.31118774      17.32745361
C        9.15719891      50.63870621      16.02063560
C        5.55068111      49.88173294      16.14035225
C        7.85033178      50.26328278      16.51789284
C        6.79012871      50.31772995      15.63058281
C        7.78489208      49.59080505      17.78709221
C        7.00029135      50.67124939      14.25519657
C        8.23679066      51.04200363      13.82945061
C        6.54317570      49.19982529      18.13754845
H       10.31153774      51.35886002      14.39878082
H        4.45133352      49.09994507      17.81883049
H       10.00303459      50.61631393      16.68760681
H        4.68004894      49.88580704      15.50088310
H        8.56997204      49.48132324      18.54801559
H        6.15269852      50.70823288      13.55047607
H        8.41122055      51.46376419      12.82068539
H        6.44016600      48.71178436      19.06595612
C       -0.48780212      46.00658035      11.19509411
C       -1.54992449      43.10564804       7.28554535
C       -1.30688095      44.95475769      10.98888206
C       -0.95191211      44.38010025       7.37636471
C       -1.48330736      44.38199234       9.72612190
C       -0.90042698      45.06196976       8.59958935
C       -2.07550812      43.14032745       9.58820629
C       -0.14312378      46.22212982       8.81559181
C        0.02396841      46.75312042      10.08574963
C       -2.05355501      42.48174286       8.38909626
H       -0.50670135      46.43983841      12.20204926
H       -1.45727408      42.60211945       6.33407116
H       -1.85740685      44.58412552      11.85192871
H       -0.63947153      44.89714050       6.44863462
H       -2.45983386      42.59574127      10.51464081
H        0.48770818      46.65954590       8.00642300
H        0.53475821      47.64479828      10.24270725
H       -2.53259134      41.49509048       8.37597752
C       25.74381447      30.34812927      21.11739349
C      -14.01019573      31.73443413      26.06305122
C      -14.19797039      31.57106972      21.70085716
C      -13.91287804      30.59664917      25.29966164
C      -14.09132290      31.72202301      23.15623474
C      -13.94169044      30.49380112      23.86426735
C      -14.24789715      32.94868088      23.93102646
C      -13.88226986      29.20830154      23.18990898
C      -13.88449001      29.16727638      21.85721397
C      -14.24543095      32.89278793      25.31120110
H       25.66143990      30.33264923      20.07317734
H      -14.12045193      31.65028572      27.13613701
H       25.63079834      32.36998749      20.91021919
H      -13.87664700      29.59039116      25.78056908
H      -14.47966480      33.86389542      23.41001892
H      -13.84560204      28.24185371      23.79947281
H      -13.81890297      28.23284149      21.30223274
H      -14.37594128      33.81245804      25.85031700
C       -6.01230431      49.86763382      28.28064346
C       -1.08198643      50.98778534      27.80271339
C       13.49612617      51.00694656       0.04696641
C       -1.87255418      49.92945862      27.50966644
C       -3.86562395      51.05893326      28.45533371
C       -3.22881341      49.98119736      27.85128975
C       15.80287170      52.18513107       0.27224693
C       -4.00748873      48.85289001      27.46121788
C       -5.35563135      48.82496643      27.62083435
C       -1.65964794      52.08595657      28.46325493
H       -7.04255104      49.93013000      28.25171471
H       -0.00626125      51.00123596      27.52692604
H       12.97613716      51.89432526       0.48016882
H       -1.50430238      48.97812653      27.01576805
H       15.41056633      53.00536346       0.85370839
H       -3.48512244      48.07546997      26.89305687
H       -5.98529720      47.97367477      27.37224197
H       17.83512688      52.91035843       0.15477782
C       10.42973995      54.63123322       8.72748280
C        8.36858749      54.40341187      13.21388245
C        9.11698151      54.32459641       9.09879112
C        9.63935471      54.47813797      12.71335983
C        8.77526474      54.31826782      10.46947002
C        9.85828495      54.35542679      11.36736774
C        7.46060228      54.14889526      11.03149128
C       11.19869041      54.59656906      10.90844154
C       11.48453903      54.66586685       9.60337162
C        7.22051811      54.25616837      12.38952351
H       10.59296513      54.70038223       7.64648294
H        8.30648899      54.42295456      14.28853989
H        8.36140823      54.25175858       8.28668690
H       10.54524803      54.52126312      13.36757088
H        6.60010672      54.03918457      10.35894394
H       11.96917152      54.74390793      11.68826199
H       12.50976276      54.80420685       9.33470917
H        6.16811752      54.26961517      12.71177578
C       21.88651085      35.67380905       6.86165619
C       17.17002296      37.34725952       6.87131691
C       21.33770180      36.90677643       6.88706350
C       17.70180893      36.05670929       6.91883612
C       19.91857529      37.04745102       7.03382683
C       19.10404587      35.91231155       7.06673384
C       19.34971046      38.31177139       7.08257437
C       19.68530464      34.62421799       7.00226212
C       21.06453133      34.55095291       7.00809908
C       17.98770714      38.42420197       6.97679520
H       22.98100662      35.55013657       6.73448563
H       16.11182976      37.41764832       6.78916979
H       21.79242897      37.81774139       6.71211767
H       16.96548843      35.23336411       6.83312702
H       20.06822586      39.14450073       7.25763893
H       19.12571335      33.74294281       7.16304541
H       21.59352303      33.59383392       7.07026577
H       17.58131027      39.40929031       7.12595987
C       29.63317680      57.26601791      10.56827641
C       27.68441391      57.06657791      15.12572002
C       29.40172958      58.24438477      11.48607063
C       28.17259407      56.03646851      14.29167557
C       28.74979401      57.81149673      12.69853020
C       28.61278534      56.44690704      12.95620346
C       28.25030327      58.80188370      13.55095863
C       28.90787888      55.48745346      11.97911453
C       29.32283783      55.89416885      10.75518703
C       27.71974182      58.40250015      14.72638798
H       29.95883560      57.64754868       9.65711689
H       27.32711792      56.89780045      16.13835716
H       29.38946342       0.37588894      11.13966465
H       28.10490227      55.00544739      14.52707291
H       28.46275330       0.90355992      13.36458874
H       28.78398705      54.43421555      12.07772160
H       29.69493866      55.23155975       9.98810005
H       27.31036186       0.21362904      15.46621513
C       21.83069801      42.93747711      22.44668007
C       20.60792732      40.36354446      18.29180336
C       21.80439758      41.61464310      22.04821396
C       20.60979462      41.69754791      18.62621498
C       21.33688545      41.11504745      20.83347321
C       21.06520844      42.14543915      19.89008713
C       21.19908524      39.74138641      20.55409813
C       21.23840904      43.55249405      20.18996811
C       21.56801796      43.92783737      21.53478050
C       20.87109375      39.40100479      19.25612450
H       22.11615372      43.22275162      23.46084785
H       20.23307228      39.98014069      17.29925156
H       22.24523354      40.79612350      22.76327515
H       20.35456467      42.44045639      17.85397148
H       21.38967514      38.97042465      21.29949951
H       20.98502541      44.32858658      19.41020966
H       21.64358902      44.96895218      21.88301849
H       20.93324089      38.38988113      18.90833092
C       -1.86772144      41.89118195      24.66224289
C       -4.98749113      45.55516434      26.18711281
C       -2.92922473      42.57915497      24.13113403
C       -3.90237117      44.99291229      26.76634216
C       -3.68465400      43.53168869      24.81810570
C       -3.28350687      43.92065430      26.13757896
C       -4.78081894      44.16607285      24.25894165
C       -2.18020415      43.24092484      26.66545296
C       -1.50183642      42.27164078      26.00201416
C       -5.45810747      45.13720322      24.91678810
H       -1.38487196      41.11027145      24.14779854
H       -5.51419210      46.30949783      26.70440102
H       -3.20004559      42.33606720      23.10463715
H       -3.64052701      45.20941925      27.81009674
H       -5.17353439      43.93788147      23.29122353
H       -1.82031751      43.60115814      27.61183548
H       -0.77205843      41.68147278      26.48703575
H       -6.34784508      45.54973221      24.41571808
C       13.19068623      39.52062607      12.49756718
C       13.55161476      37.57540131      17.21223068
C       12.18588924      39.03103638      13.47760105
C       14.28815842      38.49458313      16.48278427
C       12.80037880      38.41320801      14.70072079
C       14.01787663      38.87208557      15.20302105
C       12.02699280      37.44144058      15.37820244
C       14.73173618      39.90328217      14.34803390
C       14.40445518      39.85612106      12.93813229
C       12.38582802      37.06737518      16.67678642
H       12.92489147      39.54749298      11.40103626
H       13.81445885      37.29102707      18.21383667
H       11.38791847      38.28422165      13.19236565
H       15.16654396      38.94750977      16.88875580
H       11.08304691      37.08969498      14.94634247
H       15.75647163      39.65705490      14.52550507
H       15.09613705      40.23705292      12.19914532
H       11.71401978      36.36960602      17.17355728
C        0.18677013      50.51139450      13.54087067
C        1.15360522      53.10833740       9.26777267
C        0.33770797      50.15051651      12.23718834
C        1.01302898      53.43384933      10.59158611
C        0.60889626      51.09576416      11.18689537
C        0.68662161      52.47288132      11.55337811
C        0.78134418      50.78983688       9.83210278
C        0.56957150      52.79753494      12.91136265
C        0.38172585      51.86036682      13.89166737
C        0.86215168      51.78158569       8.86399460
H       -0.06197885      49.77573776      14.28131485
H        1.60493147      53.79011154       8.54731560
H        0.20800719      49.10554123      12.03413868
H        1.30672741      54.44668961      10.89107609
H        0.60422611      49.78036880       9.47791100
H        0.65299487      53.80456161      13.36156845
H        0.19775784      52.19660950      14.92678738
H        0.87983060      51.48829269       7.83259296
C       -3.55543327      37.97805023      26.80636406
C       -7.74734259      40.06779480      25.10412216
C       -4.81975698      37.55606842      26.87651634
C       -6.47129822      40.53063965      25.26215744
C       -5.84663010      38.40034866      26.40714836
C       -5.54995680      39.73093796      25.87615395
C       -7.19038582      38.06671906      26.41175270
C       -4.22532749      40.18938065      26.00672150
C       -3.26090145      39.35091019      26.40255356
C       -8.10456371      38.85699463      25.74024773
H       -2.78474021      37.41569519      27.26999283
H       -8.57561493      40.62324142      24.65771294
H       -5.14916229      36.59585190      27.23137665
H       -6.16393375      41.51660919      24.84780312
H       -7.51590538      37.14558411      26.98105049
H       -3.97916865      41.19577789      25.72553635
H       -2.25109768      39.73188400      26.42804146
H       -9.21501923      38.48992538      25.81277084
C       -7.09088564      40.36411667      21.90427208
C       -7.66043806      38.00888443      17.45471001
C       -6.76082468      40.58811951      20.57841301
C       -8.21487999      37.75319290      18.68451309
C       -7.02349806      39.74932480      19.53764915
C       -7.82079220      38.56892776      19.80356407
C       -6.58845901      39.97502899      18.22857285
C       -8.25122738      38.39519119      21.19466591
C       -7.80162287      39.21461487      22.22497368
C       -6.75652361      39.09415054      17.22149277
H       -6.63752413      41.00511932      22.60366249
H       -8.11180496      37.40607452      16.64663887
H       -6.21627569      41.54405594      20.32026863
H       -8.93976593      36.95317078      18.81603241
H       -6.02708435      40.82348251      17.94706535
H       -8.71986008      37.46955872      21.54781151
H       -8.01515579      38.97324371      23.25271988
H       -6.37001038      39.22410965      16.25943375
C        5.34000158      42.38480377      10.58330917
C        8.58163452      43.73578262      14.41453457
C        5.91992950      41.60834122      11.64855289
C        8.15880966      44.23749924      13.23238754
C        6.86828518      42.21922684      12.55055523
C        7.12866879      43.56381607      12.38068962
C        7.49624825      41.50428772      13.72552586
C        6.60625458      44.29310989      11.30983639
C        5.70992804      43.70156479      10.46821022
C        8.17300224      42.35072327      14.86786079
H        4.56823206      42.00341034       9.89557362
H        9.25616360      44.30784988      15.01965237
H        5.61192894      40.59432220      11.78254414
H        8.56056976      45.17040634      12.78864193
H        6.78467274      40.88301849      14.30913925
H        6.80914545      45.33415222      11.21567249
H        5.23886776      44.37084961       9.75672340
H        9.09212494      41.85638428      15.17531490
C       28.43610382      37.25456238      15.04332256
C       27.79735947      32.48841476      16.19674683
C       28.45270920      36.08880234      14.31505585
C       27.88028717      33.59513855      16.95578003
C       28.45489693      34.87769699      14.94579601
C       28.19688988      34.82812881      16.34851837
C       28.33187485      33.62197876      14.22389984
C       28.14811325      36.02692413      17.06713295
C       28.31680298      37.22574997      16.42505646
C       28.01468277      32.46105194      14.81605625
H       28.38780785      38.25213623      14.48872948
H       27.49904442      31.67626381      16.79807091
H       28.68334007      36.08762360      13.26173687
H       27.54100800      33.59008408      18.02294540
H       28.53308487      33.56229782      13.15295506
H      -11.71284962      36.08023453      18.13680649
H       28.26100349      38.15694427      16.99907875
H       27.89978600      31.52279472      14.28087997
C       23.46700668      55.44291306       0.49681953
C       23.61536217      53.12405777       4.96933222
C       24.51846123      54.99736786       1.29378188
C       22.63322639      53.71038818       4.26835871
C       24.27158546      54.40415192       2.54299116
C       22.88039017      54.28585815       2.98507881
C       25.24107361      53.81411743       3.36898398
C       21.86491013      54.88653946       2.13511109
C       22.15507698      55.47224426       0.89476043
C       24.89257622      53.24629974       4.54165173
H        4.87015438      55.70016861      27.99089241
H       23.36748314      52.49261856       5.85306835
H       25.59095955      55.06521225       0.92137301
H       21.62691116      53.48876190       4.55387688
H       26.35406303      53.93173599       3.16080928
H       20.80054283      54.87575150       2.37744737
H       21.30712318      55.73454666       0.27827838
H       25.68901062      52.81098175       5.09924984
C        7.13499689      31.49086189      15.89220905
C       12.26215935      31.71877098      15.52911282
C        8.09813786      30.92146683      15.11512375
C       11.35378742      32.21593094      16.46863174
C        9.48126221      31.25881958      15.24391651
C        9.91152763      32.05950546      16.33898544
C       10.42713356      30.68210411      14.35071850
C        8.86177063      32.65374374      17.18508339
C        7.56389189      32.37377167      16.91625023
C       11.76904202      30.92296219      14.49744701
H        6.10377073      31.15609169      15.73118496
H       13.32054615      31.81702232      15.72515774
H        7.83035421      30.34474945      14.22425747
H       11.95534706      32.78079224      17.22691154
H       10.08677769      30.15264320      13.44196987
H        9.23033333      33.38875961      17.86105537
H        6.79022503      32.78970718      17.58957100
H       12.42346191      30.50513649      13.74316502
C        4.21695185      47.02109909      25.98552132
C        0.19956321      48.22896194      23.18193054
C        3.17857718      47.84422684      26.19495010
C        1.44620609      47.79491425      22.87545967
C        2.21098447      48.10583878      25.16806602
C        2.43570161      47.61592484      23.84879684
C        0.94743168      48.72109985      25.44047928
C        3.58771682      46.77407455      23.67257881
C        4.40893030      46.46301651      24.71399307
C       -0.04455731      48.75935745      24.47133255
H        5.03218031      46.79005051      26.66502190
H       -0.64594096      48.15816498      22.52805519
H        3.03304720      48.29672241      27.13722992
H        1.76843941      47.27126312      21.90498161
H        0.91312271      49.12224960      26.51956940
H        3.69287896      46.40225220      22.70024300
H        5.20103884      45.69735336      24.58239937
H       -1.02867436      49.13962173      24.65942001
C       21.50144768      38.82320023      13.04515457
C       23.39855003      39.66350555       8.42426205
C       21.96844864      39.98750687      12.51390362
C       22.78378487      38.63595963       9.06413841
C       22.44024277      39.96687317      11.10393429
C       22.24178314      38.76944351      10.37686253
C       23.09787941      40.97426987      10.45118809
C       21.63605499      37.63727570      10.98040009
C       21.35794449      37.63494873      12.31414795
C       23.53463364      40.84661102       9.16516399
H       21.15831184      38.85781097      14.05045795
H       23.72327995      39.59130478       7.36353445
H       22.00599098      40.98923492      12.96292019
H       22.71779442      37.65628433       8.63375282
H       23.23458290      41.97144318      10.90852070
H       21.40184402      36.78701782      10.31646347
H       20.84241104      36.76731873      12.76227570
H       23.92096138      41.75205994       8.67258072
C       22.58000374      46.87809372       6.75209999
C       24.02770042      50.45804977       3.51471186
C       23.82131386      47.30139923       6.25175571
C       22.84701920      50.10430527       4.09756088
C       23.93758392      48.32963943       5.26044941
C       22.72933197      48.92896652       4.86283875
C       25.16702271      48.86174393       4.82037926
C       21.43689156      48.41478729       5.30641890
C       21.39347649      47.41139603       6.23550844
C       25.24341393      49.91686249       3.95901322
H       22.49214363      46.16144562       7.57582903
H       23.94347191      51.27002335       2.82167077
H       24.71694183      46.74455643       6.55234194
H       21.93642616      50.69090652       3.93287444
H       26.02743340      48.56618500       5.29640913
H       20.53488922      48.90520096       4.87744236
H       20.47504807      47.07671738       6.66169930
H       26.17924309      50.28721237       3.60745502
C       11.54524803      33.24575806      24.56642342
C        8.83509636      33.22637558      20.34747887
C       11.78983593      32.88586044      23.27031708
C        8.56838989      33.80258179      21.58948326
C       10.72895336      33.00651932      22.34998512
C        9.46778202      33.61621094      22.68832588
C       10.99720860      32.54329681      21.12278366
C        9.28485680      33.93801117      24.05759048
C       10.27179623      33.66430664      24.93223381
C       10.04628849      32.57018661      20.10292816
H       12.25816727      33.02959824      25.33164978
H        8.09031963      33.29943085      19.65077782
H       12.67599678      32.33809662      23.08166695
H        7.59913445      34.26099014      21.87226868
H       11.92352009      32.05928040      20.98832321
H        8.39586926      34.41643524      24.37592125
H       10.10663319      33.90407181      26.00482750
H       10.24213123      32.15908432      19.07870102
C        4.09405279      50.56182861      22.11858559
C        8.80145359      48.98418808      21.33306503
C        4.58961296      49.35055161      21.73195648
C        8.22672653      50.07921600      21.90822792
C        5.99388885      49.12515259      21.62853241
C        6.83454370      50.17325974      22.06802177
C        6.60107756      47.95514679      21.12281609
C        6.28529501      51.42656708      22.40695572
C        4.93018866      51.59664154      22.52366066
C        7.98932028      47.93761826      21.00173759
H        2.99405217      50.66984177      22.24048614
H        9.86460495      48.74453735      21.25322342
H        3.94380045      48.48394012      21.77993202
H        8.82946587      50.94427109      22.10696030
H        6.01753378      47.05249786      20.96901131
H        6.93686533      52.22587585      22.64706993
H        4.51951885      52.53811264      22.73984528
H        8.44878387      47.04805374      20.68284225
C       20.31302071      48.88210297      19.90420723
C       19.68601990      46.75382614      24.45318794
C       19.88784027      47.63566208      20.35783958
C       20.24514008      47.93766022      24.07280540
C       19.90544128      47.35653687      21.74120522
C       20.36343002      48.31408691      22.65324783
C       19.21967697      46.13150787      22.19223785
C       20.82428932      49.53636551      22.16085625
C       20.90027809      49.80608749      20.81799698
C       19.12881088      45.87349701      23.49405098
H       20.28934669      49.01520157      18.83323860
H       19.43023109      46.46892166      25.45698357
H       19.60721588      46.86954880      19.60814095
H       20.50186157      48.74042511      24.78111839
H       18.75820160      45.52006912      21.38450813
H       21.20630074      50.35380554      22.81888580
H       21.17522240      50.73016739      20.26951790
H       18.50944138      44.96663284      23.76850510
C       12.74220467      52.19818497      25.55939674
C       17.44543838      53.01308441      24.21567726
C       13.31713867      52.38153458      24.36152458
C       16.93427849      52.60757446      25.37376785
C       14.69190598      52.60248566      24.31021500
C       15.53658295      52.32565308      25.44029427
C       15.34363365      53.03623199      23.11705017
C       14.85125351      52.03662491      26.66261864
C       13.47498894      51.87303925      26.65539360
C       16.67244530      53.17218399      23.05333519
H       11.66000843      51.98895645      25.58984184
H       18.48922539      53.16161728      24.14418411
H       12.63921165      52.54104996      23.55147552
H       17.62519646      52.51782608      26.21714211
H       14.72682381      53.11235809      22.18604088
H       15.45270157      52.10958481      27.59893990
H       12.94068718      51.74554443      27.56992912
H       17.20364189      53.35889053      22.14106369
C       28.52109146      52.32094574       2.50236607
C       28.84628296      47.63889694       0.65631580
C       27.56542206      51.44330215       2.04530787
C       29.74447250      48.61710358       0.97282875
C       27.94847107      50.18298340       1.53656375
C       29.33681488      49.89285660       1.44359469
C       27.02906799      49.14351654       1.18001235
C       30.37272072      50.83707047       1.76507092
C       29.96869278      52.04721832       2.27912164
C       27.51290894      47.92771912       0.77752799
H       28.28811836      53.29979324       2.99106646
H       29.13948822      46.74877930       0.10985325
H       26.52630234      51.74997330       2.03197837
H       30.82565308      48.49703217       0.99235290
H       26.04205704      49.44156647       1.30367005
H       31.42083168      50.59165192       1.53204048
H       30.75717735      52.69889832       2.66751647
H       26.88522339      47.07287216       0.57447261
C       -1.27487028      34.43931961       6.03571224
C       -1.28877473      38.77342987       8.45835781
C       -1.52364433      35.69306946       5.61571121
C       -1.33413386      37.53985977       8.89298153
C       -1.53787982      36.75067902       6.56856728
C       -1.33741224      36.46163559       7.93154049
C       -1.57838368      38.15797043       6.14937687
C       -1.36455631      35.11782837       8.33246994
C       -1.23114431      34.10266113       7.41534948
C       -1.37539017      39.12258530       7.04170990
H       -1.14782047      33.63548279       5.37442684
H       -1.34929740      39.64976120       9.05933285
H       -1.65738821      35.88454437       4.55403423
H       -1.40216732      37.26482010       9.94029331
H       -1.71246028      38.44466782       5.12265253
H       -1.43610799      34.87171936       9.36815834
H       -1.22801113      33.02410507       7.71611738
H       -1.36154377      40.22465515       6.91415358
C        3.97977519      52.14667892      13.40401268
C        3.51177359      55.98558426      10.16976833
C        3.45906425      53.41416168      13.45291519
C        4.05120754      54.75342941      10.08419037
C        3.41412830      54.33182144      12.39449978
C        4.00827503      53.89991379      11.19347382
C        2.88886833      55.60948181      12.45691872
C        4.43049383      52.55902481      11.05850601
C        4.44065619      51.69076157      12.13369083
C        2.88586974      56.42878723      11.36007690
H        4.05663967      51.52020264      14.30099964
H        3.53296757      56.59431458       9.27804089
H        2.88937473      53.72987366      14.30642700
H        4.36317825      54.44799042       9.14027309
H        2.29121375      55.87698364      13.32101631
H        4.60570765      52.13306427      10.05854416
H        4.79943991      50.65562820      12.01793480
H        2.45463204      57.49052048      11.47685528
C       11.35649014      57.55181503      13.12199402
C        9.85643578      58.76778030      17.74694824
C       11.64538479      56.99244690      14.34668922
C        9.61421013       0.33697245      16.49288559
C       11.12277222      57.61104965      15.53877926
C       10.28908253      58.72292709      15.37009716
C       11.51809216      57.22141647      16.86770058
C       10.06540966       0.36282519      14.09445763
C       10.56363869      58.71224976      12.95372200
C       10.95409203      57.88786316      17.93874741
H       11.66291428      56.96448135      12.27295208
H        9.38960361       0.14173572      18.67444038
H       12.08749294      56.02011871      14.43623257
H        8.83265591       1.11457515      16.39793015
H       12.34479237      56.51496124      16.91098404
H        9.47506523       1.22462428      14.04487133
H       10.25443077       0.13389905      11.93504524
H       11.25543022      57.47977829      18.91086578
C       -7.02786064      56.44021988      24.55212975
C       -9.51863003      52.79104996      26.78661537
C       -6.61399269      55.43441391      25.40461731
C       -9.84163475      53.76697540      25.87410736
C       -7.56585073      54.47780609      25.74928856
C       -8.93448925      54.67159653      25.29976273
C       -7.23898888      53.35628510      26.51656532
C       -9.30324364      55.77239990      24.58762932
C       -8.33359337      56.63492584      24.20024109
C       -8.15120316      52.52282715      27.00719070
H       -6.30866528      57.23457718      24.29699516
H      -10.25037670      52.19153976      27.30953407
H       -5.58003616      55.21003342      25.67508888
H      -10.88818264      53.92079544      25.65917015
H       -6.27326441      53.04759216      26.79260254
H      -10.30577564      55.94544220      24.37964821
H       -8.71195889      57.45337296      23.54706764
H       -7.72499037      51.71489334      27.67207909
C        2.82131600      44.13652039      27.45175934
C        6.91782284      41.43269348      28.44438362
C        4.06983185      44.44370651      27.84038734
C        5.67190742      41.06907654      28.04581070
C        5.10325146      43.39222336      27.97713661
C        4.73559618      42.07118225      27.74726677
C        6.43646574      43.74765015      28.26716232
C        3.47572112      41.80964661      27.18692207
C        2.54268432      42.79932785      27.07265663
C        7.34508371      42.76327515      28.51305199
H        2.07091713      44.97130585      27.30808640
H       26.41396332      40.63132858       0.03324203
H        4.41633654      45.51605988      28.00466919
H        5.42547131      39.99650574      28.03957176
H        6.67645693      44.79237747      28.30310249
H        3.13693213      40.78810120      26.85312271
H        1.61491430      42.52250290      26.62733841
H       27.12839317      43.07094574       0.26363674
C       15.09037304      40.85114670       8.51686859
C       18.78606987      40.45005417      11.84942436
C       15.86378384      39.80202866       8.89618397
C       17.91875267      41.46759415      11.50922966
C       16.85849762      40.00270844       9.83795357
C       16.94880486      41.25347137      10.51332951
C       17.73056984      38.99456024      10.24100018
C       16.13616562      42.35174561      10.07155132
C       15.12914944      42.13629150       9.12868309
C       18.70718193      39.24139023      11.16443920
H       14.43468189      40.77652359       7.68085623
H       19.60116005      40.73628998      12.52647305
H       15.72446537      38.87117386       8.36979198
H       18.00839043      42.50933075      11.76457691
H       17.82249260      37.98571014       9.90022373
H       16.37861824      43.36864853      10.41654110
H       14.47886276      42.92513275       8.85158253
H       19.29427528      38.33148956      11.43918800
C       23.55552673      28.19734383      13.57951927
C       21.55635071      30.83374214      17.41934967
C       22.94177437      27.84784889      14.73511791
C       21.91886902      31.19829750      16.16452599
C       22.47445679      28.83912849      15.68974495
C       22.48212814      30.18007660      15.23584747
C       22.09492493      28.49443436      17.01162338
C       22.98898125      30.50240326      13.95628166
C       23.50533676      29.54323196      13.10901070
C       21.64576721      29.47796440      17.84973526
H       23.89345932      27.42298889      13.01640987
H       21.04690361      31.52598190      18.07679749
H       23.03608131      26.84169960      15.02668381
H       21.89017868      32.24150085      16.00923347
H       22.15704918      27.50997734      17.44869614
H       22.90943336      31.51387978      13.56976604
H       23.89002609      29.73677635      12.09392929
H       21.37899017      29.16023636      18.90081596
C        0.34270757      37.99859238       1.26114368
C        2.55556512      34.26502609       3.74102211
C        0.89622045      36.82019424       0.85858226
C        1.78571904      35.31219482       4.19543171
C        1.40493643      35.89645004       1.79808545
C        1.17358172      36.15276718       3.16462922
C        2.21219873      34.76484680       1.44901168
C        0.61205351      37.30529785       3.61781812
C        0.15194534      38.20507050       2.67167878
C        2.78022027      33.98002243       2.37275743
H        0.06258557      38.76062393       0.63133037
H        3.12462974      33.64525604       4.44993353
H      -17.75892448      36.55683517      28.36641502
H        1.63196886      35.59082413       5.22187281
H        2.53658438      34.63925171       0.46918690
H        0.44862762      37.44874954       4.69187737
H       -0.18354200      39.15567780       2.96422100
H        3.53796315      33.23246002       2.01941204
C        6.09438324      54.51692200       7.00142050
C        1.14505017      54.70398712       5.87918138
C        5.10060501      53.64974213       6.66187954
C        2.07899523      55.69872284       6.30071497
C        3.76652455      54.00447845       6.50884819
C        3.41742921      55.36154175       6.57621288
C        2.81222153      53.04489899       6.11548948
C        4.43825579      56.26901245       7.01118135
C        5.75487757      55.87309647       7.28931999
C        1.52796817      53.34529114       5.92939186
H        7.09777784      54.22547150       7.07531834
H        0.14669073      54.92416382       5.60949755
H        5.38551188      52.62727356       6.41366959
H        1.88263011      56.77246475       6.18837023
H        3.16813779      52.05618668       5.92610407
H        4.10427999      57.31646347       7.15068436
H        6.51652241      56.59186554       7.56341839
H        0.77173471      52.52830124       5.83736086
C       10.87747383      46.84305191       3.78428817
C       15.38979816      48.92284775       4.64065552
C       11.49367905      47.98553467       3.35470629
C       14.73817539      47.82062149       5.16283655
C       12.81379604      48.30253220       3.83277631
C       13.47115040      47.42308426       4.64644337
C       13.45570278      49.51577377       3.38813281
C       12.76898575      46.31362152       5.17523766
C       11.49151325      46.01340866       4.74000406
C       14.71717358      49.79269409       3.76004601
H        9.92995453      46.57174683       3.39493704
H       16.46643639      49.00928879       4.86521244
H       11.03831387      48.63475418       2.61227107
H       15.30407143      47.25783920       5.87127352
H       12.93259239      50.09535980       2.63294840
H       13.19427967      45.62211990       5.86444807
H       10.81202793      45.26086044       5.22043610
H       15.19819641      50.71091843       3.40346789
C       17.33473778      57.30466461      11.79716873
C       18.40001297      58.30481720      16.66481781
C       17.67031097      58.42615509      12.51719761
C       18.25994301      57.12214661      15.94361305
C       17.86160278      58.43805695      13.94018841
C       17.95976257      57.13866043      14.53156376
C       18.08185959       0.70965719      14.66017818
C       17.66867828      56.00538254      13.72871780
C       17.29338646      56.05614090      12.41903496
C       18.30727196       0.65244079      15.99635983
H       17.17538452      57.27980804      10.71217537
H       18.63895798      58.32018661      17.74413681
H       17.75228882       0.40473649      11.98617935
H       18.28948784      56.15377045      16.39084816
H       18.09295654       1.67533135      14.19452667
H       17.66128349      55.09131622      14.29427814
H       17.02682686      55.18333435      11.83200455
H       18.45404053       1.56114876      16.62877846
C       -7.50217199      55.03965378      17.69747925
C      -11.62500858      55.81777191      20.39491844
C       -7.80299187      54.87700653      19.00777245
C      -11.41437912      55.91362762      19.05625916
C       -9.06029797      55.21409988      19.43808937
C      -10.04984283      55.67849350      18.54141426
C       -9.34270763      55.22339249      20.83615875
C       -9.70060921      55.89142990      17.16457367
C       -8.38172150      55.66367722      16.81407547
C      -10.61169338      55.43549347      21.32478905
H       -6.49322081      54.75719070      17.46071815
H      -12.68027973      56.08419037      20.72614479
H       -7.08777857      54.37741089      19.61975670
H       27.57837105      56.21943283      18.33150291
H       -8.56297016      55.07806778      21.59195328
H      -10.50023460      56.32339096      16.58127213
H       -8.08648109      56.02941513      15.86236382
H      -10.76355076      55.35624695      22.34277725
C       -3.42889524      38.65662003      23.03907585
C       -1.47137284      34.45981216      21.01966476
C       -2.48347902      38.37026215      22.17526245
C       -2.33455968      34.71236038      21.96268082
C       -2.16943431      37.10078430      21.70986557
C       -2.67911339      36.01803970      22.36358452
C       -1.19993973      36.84674454      20.70477486
C       -3.70050240      36.25875854      23.35018158
C       -4.13214636      37.54130554      23.64272308
C       -0.91804790      35.57358551      20.34499741
H       -3.78974342      39.70417404      23.24113464
H       -1.20150614      33.45616913      20.76080513
H       -1.92213571      39.18114471      21.63728714
H       -2.90066910      33.99373245      22.53970909
H       -0.75497860      37.70767212      20.32511902
H       -4.13648224      35.46128845      23.90768051
H       -4.90662003      37.70047379      24.41192245
H       -0.20251156      35.34631729      19.56849670
C        7.00172853      47.36205292      13.22866249
C       11.50949955      47.82505798      15.21918106
C        8.25286007      47.34704971      12.71467590
C       10.26777267      47.55412292      15.76894569
C        9.34564114      47.45590973      13.54216003
C        9.17400169      47.43448257      14.90847778
C       10.71312046      47.70429993      13.03281784
C        7.89738035      47.32047653      15.44642067
C        6.80011225      47.38753891      14.65306091
C       11.73247051      47.90482330      13.89327240
H        6.17047453      47.24537659      12.64115524
H       12.29812717      48.17126846      15.85456276
H        8.41678524      47.31520844      11.65779591
H       10.20332146      47.71051407      16.83202171
H       10.91332340      47.82399750      11.92734909
H        7.83871603      47.32734299      16.53692055
H        5.78524590      47.47444153      15.08697510
H       12.61755657      48.35226440      13.53137779
C      -13.88879204      45.41157913      24.47120857
C       -9.25029850      44.23891067      22.70044327
C      -13.11026859      44.23908234      24.41025925
C      -10.08986759      45.30031586      22.47362518
C      -11.85821629      44.23805618      23.76837921
C      -11.39201069      45.34161377      23.09046745
C      -11.00440311      43.08720398      23.83785248
C      -12.15356541      46.50387192      23.12317848
C      -13.33850193      46.55388260      23.84263229
C       -9.73570919      43.13553619      23.42057228
H      -14.81868839      45.30320740      25.05608940
H       -8.19304466      44.15363693      22.48229218
H      -13.44447327      43.33060455      24.86544037
H       -9.77994537      46.22208023      21.92366028
H      -11.39479256      42.16843796      24.28629303
H      -11.78700733      47.36433792      22.56615639
H      -13.94700336      47.44549942      24.11276054
H       -9.01341724      42.37082291      23.67400932
C       28.95784378      43.03426361       8.68087578
C       28.88642883      40.74156952      13.08635807
C       28.46508217      43.37100983       9.85871315
C       29.02917099      40.20262909      11.88484097
C       28.45046997      42.48146057      10.92328739
C       28.86771774      41.11243057      10.70999432
C       28.28993034      42.92764664      12.22773647
C       29.26941872      40.76601791       9.47098351
C       29.39163399      41.68808365       8.43565845
C       28.57340813      42.13878632      13.32056713
H       29.21269417      43.79626465       7.97703314
H       29.00007820      40.09893036      14.01686573
H       28.27364922      44.39101410      10.13592434
H       29.13015938      39.13525009      11.75863552
H       28.03883934      43.93827057      12.40616989
H       29.68633842      39.78161621       9.21866894
H       29.83595657      41.32427597       7.53835487
H       28.54642868      42.57437515      14.32817554
C       33.28947830      43.72315216       4.71601772
C       28.30926704      43.93421936       5.57428551
C       32.46438217      44.66302109       5.33293676
C       29.09220696      42.89218140       5.24810886
C       31.06902504      44.40130234       5.56030893
C       30.53117561      43.12057114       5.16363430
C       30.20974731      45.34267044       6.12202835
C       31.45705795      42.12470627       4.74161386
C       32.79405594      42.42075348       4.54354239
C       28.84610558      45.16327667       5.97826910
H       34.26446152      43.95153046       4.37379217
H       27.25846863      43.96282959       5.61774492
H       32.94655991      45.55705643       5.61942530
H       28.71896744      41.88836288       4.97127104
H       30.61811829      46.21420670       6.59123325
H       31.00840569      41.17129517       4.53423929
H       33.38271332      41.62070847       4.07847214
H       28.09055138      45.81419373       6.38411188
C       18.43668938      53.88376236       3.71572065
C       15.67560291      54.73237991       7.83524799
C       18.53006172      54.72943878       4.71663475
C       15.69019222      53.77341843       6.88898849
C       17.49905205      54.89186859       5.70102739
C       16.48038483      53.90353012       5.73433781
C       17.42057991      55.96268463       6.66476107
C       16.42606926      52.96068573       4.64917374
C       17.37506866      52.99787140       3.67597032
C       16.59930038      55.83043289       7.73183346
H       19.16742325      53.85235977       2.89975595
H       15.23593044      54.52841568       8.73949051
H       19.29125214      55.47676468       4.78162146
H       15.00760651      52.93870544       6.98593855
H       18.18592644      56.77469635       6.67693567
H       15.65109539      52.21730423       4.55113220
H       17.37079430      52.27758408       2.86072874
H       16.55566788      56.63695908       8.46478844
C        2.45693564      31.03507423      24.36571884
C       -0.62384391      31.34816360      20.44977760
C        2.72504973      31.00176811      23.05300522
C       -0.81727493      31.32023048      21.80577278
C        1.58230352      31.03215981      22.16687965
C        0.24283248      31.18287849      22.71670532
C        1.74193823      30.99304008      20.76996422
C        0.13346340      31.39327812      24.12740326
C        1.19441772      31.33952522      24.92593575
C        0.69964099      31.16958237      19.91595650
H        3.33041883      30.88013649      25.05481338
H       -1.43703210      31.63510323      19.79548645
H        3.61642003      30.68614769      22.63805199
H       -1.76705754      31.63905525      22.12686920
H        2.78160167      30.93921661      20.42884064
H       -0.74587005      31.81944084      24.53722382
H        1.12278831      31.55581474      25.99913406
H        0.77018446      31.12872124      18.83123398
C       11.40114784      46.06835175      26.24275970
C       12.65853691      41.26726913      27.21562195
C       12.70741653      45.48510361      26.76937294
C       11.55908966      41.94385529      26.90300369
C       12.75659752      44.14905167      26.82972717
C       11.46601105      43.38460159      26.43177795
C       13.89244175      43.37023926      27.22880745
C       10.18014431      44.08704758      26.84677887
C       10.18072414      45.38629913      26.78067780
C       13.88428497      42.02608490      27.39835167
H       11.36289215      47.15214539      26.40761375
H       12.68201065      40.23709106      27.49110794
H       13.49659920      46.16248322      26.98401260
H       10.64918041      41.36609650      27.01207161
H       14.81293774      43.98652267      27.42383194
H        9.39748955      43.32838440      26.90198517
H        9.28322983      46.00398636      26.97543144
H       14.74895000      41.43990326      27.69452477
C       17.40453720       0.29482284       4.53181410
C       18.32591057      55.91463089       0.83118254
C       16.93622208      57.96960449       4.24229956
C       18.95628929      57.05572891       1.21921766
C       17.33021927      57.27504730       3.06115365
C       18.47995567      57.79630661       2.34651017
C       16.70455551      56.06366730       2.62173390
C       18.94962692       0.17384487       2.63956475
C       18.38769722       0.89749438       3.68757200
C       17.19795799      55.38823318       1.53333366
H       16.97236443       0.77750158       5.43271255
H       18.76255608      55.32351303       0.02690202
H       16.11681175      57.47853851       4.71667767
H       19.81312942      57.26772690       0.59567356
H       15.84885311      55.63884735       3.09847236
H       19.73557472       0.54308277       1.96256602
H       18.70977974       1.89113355       3.99192333
H       16.68852425      54.45724487       1.29333723
C       26.08475494      45.49565887      11.00103760
C       21.68103790      47.65645981      10.18860912
C       25.58266449      46.66831589      11.27383804
C       22.06299210      46.37614822       9.92618847
C       24.22789955      47.01069260      10.93922138
C       23.42141151      46.01614761      10.33362007
C       23.80403137      48.38335419      11.09582520
C       23.93859863      44.69251251      10.24254417
C       25.23155975      44.42614365      10.53660297
C       22.48948479      48.66263962      10.88845634
H       27.07504082      45.19510269      11.31477070
H       20.65474319      47.94956970      10.01350403
H       26.20513916      47.48429489      11.70485020
H       21.45839310      45.55771637       9.52194309
H       24.49330139      49.05886841      11.55362511
H       23.17846107      43.96564102       9.91739368
H       25.50162888      43.39149475      10.34735775
H       22.00928879      49.60762787      11.19119263
C       25.61359406      44.86479950      14.66752148
C       25.98735619      39.82008362      14.65146446
C       25.19103241      43.92472076      13.80729580
C       26.16162872      40.76479340      15.62124920
C       25.39777374      42.55838776      14.11999798
C       25.95564079      42.10832977      15.33895874
C       25.11452675      41.52637100      13.15578175
C       26.17156029      43.11471939      16.32042313
C       26.04389191      44.45659637      15.99172878
C       25.44291306      40.22573090      13.43551350
H       25.60841370      45.87607574      14.34589481
H       26.18572426      38.75928497      14.83287239
H       24.66591263      44.24628448      12.90747261
H       26.55844879      40.58342743      16.61804962
H       24.75453377      41.75888062      12.17870045
H       26.59493446      42.85362625      17.31226921
H       26.40812683      45.21566010      16.64891624
H       25.13394356      39.52331543      12.71254253
C        4.86521673      49.35662460       4.11195707
C        3.84756660      44.63295364       2.53737974
C        3.70234132      48.61479950       4.04885578
C        5.01225662      45.36319733       2.61872196
C        3.78374362      47.33091736       3.45736003
C        5.05792427      46.70435333       3.13759089
C        2.65703130      46.58070755       3.31131864
C        6.21137667      47.42356491       3.39768815
C        6.10079384      48.73734283       3.89137197
C        2.66271329      45.29301071       2.88085198
H        4.87860584      50.36284637       4.49387741
H        3.90876961      43.55392456       2.28136420
H        2.78154349      49.12524796       4.12104177
H        6.02507877      44.87588501       2.45154619
H        1.70118535      47.09630203       3.57639503
H        7.23576021      47.05765152       3.39273620
H        7.01596451      49.29980850       4.09093761
H        1.72578132      44.80125427       2.86502290
C       11.05812263      46.61480713       8.50683880
C        7.70908499      49.62611389      10.66259861
C        9.70649147      46.55727386       8.61419010
C        9.04238319      49.68805313      10.55620670
C        9.01571083      47.61746597       9.27459431
C        9.72631645      48.73545456       9.83086681
C        7.63177252      47.56581879       9.38414764
C       11.13024426      48.78649902       9.58320045
C       11.79090595      47.75701141       9.00354576
C        6.97190523      48.55059433      10.07056618
H       11.68640423      45.77611542       8.20426083
H        7.17589283      50.31378555      11.30199528
H        9.23932838      45.56121826       8.36211014
H        9.61670208      50.49435806      11.00465775
H        7.12029600      46.71553421       8.84470749
H       11.61221790      49.57796478      10.11071587
H       12.83355618      47.86202621       8.77637100
H        5.94381905      48.64442444      10.11296558
C       -9.41011906      56.31439590      28.13853836
C        9.31527233       0.09563015       3.95804024
C       10.13146877      57.28765106       0.15349135
C        8.40888119      58.20367432       3.34544659
C        9.84881687      57.95948410       1.38141680
C        8.64101315      57.62217331       2.02537465
C       10.72046280       0.00759739       1.95761454
C        7.73751402      56.77721405       1.34056389
C        8.05526733      56.15925217       0.19800289
C       10.50500107       0.48687768       3.23440290
H       -9.04458523      55.67579269      27.37770462
H        8.98932934       0.42532113       4.93983269
H       -7.81133699      57.66505051      28.21657181
H        7.42848587      57.99463654       3.83275199
H       11.53677940       0.35852227       1.31173337
H        6.80702543      56.67807770       1.86836886
H      -11.52104664      55.57221985      28.21170425
H       11.11191940       1.30882359       3.59462500
C        8.62818432      48.58007431       0.69979697
C      -14.43114090      49.18903351      26.58589554
C        8.07128143      49.68527985       0.05516937
C      -13.77974606      48.15356827      27.19495010
C      -11.96910954      49.55981064      27.93167496
C      -12.58753586      48.28308105      27.94593620
C      -12.67625523      50.56858826      27.25437737
C        6.74696493      47.14910126       0.12877481
C        7.92385149      47.27040100       0.78736365
C      -13.87909698      50.47031403      26.64174843
H        9.60441685      48.60278702       1.03533816
H      -15.43846130      49.03836060      26.11515999
H        8.65171242      50.62230682       0.03883573
H      -14.23821068      47.19498444      27.19005775
H      -12.17645264      51.57534409      27.28743172
H        6.13905668      46.26829910       0.21907467
H        8.32742977      46.47599030       1.37002814
H      -14.29908752      51.36316681      26.11285400
C        3.33863568      34.84725571      13.11830616
C        3.60611105      33.73435593      17.97166634
C        2.84520054      35.38897324      14.26518631
C        4.16656446      33.17036057      16.87592316
C        3.13146043      34.86769867      15.48184490
C        3.97122192      33.78652954      15.60982513
C        2.63986206      35.51923752      16.67465401
C        4.52861071      33.22469330      14.38471127
C        4.15881348      33.74345398      13.16575813
C        2.83719420      34.95442581      17.86804581
H        3.22320914      35.39319992      12.14233398
H        3.65957499      33.19805145      18.90599823
H        2.32277083      36.33805466      14.22231483
H        4.84378815      32.35216904      17.04340935
H        1.94480670      36.33537292      16.44870377
H        5.07686806      32.31568909      14.35385704
H        4.54628849      33.29167175      12.27213669
H        2.44401622      35.39924622      18.79534531
C        8.24709415      34.35375214       5.29943466
C        7.03912258      33.11796570       0.62903428
C        8.81248379      33.53087616       4.38430738
C        6.57115555      34.03045654       1.50618958
C        8.30512714      33.33781433       3.12043691
C        7.15051270      34.10928345       2.77546096
C        8.67265606      32.28522873       2.19671035
C        6.69076061      34.99749374       3.71172905
C        7.12797070      35.15395355       5.00444698
C        8.05100822      32.15254974       1.04035282
H        8.66975307      34.34502411       6.25547266
H      -12.14189911      33.02108002      28.12170029
H        9.59298515      32.82868195       4.75273037
H        5.71701384      34.71766663       1.29809940
H        9.33709717      31.59853363       2.62102747
H        5.84011173      35.64242935       3.45070553
H        6.75807810      35.92576981       5.59561014
H        8.32545567      31.37129784       0.39726907
C       21.24810219      47.77518082      27.88637161
C       -0.42369843      42.98058319       0.76925874
C       20.17912483      46.98789597      28.01724434
C        0.70010769      43.69102097       0.53944468
C       20.28594971      45.62986755      28.47690964
C        0.58323979      45.06761169       0.21301244
C       37.96641159      44.75320435       0.04964940
C        1.67785001      45.97143555       0.13819803
C      -17.24582672      47.27429199      28.23131180
C       38.10854340      43.44244385       0.40613574
H       21.17586517      48.82292557      27.67293549
H       -0.34674457      42.00648880       1.14551866
H       19.15084457      47.31427002      27.75152016
H        1.62799108      43.22645187       0.82373953
H       18.14318466      45.05746460      28.32296562
H        2.71788812      45.60616684       0.25785384
H      -16.36800766      47.93840027      28.08979607
H       37.24031067      42.80646515       0.29484919
C       -4.74629545      41.53510284      10.57029533
C       -6.91648912      38.69837189      14.06907272
C       -5.39211273      41.84210205      11.72250462
C       -5.87329292      38.48202515      13.22266388
C       -5.83228493      40.83787155      12.65123940
C       -5.35868692      39.57339096      12.41627979
C       -6.82834291      41.08499146      13.69113350
C       -4.59129858      39.24534607      11.28092480
C       -4.31119394      40.19429398      10.39308834
C       -7.40720463      39.96910858      14.24780464
H       -4.58314800      42.25598526       9.79197216
H       -7.40639544      37.81617737      14.59525681
H       -5.87387514      42.80200577      11.80992985
H       -5.43993473      37.47891998      13.22266960
H       -7.20208550      42.08124161      13.96448898
H       -4.25419617      38.24326706      11.11914062
H       -3.75705147      39.96200180       9.48089123
H       -8.19233894      40.06173706      14.98500252
C        8.41663456      35.65389633      15.79889679
C        4.57294035      38.18990707      13.74221706
C        8.21366405      36.19606018      14.59708118
C        4.82974863      37.72848511      15.01127529
C        7.02863216      36.95059967      14.34090137
C        6.00268841      36.98488998      15.33213902
C        6.80059338      37.57480621      13.09253311
C        6.30761957      36.42334366      16.60684204
C        7.53592634      35.89538193      16.88828468
C        5.59455252      38.07751083      12.68363285
H        9.32214069      35.15137863      16.04238701
H        3.72694588      38.81764603      13.54477787
H        8.98471355      35.97398376      13.80241776
H        4.01001215      37.79840088      15.72518253
H        7.60810328      37.51272202      12.36123466
H        5.49268675      36.40106583      17.38784599
H        7.80997562      35.43333054      17.93541336
H        5.48856878      38.46426773      11.65693951
C       32.84916306      40.79975510       7.93269777
C       31.59374046      44.16321564      11.39543056
C       32.94551849      42.13307190       7.94455814
C       31.50508881      42.79939270      11.29586411
C       32.50283051      42.84628677       9.11419106
C       31.98838234      42.11805725      10.16700077
C       32.50053787      44.28522491       9.14035892
C       32.04682159      40.65472031      10.14334583
C       32.53127289      40.02573776       9.06747532
C       32.13760376      44.87128830      10.29751015
H       33.00234222      40.24399185       6.99817228
H       31.06128120      44.72870636      12.12826920
H       33.20733261      42.73961639       7.15251827
H       30.96951485      42.20201111      12.05727291
H       32.97842026      44.73712158       8.32029343
H       31.80066872      40.03795624      11.02186203
H       32.50869751      38.96207428       8.95991230
H       32.20474243      45.97007370      10.34722233
C       -5.42130423      29.23698807      24.74179840
C       -5.65587997      34.12133408      25.70012665
C       -4.50113869      30.21789932      24.91704559
C       -6.57018805      33.15846634      25.52382278
C       -4.81991959      31.50215530      25.37334251
C       -6.20699692      31.81240273      25.47843552
C       -3.91025591      32.48374939      25.56314850
C       -7.20571661      30.74073219      25.31607819
C       -6.76812744      29.48200226      24.89343262
C       -4.28703213      33.79225540      25.73525810
H       -4.95617056      28.37215042      24.34777069
H       -5.97780228      35.17843246      25.75299835
H       -3.44511890      29.93376541      24.74444580
H       -7.66061211      33.30406952      25.50944328
H       -2.88942432      32.21416473      25.31288147
H       -8.27063274      30.91284752      25.52284813
H       -7.54072475      28.71510696      24.88230133
H       -3.52937388      34.50425720      25.84278107
C       -6.63439322      53.43534470      14.78769112
C       -6.32740355      54.11708069       9.80936050
C       -7.18284559      54.33845139      13.92903328
C       -5.72650146      53.28143311      10.67745495
C       -6.87196684      54.32335663      12.57117844
C       -5.90927172      53.44899368      12.08894348
C       -7.52761126      55.26132584      11.58824635
C       -5.40613556      52.45550919      12.93739223
C       -5.82189131      52.42107773      14.24427605
C       32.60596085      55.17847061      10.26631832
H       -6.84523010      53.34458160      15.82114315
H       33.71949768      53.98923874       8.77337551
H       -7.95375681      55.00080109      14.27096176
H       -5.10167217      52.50011826      10.31720734
H       31.44634056      55.95531464      11.85402870
H       -4.79797029      51.63658142      12.53942013
H       -5.55456400      51.61866379      14.90176487
H       32.10310364      55.81594086       9.55405521
C      -14.80832863      36.88034821      26.21725464
C      -11.24301624      39.73236847      23.99494934
C      -13.98897648      36.73479843      25.11598015
C      -11.97453117      39.87685394      25.09094810
C      -13.21686745      37.81521225      24.60409737
C      -13.09979725      38.98292541      25.37438774
C      -12.47959232      37.80583954      23.38598824
C      -13.91871738      39.06482315      26.57495689
C      -14.83971787      38.10984039      26.91700745
C      -11.59412575      38.75591278      23.09413147
H      -15.34955215      36.00831604      26.61589050
H      -10.39312553      40.34589005      23.71870613
H      -14.02921200      35.88049698      24.42919350
H      -11.66084671      40.64382172      25.87574196
H      -12.70063019      36.97209930      22.72631645
H      -14.04233837      39.97900009      27.18918610
H      -15.55187893      38.28514099      27.69095421
H      -11.01542950      38.73652267      22.19990349
C      -14.53592968      40.90797806      22.10693550
C      -12.23516273      44.41210938      19.21622086
C      -14.44768143      42.27611923      22.19169044
C      -12.11549473      43.10171509      19.33231354
C      -13.75734234      43.06685638      21.18888664
C      -12.96839428      42.37115097      20.26176453
C      -13.81696033      44.45019531      21.08804131
C      -13.00640011      40.99381638      20.25973701
C      -13.78049946      40.19574738      21.14062881
C      -13.08232117      45.14981842      20.16172981
H       24.60667992      40.24240112      22.69029808
H      -11.74546623      45.00987244      18.42657471
H      -15.00443268      42.82602310      22.94817924
H      -11.61624146      42.50770950      18.56661797
H       25.34693527      45.00910950      21.82671165
H      -12.41562653      40.51875305      19.53823853
H      -13.77514267      39.13465881      21.08296013
H      -12.99516296      46.22401428      20.17407036
C        4.96199083      42.85730362      23.39797592
C        8.79163265      39.58515930      23.67766953
C        5.58292675      41.92017364      22.51049232
C        7.99893522      40.11896896      24.80675697
C        6.68017054      41.17547226      22.90571022
C        7.03361416      41.21961594      24.27058601
C        7.39348745      40.48283005      21.89792442
C        6.47166538      42.16474533      25.09518433
C        5.48635292      43.07962799      24.61781883
C        8.42787075      39.70429611      22.33611107
H        4.10442162      43.41744232      23.04684639
H        9.68808460      39.00404358      23.96142578
H        5.13531399      41.75762177      21.54847717
H        8.76537228      40.58827972      25.47680664
H        7.08635473      40.46029282      20.90380096
H        6.78949118      42.07103348      26.17652702
H        5.08058739      43.80340958      25.29297638
H        8.99801826      39.12797546      21.59903526
C        3.81071544      39.39868927      23.98132706
C        8.21913338      36.96334076      24.95073128
C        4.89394999      39.60549164      24.83693886
C        7.29321575      36.86154938      23.95404816
C        6.01528549      38.71971512      24.78284073
C        6.09571218      37.65697098      23.90505409
C        7.16793919      39.06433105      25.64634514
C        4.93960857      37.47388077      23.09667015
C        3.85116148      38.28044891      23.15825844
C        7.91831255      37.84852982      26.11623001
H        2.99532485      40.09825134      24.01111603
H        9.21207523      36.49042511      24.89550781
H        4.91390753      40.57044983      25.46295929
H        7.51616049      36.15929413      23.10818481
H        6.84461021      39.58337784      26.61410332
H        4.93189907      36.64465332      22.41544151
H        3.11050630      38.11618805      22.40710449
H        8.78448868      38.22202683      26.66483688
C       17.31345177      41.17329788       0.45610487
C       21.73995590      38.86841202       0.92897457
C       18.57910156      41.66114807       0.72879279
C       20.44642448      38.48136520       0.69525856
C       19.66272736      40.74476242       0.89947814
C       19.36831665      39.36297607       0.75584191
C       20.99608231      41.12440872       1.23246837
C       18.01953506      38.89609528       0.48158193
C       17.00473404      39.77990341       0.42400074
C       22.01367378      40.20949173       1.26667368
H       16.49835587      41.81698990       0.19390440
H       22.49731064      38.10358429       0.89867091
H       18.83680153      42.72121048       0.73280931
H       20.15443230      37.46681595       0.44482285
H       21.22572708      42.16644287       1.46063626
H       17.74933052      37.83861923       0.44530323
H       16.05377769      39.37430191       0.10909027
H       23.04421234      40.43529129       1.45331490
C       19.24054909      30.45419693      22.05626678
C       18.43295097      31.72176361      17.37742233
C       18.88169098      31.61285210      21.43946648
C       18.78539276      30.59018326      17.99188042
C       18.52892876      31.67549515      20.13257408
C       18.81329918      30.45195580      19.39204025
C       18.13595200      32.88307190      19.44413948
C       19.09655952      29.24741364      20.00825310
C       19.19696999      29.17346954      21.35297585
C       18.12827110      32.93700790      18.08704185
H       19.51763153      30.59819412      23.12257957
H       18.60939980      31.77155113      16.30705833
H       18.83539200      32.49119186      22.04558754
H       18.96955109      29.75625992      17.32814217
H       17.95650673      33.73642731      20.10780334
H       18.91438675      28.34440231      19.33945465
H       19.26524162      28.25959396      21.91354561
H       17.86688042      33.78660584      17.55702972
C        0.74861521      45.16370773      25.28497505
C       -2.04763603      44.67719269      21.13901520
C       -0.52131605      45.53157806      24.97858238
C       -0.83975798      44.18493271      21.53712273
C       -1.07599795      45.17186356      23.73361969
C       -0.24329565      44.48696136      22.79548073
C       -2.36895871      45.63922882      23.35365295
C        1.01564991      44.02175903      23.18633270
C        1.48549581      44.29443741      24.45691872
C       -2.79863358      45.43678284      22.03873062
H        1.10487115      45.57049942      26.20948410
H       -2.39866972      44.45927811      20.16777802
H       -1.06089723      46.12771606      25.67106056
H       -0.18692586      43.59555435      20.86907196
H       -2.94177556      46.23342133      24.10577011
H        1.51647699      43.18612289      22.59116554
H        2.46363544      43.96233368      24.80365562
H       -3.80165577      45.82185364      21.70392418
C        3.60218167      39.19712830      19.25953484
C        4.68177652      34.62361145      20.94727707
C        2.84877658      38.22581482      19.89645386
C        5.39696264      35.62157440      20.28312111
C        3.46937776      36.99631119      20.21855927
C        4.85151196      36.84221649      19.93239594
C        2.70260382      36.03384781      20.87544823
C        5.59295893      37.94006348      19.52472687
C        4.98616743      39.10400009      19.11765671
C        3.33601189      34.83763504      21.24422646
H        3.11731434      40.07939148      18.91383171
H        5.11577415      33.74040604      21.28940201
H        1.81234348      38.33647537      20.21257973
H        6.45570374      35.53235245      20.12195778
H        1.68736875      36.35239029      21.10004234
H        6.65034103      37.91874313      19.32643318
H        5.54589605      39.90053558      18.74880409
H        2.81396699      34.02919769      21.81996346
C       27.17947960      39.80198669       6.30067492
C       26.70902252      37.95317841      10.88275433
C       27.58953094      38.64264297       6.87934351
C       26.31245995      39.13714218      10.33789635
C       27.32276154      38.44063568       8.23484612
C       26.60706329      39.34506989       8.97418404
C       27.89261818      37.29222488       8.87309360
C       26.30315018      40.54137039       8.36623573
C       26.63401413      40.79072571       7.06125879
C       27.58786011      37.08534622      10.20073414
H       27.43892288      40.04195786       5.35428143
H       26.57578087      37.73760223      11.94732475
H       28.17438698      37.91657639       6.29365778
H       25.86773682      39.95287323      10.91567135
H       28.51923943      36.67240524       8.23481941
H       25.95083618      41.38760376       8.94160938
H       26.53910637      41.73325729       6.56721544
H       27.97945023      36.15092850      10.70728683
C       -4.26110888      35.04858398       7.48510027
C       -6.15132475      35.43792725      12.12672520
C       -4.46635151      34.13893890       8.47864246
C       -5.98155212      36.22778320      11.07279015
C       -4.94601440      34.58611298       9.73116016
C       -5.43104553      35.86686325       9.83089066
C       -5.19837713      33.69448471      10.77976704
C       -5.29805708      36.74806595       8.75889492
C       -4.67732716      36.40090179       7.61500263
C       -5.71173334      34.12758636      11.95176697
H       -3.89117217      34.68765640       6.49262524
H       -6.40245104      35.82368088      13.06951427
H       -4.20336103      33.13348770       8.28256607
H       -6.41957998      37.21552658      11.03893185
H       -4.83191109      32.65070343      10.79371548
H       -5.71430397      37.77606583       8.86163616
H       -4.48019695      37.13432693       6.81319904
H       -5.78558016      33.47982407      12.81051540
C       17.11412811      43.13066483       6.86958313
C       13.63839340      40.76446152       4.02739334
C       17.01887131      41.88207245       6.32274151
C       13.87752056      42.04923630       4.48854303
C       15.94965649      41.35533142       5.56170321
C       15.00407982      42.33101654       5.28144550
C       15.65338135      40.05736923       5.13308668
C       15.13669014      43.62372208       5.80142736
C       16.15876389      44.08853149       6.53748751
C       14.57104301      39.70823669       4.33471155
H       17.96347809      43.34185410       7.51580715
H       12.67824650      40.65248871       3.49806976
H       17.78684044      41.14839172       6.52082348
H       13.13174915      42.74799728       4.28115129
H       16.44042969      39.37335968       5.34335804
H       14.37828159      44.33697891       5.69035578
H       16.30271721      45.12807846       6.82171679
H       14.34423256      38.63957596       4.06679487
C       22.60548401      52.86926651      21.27881622
C       22.71994972      57.82902908      20.55880165
C       21.76224136      53.92462540      21.53956985
C       23.70734978      56.89698410      20.33316803
C       22.15690804      55.20513916      21.22912979
C       23.37022209      55.54399872      20.56321335
C       21.16808891      56.23718262      21.40997696
C       24.22717476      54.42960739      20.30857468
C       23.84874916      53.15113449      20.60886002
C       21.49551392      57.52653122      21.15367126
H       22.37041092      51.83054352      21.46636581
H       22.93495941      58.86717606      20.38956451
H       20.74995613      53.72998047      21.82088661
H       24.64181328      57.09362030      19.88681412
H       20.21520424      56.01385498      21.78161812
H       25.13636971      54.58217621      19.73683929
H       24.35711670      52.27171326      20.30909920
H       20.80334282      58.33279419      21.35305977
C       -0.30459741      32.33199692      16.89211464
C       -0.43304446      29.11166763      13.00703144
C       -0.94291222      31.15223694      16.63463783
C        0.22153917      30.29872894      13.22702408
C       -0.85493624      30.50553703      15.41291046
C        0.06182662      31.01138496      14.46277905
C       -1.55195546      29.29502106      15.15153027
C        0.74994689      32.24104309      14.71928596
C        0.60889298      32.88649368      15.89909363
C       -1.31453788      28.59865761      13.95786572
H       -0.51886284      32.79039764      17.83283424
H       -0.23184471      28.54445076      12.12666607
H       -1.57138443      30.70291901      17.39098930
H        0.96587843      30.69374847      12.53814125
H       -2.26042652      28.93967438      15.88099384
H        1.43330932      32.70859146      13.96182823
H        1.05486476      33.82238388      16.07331276
H       -1.70691204      27.59842491      13.85915375
C       30.18343544      30.53720856       3.19799900
C       35.22762680      31.22937393       3.09061193
C       31.11623192      30.92102051       4.11308479
C       34.33721924      30.89246750       2.08577061
C       32.50687408      31.10120201       3.76141477
C       32.92050552      30.83634186       2.41887665
C       33.47442245      31.40069389       4.76409340
C       31.89655876      30.61716270       1.46047533
C       30.60832977      30.44288635       1.87170768
C       34.79731750      31.48172569       4.40162945
H       29.13070488      30.23602104       3.57857656
H       36.27598190      31.32268715       2.75844169
H       30.75605774      30.94069862       5.09334564
H       34.71862411      30.85650063       1.06139159
H       33.17876816      31.81212807       5.77322865
H       32.16229248      30.55750847       0.37857690
H       29.88895226      30.20579147       1.08130026
H       35.46324539      31.75544167       5.21170521
C        3.27049446      45.78060150      20.41163635
C        0.22524518      42.25606918      18.70739555
C        2.09966230      45.89446640      19.68063164
C        1.26992190      42.24452591      19.61761284
C        1.39222550      44.68700027      19.36034775
C        1.88610029      43.50486755      19.86043930
C        0.17786191      44.63904190      18.60211563
C        3.13652992      43.41656876      20.60104179
C        3.80386066      44.55274963      20.87821007
C       -0.32319528      43.43223572      18.23851395
H        3.82202244      46.65685272      20.54102325
H       -0.34011021      41.39949799      18.33262062
H        1.71120703      46.86762619      19.35873222
H        1.80110574      41.34575272      20.01743126
H       -0.40968266      45.48068619      18.31177521
H        3.52690005      42.44247818      20.92200851
H        4.77164459      44.56881714      21.39030075
H       -1.23712456      43.42018509      17.73939514
C       26.54854393      52.40829849       7.94159222
C       27.19637871      47.52758026       8.06748295
C       27.68930244      51.67460632       7.81862640
C       26.13037300      48.34752655       8.31309032
C       27.58208847      50.27323151       7.95377398
C       26.30219650      49.72281647       8.19457245
C       28.68560600      49.41629410       7.71007204
C       25.14655685      50.51454926       8.22916985
C       25.26315880      51.82832336       8.13812733
C       28.47131157      48.08655548       7.70518875
H       26.55912590      53.52360535       8.03292751
H       27.11638260      46.38110352       8.17769527
H       28.64516640      52.12219238       7.82452488
H       25.10372162      48.03804398       8.62064743
H       29.71002007      49.80089188       7.57955933
H       24.17802429      50.04383850       8.45699215
H       24.45452309      52.46288300       8.39377689
H       29.13272476      47.30484390       7.31731796
C       36.03071594      48.62347031       1.12094951
C       32.70674515      44.77553177       1.36725283
C       36.13838196      47.28359222       1.32657468
C       32.56765366      46.15116501       1.24267185
C       34.98566437      46.51396942       1.45552111
C       33.66190338      47.11491776       1.32464695
C       35.05691910      45.05748749       1.61580837
C       33.61539841      48.47373962       0.99537146
C       34.79584885      49.26465988       1.01910830
C       34.02593231      44.20517349       1.44667077
H       36.93093491      49.22344971       1.40011501
H       31.81583214      44.19655991       1.36724186
H       37.03687668      46.73081970       1.46203244
H       31.49561501      46.49390030       1.26075554
H       36.07882309      44.84386444       1.93294537
H       32.65538406      48.91237640       1.00402749
H       34.62387085      50.31509781       0.84818643
H       34.15077972      43.11368942       1.40480494
C        8.53386116      30.04088974       5.55396795
C        8.79692268      29.81824303      10.50728416
C        9.09862995      29.13344955       6.39736223
C        8.08022308      30.63297653       9.71720314
C        8.96438694      29.33572006       7.76227903
C        8.14476871      30.42840385       8.26632786
C        9.44542789      28.40949631       8.74268723
C        7.48030233      31.29327965       7.35817575
C        7.59740257      31.05553818       5.99297810
C        9.35894108      28.63968277      10.05410099
H        8.74238968      29.91805458       4.50412369
H        8.81423759      30.14119530      11.62295055
H        9.83219910      28.41989708       6.02549887
H        7.70078278      31.53874016       9.99248219
H        9.71493816      27.36974716       8.37631702
H        6.86832190      32.11246109       7.79108477
H        6.95499039      31.66606331       5.32775736
H        9.77149487      27.88113785      10.73120785
C       -6.98063564      29.61326599      12.10986423
C       -4.89821815      29.37988853       7.51304865
C       -6.60954809      30.54287910      11.16751671
C       -5.21198511      28.43624496       8.48333550
C       -6.12929678      30.03689194       9.93647861
C       -5.93111992      28.68805122       9.70689964
C       33.87062454      31.03012276       8.93273926
C       -6.06388044      27.78697014      10.75121021
C       -6.57546854      28.24260139      11.87819862
C       34.44698334      30.69693756       7.72069788
H       -7.43460369      29.78833389      13.07984543
H       -4.25603390      29.09708786       6.63136101
H       -6.75157547      31.62059784      11.21985340
H       -4.88451576      27.38018227       8.26499271
H       33.62233353      32.06253052       9.17090511
H       -5.62409067      26.80799294      10.56746960
H       -6.63970041      27.60763550      12.74629688
H       34.57386017      31.41697121       6.89738798
C       -1.42679536      32.97870636      11.71348572
C       -4.81764460      33.59319687      15.29991627
C       -2.32964945      32.13862610      12.35831451
C       -3.98919106      34.51178360      14.63001156
C       -3.29382348      32.64348221      13.23470688
C       -3.21786976      34.04139709      13.52372932
C       -4.19361687      31.78538322      13.89869404
C       -2.31746769      34.87819290      12.82762718
C       -1.37737417      34.33074570      11.97220707
C       -5.00074911      32.26128387      14.89299297
H       -0.82009029      32.51710129      10.95874691
H       -5.21569252      33.94302368      16.22703934
H       -2.39548540      31.06969070      12.22080612
H       -3.95640731      35.50696182      14.93065548
H       -4.24199104      30.76558876      13.62056351
H       -2.35303092      35.92852402      12.96981812
H       -0.74649787      35.04235458      11.43328285
H       -5.70905638      31.52135849      15.23517704
C       -2.94686174      53.51834488      20.50571060
C       -2.16920972      56.57476807      16.62960625
C       -3.46666408      53.52276611      19.21075630
C       -1.60357928      56.51868057      17.91359329
C       -2.96465564      54.56953430      18.36433601
C       -2.05389810      55.55772781      18.86069489
C       -3.52671051      54.68310547      17.04928398
C       -1.59029448      55.54532242      20.17978477
C       -2.04205513      54.43908310      20.98027611
C       -3.14559174      55.66250229      16.20727348
H       -3.26374507      52.71113968      21.18083572
H       -1.90042877      57.43186188      16.00217438
H       -4.04886484      52.74110413      18.88439941
H       -0.99121022      57.36658096      18.27718735
H       -4.18508577      53.89447784      16.70314598
H       -1.02016854      56.28653717      20.59884834
H       -1.56128430      54.23900986      21.90953255
H       -3.45682406      55.73379135      15.21595192
C       -1.84576488      54.65925980      13.62191105
C       -0.25019109      56.22633743       9.15227127
C       -2.14354515      54.26395035      12.37372494
C       -0.22838444      56.78090286      10.43763351
C       -1.63928294      55.00091553      11.27284336
C       -0.85319561      56.09922409      11.48411846
C       -1.82653439      54.57425690       9.90157032
C       -0.62445509      56.52966690      12.81283951
C       -1.02129614      55.76392746      13.85452080
C       -1.02652943      55.06967545       8.91707802
H       -2.17914891      53.98080826      14.45295143
H        0.25040981      56.73133469       8.33286667
H       -2.87614727      53.45769119      12.22797966
H        0.40587541      57.60743713      10.68494987
H       -2.47250032      53.68683243       9.83917332
H        0.06064367      57.37876129      12.94189072
H       -0.75356275      56.06226349      14.85826111
H       -1.09304476      54.65093994       7.95208454
C       31.78289604      34.26303864       2.78442216
C       31.05856323      38.26561356       5.88808155
C       30.89137650      35.33430862       2.77586484
C       31.90915871      37.24595642       5.80981302
C       30.96148872      36.36808014       3.71926880
C       31.90784454      36.32865524       4.73588467
C       30.03144073      37.45682526       3.83937812
C       32.88711929      35.32511520       4.67650604
C       32.81229782      34.29980850       3.74772763
C       30.11055756      38.37527466       4.85372257
H       31.72703934      33.51146317       2.08440518
H       30.97202110      38.98112106       6.70645857
H       30.01073647      35.28152466       2.10915613
H       32.70825577      37.12004852       6.53832865
H       29.25391960      37.45605087       3.09125328
H       33.78204727      35.44350433       5.18453789
H       33.50750351      33.48730087       3.76340628
H       29.34977341      39.18873215       4.82231188
C       17.18664169      53.01057434      19.01650620
C       19.53699493      51.36370087      14.81189060
C       16.98904800      53.11799622      17.63513565
C       19.75485039      51.14212799      16.13185692
C       17.81451416      52.52087402      16.68783188
C       18.89700508      51.69150543      17.07966804
C       17.56945801      52.74908829      15.29662323
C       19.06809998      51.52816772      18.45865440
C       18.23817444      52.15696335      19.38268471
C       18.44905472      52.16473389      14.41545582
H       16.51600838      53.43131256      19.75241089
H       20.25564384      50.90420914      14.21253967
H       16.29981041      53.85948181      17.16076660
H       20.67996216      50.61472321      16.41716385
H       16.68120766      53.22987747      14.89672375
H       19.90622139      51.00603104      18.90922928
H       18.40038300      52.00939560      20.42511940
H       18.21492577      52.26980209      13.35697174
C      -18.45354843      31.87657356      28.35102272
C       22.13366508      33.42512894      23.59022522
C      -17.87866592      31.29720306      27.24779320
C       21.88154030      34.06668091      24.74637222
C       22.02583885      32.00050354      25.99353409
C       21.77584076      33.41865158      25.97259331
C       22.46179199      31.35545921      24.83738518
C       21.20839310      34.02592850      27.14754486
C       20.90244675      33.24009323      28.21004486
C       22.40123558      32.05458069      23.65466309
H        0.22293565      31.42813110       0.79894298
H       22.21187210      34.00436020      22.65598488
H      -17.44455719      30.24426460      27.29504204
H       21.61579514      35.14042664      24.75501442
H       23.02238846      30.43441391      24.86785889
H       20.87181854      35.07536316      27.04673386
H       39.22735977      33.74775314       0.56160253
H       22.49738693      31.51689720      22.76396370
C       13.63214207      55.63495636       1.02710366
C       12.64206219      55.20319366       5.90554619
C       13.63633442      54.56161118       1.84190965
C       12.85929680      56.26820374       5.12320423
C       13.41130257      54.74435425       3.25788546
C       13.21478176      56.03024292       3.75975823
C       13.22840500      53.67919922       4.15234280
C       13.15840912      57.12166214       2.85067153
C       13.36841583      56.93922424       1.50383198
C       12.75805473      53.89147949       5.42504930
H       13.92040348      55.35826874       0.01141353
H       12.44346046      55.36274338       7.00500250
H       13.70824432      53.55529404       1.43947494
H       12.83057117      57.22055435       5.53610802
H       13.29757977      52.63577271       3.85781813
H       12.84210682      58.05158234       3.12313890
H       13.25497437      57.79895020       0.90022147
H       12.49381638      53.05051422       6.01933718
C        9.38541985      44.81620026      19.68606567
C       12.85351849      42.89221573      22.38536263
C        9.33733463      43.78499222      20.62792397
C       12.48020935      44.33401871      22.63203049
C       10.31486225      43.66274643      21.60020828
C       11.34572887      44.63137054      21.68646049
C       10.50518990      42.55981827      22.65260506
C       11.35353279      45.65424347      20.83886147
C       10.43598652      45.69774246      19.78892136
C       11.83195782      42.01861191      22.34554482
H        8.68067265      44.96916199      18.86496353
H       13.91441059      42.61616516      22.38049698
H        8.56980896      43.10024643      20.60895538
H       13.34622669      44.90147400      22.47526360
H        9.70020390      41.80945587      22.44890213
H       12.15571022      46.43251801      20.92880440
H       10.47665596      46.51461792      19.07502556
H       11.93102360      40.96710968      22.02103424
C       11.99580669      53.98001862      17.27809906
C       14.99419689      50.04044342      17.51899528
C       12.12322235      52.85625458      16.56638718
C       14.85511494      51.09901810      18.33052254
C       13.01982117      51.90158463      16.92371178
C       13.84363937      52.06757355      18.03539467
C       13.23824787      50.79289627      16.05974579
C       13.66500854      53.24472046      18.75160789
C       12.73136902      54.22000122      18.41027832
C       14.16520405      49.86342621      16.39900970
H       11.20838261      54.64181137      16.97786713
H       15.78936672      49.34302902      17.61702347
H       11.49362183      52.86062241      15.69631672
H       15.32082272      51.18496323      19.27257347
H       12.57910728      50.54652023      15.26116276
H       14.30853176      53.38148880      19.63380432
H       12.76411915      55.19349289      18.88944435
H       14.39350510      49.05807877      15.68369675
C       22.80092430      36.36586380      20.18750763
C       21.48724556      37.60005188      24.81518936
C       21.65142059      36.22479248      20.90972137
C       22.64654160      37.72691727      24.08435822
C       21.53031921      36.76691437      22.20436287
C       22.69230080      37.33234406      22.76445580
C       20.30645943      36.74942017      22.87948799
C       23.88394547      37.49753571      22.02105141
C       23.91152573      37.03879166      20.72352600
C       20.26611710      37.13643265      24.23064995
H       22.85471725      35.97642517      19.23583221
H       21.52289009      37.88160706      25.83930588
H       20.81442261      35.63222504      20.61420250
H       23.45970917      38.18626022      24.64381599
H       19.45363808      36.63558578      22.20878220
H       24.77622032      37.95470047      22.43285370
H       24.87549973      36.91624832      20.22803879
H       19.32731056      37.12533951      24.78861809
C       -7.79885721      34.33180237      15.59234619
C       -9.47340298      29.70899010      16.67299652
C       -8.05308247      33.22947311      14.84914207
C       -9.16135693      30.74909210      17.39303589
C       -8.55521488      32.05783463      15.37786007
C       -8.72051430      31.97440720      16.79850769
C       -9.07896900      30.98675919      14.63485909
C       -8.63815022      33.19537354      17.58065796
C       -8.07044315      34.39100647      16.99684525
C       -9.47044754      29.79137802      15.19816971
H       -7.38903856      35.22257614      15.19869041
H       -9.82939911      28.82269669      17.16109276
H       -7.73007488      33.39596558      13.85600662
H       -9.14997578      30.79109955      18.55670357
H       30.75893974      31.14271545      13.56942749
H       -9.00925446      33.20583344      18.61194801
H       -7.99953461      35.32791519      17.58239174
H       29.85061073      28.97620010      14.64597607
C        8.82084942      51.27916336      25.65879822
C       13.30925655      49.03583908      25.23327255
C        9.36365700      50.51243591      24.69025612
C       12.56074238      49.35123444      26.31962204
C       10.71675301      49.90340424      24.80667877
C       11.29493618      49.88117218      26.03046227
C       11.40542984      49.46215439      23.65009689
C       10.65208054      50.70304108      27.03347778
C        9.51258469      51.44758224      26.87553215
C       12.74466324      49.08174896      23.91670418
H        7.81821585      51.79934692      25.58745956
H       14.24260139      48.65791702      25.42168045
H        8.86221886      50.27259064      23.78138351
H       12.86442757      49.34588623      27.37318611
H       11.03804493      49.44754410      22.64264488
H       11.15388680      50.72005081      27.95638657
H        9.10328674      52.17463303      27.53056526
H       13.47086143      48.80264282      23.20330811
C       13.93611526      50.53073502      12.50086498
C       14.12277126      50.72002792       7.51610231
C       14.82936287      50.17972565      11.54824924
C       13.28055859      51.35105133       8.45936680
C       14.70247364      50.53722763      10.15190601
C       13.49161053      51.15016174       9.84212589
C       15.68191814      50.18304443       9.23892212
C       12.54778862      51.54264069      10.83821583
C       12.72118187      51.23304367      12.12823772
C       15.30349636      50.08014679       7.92845535
H       14.19542599      50.41715240      13.56619167
H       13.97707176      50.75658798       6.40760040
H       15.78085232      49.75677872      11.88887024
H       12.39675236      51.92264557       8.04803276
H       16.63820267      49.68459320       9.51480961
H       11.62753868      51.99267578      10.45016956
H       12.10549450      51.30018616      12.98647785
H       16.09620476      49.66912079       7.15765381
C       -2.46758842      50.78454971      17.55908203
C       -5.49357080      48.41534042      14.42502689
C       -3.51829147      49.90351105      17.81542778
C       -4.54007053      49.34205627      14.23924160
C       -4.19689035      49.38479614      16.65615845
C       -3.83327198      49.82587051      15.38088036
C       -5.24841881      48.36729050      16.78697205
C       -2.78620958      50.86894989      15.19752884
C       -2.15846825      51.35328674      16.31237030
C       -5.84107876      47.86566544      15.64797020
H       -1.88486743      51.22444534      18.34180260
H       -6.09296703      48.07320404      13.62703896
H       -3.66416216      49.45762634      18.78332520
H       -4.29779005      49.60481262      13.25959015
H       -5.46716213      48.07979584      17.78896904
H       -2.66541791      51.21870804      14.19765377
H       -1.41426790      52.10162354      16.12333679
H       -6.61805773      47.11796188      15.67710304
C       -2.31560087      52.63208008       7.27501202
C        0.29903051      48.94781876       5.15885639
C       -1.78607965      52.51583481       6.05245113
C       -0.44146645      49.01788712       6.33585310
C       -1.08463597      51.30398560       5.64308596
C       -1.14840066      50.24599075       6.58684731
C       -0.54531926      51.05446625       4.36545324
C       -1.79517841      50.37318802       7.84192228
C       -2.29347372      51.55433273       8.16734505
C        0.20481423      49.92034531       4.16260719
H       -2.78943920      53.53776932       7.56846857
H        0.92150742      48.07068634       4.95726442
H       -1.90119970      53.37316513       5.31140184
H       -0.46708930      48.23203659       7.13845158
H       -0.56377572      51.83393860       3.63797188
H       -1.88518095      49.48257065       8.49028206
H       -2.92947268      51.59479523       9.09400272
H        0.63475394      49.75031662       3.22242975
C        6.44808674      41.56939316       6.31167841
C        7.12708235      39.41394424       1.66264665
C        6.35077524      40.04227448       5.79263592
C        6.55978298      40.62279511       2.09413624
C        6.88789082      40.02814484       4.36654472
C        6.37586164      40.86347580       3.45143867
C        7.52715254      38.84426880       4.00057364
C        5.47057104      41.98604202       3.88855839
C        5.49075222      42.32842636       5.44082308
C        7.60971260      38.53797531       2.58964920
H        6.08111525      41.65468597       7.37202978
H        7.11603832      39.19503021       0.62231630
H        6.98509264      39.39215088       6.42193079
H        6.19360542      41.30337143       1.39193058
H        7.75854921      38.00768661       4.72038746
H        5.58535004      42.95855713       3.35447168
H        5.63554764      43.46948624       5.60310936
H        8.20682335      37.63903809       2.35024905
C       -0.24603344      37.53939438      17.38428497
C        1.39521337      39.08621216      12.87972069
C       -0.10953289      36.87647247      16.14377594
C        1.18056965      39.65200424      14.11779118
C        0.21634939      37.66101837      15.02026844
C        0.58204609      39.02544785      15.22689533
C        0.31160802      37.09815598      13.69568157
C        0.51049966      39.58900833      16.49379158
C       -0.02761376      38.88413620      17.56739807
C        0.89243740      37.78789139      12.68074322
H       -0.44517076      36.97996521      18.27629471
H        1.94154823      39.64430237      12.20909405
H       -0.24866743      35.76813889      16.07894325
H        1.49501133      40.68241119      14.33487701
H       -0.03166663      36.10425949      13.49365139
H        0.75025398      40.64852142      16.47913742
H       -0.15743046      39.21548462      18.55435181
H        0.79699183      37.41849136      11.67902470
C       -8.65921879      34.91675186      21.14260292
C      -10.80321121      35.11946869      25.71677017
C       -8.18290329      35.20771408      22.41695786
C      -11.29079056      34.94614029      24.45591354
C       -9.06101799      35.33766937      23.50430107
C      -10.42163467      35.03195190      23.33815002
C       -8.64948750      35.60724258      24.86623001
C      -10.87234592      34.70663834      22.01700401
C      -10.04437256      34.65274811      20.93799782
C       -9.45487976      35.49686813      25.91029358
H       -7.96496058      34.92699432      20.28517532
H      -11.43090534      34.93953705      26.61490250
H       -7.13309383      35.39990616      22.53769493
H      -12.28720093      34.65009308      24.27169991
H       -7.56515598      35.75067139      25.11096382
H      -11.90334225      34.43898392      21.82379150
H      -10.42412758      34.33584213      19.98687172
H       -9.04262161      35.61419678      26.91513824
C       21.02557945      54.96656799      24.74806595
C       19.43311310      52.04179382      28.49830818
C       20.63054466      53.69480133      24.77955437
C       19.74186897      53.35949326      28.37258720
C       20.28910637      53.07564926      26.01508713
C       20.29060364      53.93075562      27.13448715
C       19.91454887      51.73617554      26.12232780
C       20.78007889      55.21663666      27.10545540
C       21.08075905      55.80291748      25.91338539
C       19.48655510      51.23731995      27.36298943
H       21.49025726      55.42149734      23.90722847
H       37.85987473      51.72758865       1.01283288
H       20.76986694      53.02384567      23.94504166
H       38.55474091      53.99584198       0.73866171
H       19.89383507      51.13193512      25.21988297
H       20.63646317      55.83869934      27.99883461
H       21.46055031      56.79130554      25.87256813
H       19.18807030      50.22522354      27.42859650
C       14.99368668      55.57379532      15.97357750
C       14.48568726      55.81934738      10.96728611
C       14.65330505      54.58097839      15.02912045
C       14.37577629      56.74428558      11.98292446
C       14.54959679      54.96510696      13.70932484
C       14.42534637      56.28108215      13.34375191
C       14.54685402      53.95360184      12.58996201
C       14.67068481      57.23719788      14.31313133
C       14.89782810      56.91144943      15.64228439
C       14.61788940      54.41387177      11.30654812
H       14.96290016      55.36112976      17.00400925
H       14.31245136      56.15948105       9.96296215
H       14.73602009      53.49757004      15.34873104
H       14.45240879      57.84254837      11.84754562
H       14.56063747      52.88792419      12.83121777
H       14.59330845      58.30081558      14.09031391
H       15.22331429      57.60436630      16.44764709
H       14.60984898      53.71230698      10.51446247
C       -0.12827119      55.71221542      25.41349792
C       -4.09020138      58.76951218      26.24176598
C       -0.54727340      56.90232849      24.88330078
C       -3.75844336      57.56248856      26.77726746
C       -1.71414709      57.55477905      25.40320587
C       -2.54406357      56.90782547      26.35464096
C       -2.08550596      58.82545853      24.89437103
C       -2.13591886      55.66083908      26.81573677
C       -1.02720654      55.02406692      26.24575806
C       -3.25635099       0.48225006      25.26170731
H        0.81003308      55.27323151      25.18113136
H       -4.93033028       0.41089967      26.56576920
H       -0.03059408      57.34301758      24.10116577
H       -4.42342854      57.07170486      27.47610283
H       -1.44626749       0.44612661      24.24185944
H       -2.78263927      55.12434006      27.55008507
H       -0.84331077      54.02343369      26.49950409
H       -3.49482107       1.44352710      24.95669937
C        6.74035215      33.24413300      11.27994919
C        6.41697884      37.52458572       8.66535664
C        6.11001015      33.58566666      10.14682674
C        7.18422461      37.11661148       9.75929832
C        6.26227093      34.85488129       9.60486603
C        7.18201876      35.76609039      10.20895481
C        5.54134750      35.30907440       8.48949146
C        7.88174438      35.34359741      11.37712574
C        7.69139338      34.10333633      11.87639904
C        5.66133213      36.56739044       7.99098349
H        6.55292225      32.27564621      11.69209099
H        6.35192633      38.57514954       8.51231861
H        5.41453886      32.91908646       9.66402531
H        7.82632399      37.90267944      10.23022270
H        4.96426582      34.46737289       8.04708099
H        8.66626740      35.94937897      11.70862675
H        8.19609642      33.76586533      12.75764179
H        5.18389082      36.85742188       7.07744026
C        0.35727885      53.94168854      17.63094711
C        1.68220162      54.01062012      22.57249832
C        0.34118032      53.01564026      18.60368156
C        1.80071986      54.88327026      21.51343536
C        0.78796011      53.36081696      19.95481491
C        1.41090035      54.58155060      20.18872070
C        0.67116994      52.50705719      21.06792831
C        1.59291852      55.46523285      19.09615517
C        0.98071498      55.16605759      17.87631607
C        1.09917307      52.73352814      22.32786369
H       -0.14623827      53.77218246      16.67685890
H        2.22482586      54.14544296      23.57718468
H       -0.17862587      52.05950928      18.43191910
H        2.18344116      55.89403152      21.77654648
H        0.25774208      51.56296539      20.83685112
H        2.03559089      56.45896912      19.26624107
H        0.94047803      55.89115524      17.08408928
H        1.19711101      52.00673294      23.09761620
C       12.61217499      57.45532608      27.85702896
C       17.10369682      56.77890396      25.66386986
C       13.00155640      57.45939636      26.51624680
C       16.72467995      57.15650558      26.94622421
C       14.34383297      57.30837250      26.19604492
C       15.30259418      57.36466980      27.20928383
C       14.80372906      56.71195602      24.96995163
C       33.67971039      57.41645432       0.01199623
C       32.33207703      57.31272507       0.39196616
C       16.12641907      56.42360306      24.73649979
H       11.57869148      57.33219147      28.18097115
H       18.17481232      56.67528915      25.44435120
H       12.23391533      57.40541458      25.79566956
H       17.45629692      57.37364578      27.68231583
H       14.10157681      56.63140488      24.14842606
H       34.42959976      57.34088516       0.77940547
H       32.20334625      57.14237976       1.44630158
H       16.38775253      56.08168411      23.74673080
C        6.66804123      30.61417389      19.86810684
C        8.71506023      30.41862106      24.40126038
C        7.78152227      30.03956604      20.40574837
C        7.70947886      31.22636795      23.88165092
C        8.10715771      30.25520325      21.71547699
C        7.30026054      31.10597038      22.54736328
C        9.19994450      29.56915474      22.24035835
C        6.06937027      31.56978035      22.05734062
C        5.82263660      31.40153313      20.67920113
C        9.38874245      29.52536011      23.57450676
H        6.45085907      30.50751305      18.78899956
H        8.98620415      30.51227951      25.45620155
H        8.41198540      29.49403763      19.72380447
H        7.16033936      31.94189835      24.46242905
H        9.82399654      28.87061310      21.63407707
H        5.40501547      32.11592102      22.62821770
H        4.89987087      31.74760628      20.18982887
H       10.15752602      28.89675903      24.01561546
C       15.81962013      37.32174301      23.56921005
C       11.42755127      38.01026535      25.69306755
C       14.98692513      36.54467773      24.32506180
C       12.23913765      38.86128235      24.97922325
C       13.77889061      37.08496857      24.82373810
C       13.43084621      38.39176941      24.47051048
C       12.80513382      36.21329117      25.41413307
C       14.29559326      39.17926788      23.73948097
C       15.52889156      38.64163208      23.31003761
C       11.65347290      36.62029266      25.87469482
H       16.70250702      36.84723663      23.07911682
H       10.55749512      38.46723938      26.11988258
H       15.20013523      35.55955887      24.60381889
H       11.91843319      39.84601974      24.80826950
H       13.07608795      35.13327789      25.49555588
H       13.95425320      40.22246170      23.52677727
H       16.12528038      39.24334335      22.62543488
H       10.90923500      35.96392822      26.25206947
C       17.87555122      30.34790421      12.84079361
C       20.88740158      34.04870605      11.22898102
C       18.98183632      30.93120766      13.31209087
C       19.83449554      33.40187454      10.60451508
C       19.58977509      31.99786758      12.61869812
C       19.17814446      32.32545090      11.27904510
C       20.57554245      32.72168732      13.27022457
C       18.03895569      31.65811920      10.79182434
C       17.32938766      30.80118179      11.59159374
C       21.17833519      33.78015900      12.58950043
H       17.35438347      29.55501556      13.43084812
H       21.36010361      34.76931381      10.66951847
H       19.36859894      30.64380646      14.27742672
H       19.55552101      33.45039749       9.52500153
H       20.84134865      32.42689514      14.27279663
H       17.67064667      32.00973129       9.83244419
H       16.35125160      30.41412735      11.33052731
H       21.97218704      34.28942490      13.21726608
C       -2.49972463      58.72958755       9.00778008
C       -5.19253111      57.29284668      12.98836708
C       -2.54410625       0.23442610      10.29358292
C       -4.75768566      56.57985306      11.85966778
C       -3.42472720      58.57412338      11.27099800
C       -3.95281625      57.33440781      10.89999676
C       -3.84692144       0.28062424      12.47187805
C       -3.82835126      56.86817932       9.57100677
C       -3.14104724      57.55816650       8.61199570
C       -4.77428102      58.61257935      13.28483295
H       -1.90079784       0.33705413       8.24391365
H       -5.83976126      56.73432922      13.63744640
H       -2.05773449       1.16208529      10.74978161
H       -5.07058477      55.60159302      11.67422295
H       -3.50329971       1.30143487      12.68065834
H       -4.07044697      55.80731964       9.45435524
H       -3.01482105      57.17126846       7.62327099
H       -5.16508389       0.19028138      14.12907028
C        9.81996346      37.00714111      21.78440475
C       13.53164387      34.58710480      19.63247871
C       11.03772259      36.64085770      22.24164391
C       12.27220249      34.88501358      19.26388550
C       11.92682457      35.87561035      21.44758224
C       11.49233532      35.60372925      20.14721298
C       13.21728039      35.50791931      21.77889252
C       10.22728062      36.05367661      19.68032837
C        9.35585785      36.71990204      20.50130272
C       14.05629253      34.93451309      20.89221191
H        9.21640873      37.52260590      22.54555893
H       14.14671421      33.93065643      18.98005867
H       11.35482597      37.04920959      23.19714737
H       11.78567505      34.64867401      18.31280899
H       13.65371132      35.71763229      22.78877831
H        9.91533947      35.82210159      18.64668274
H        8.40913486      37.08835220      20.06059265
H       15.11325836      34.79352188      21.12990761
C        8.69071007      58.31382370       7.42747164
C        5.69838476      58.11371994      11.53806782
C        8.77668953      57.70510864       8.70554352
C        5.52677584      58.68283081      10.26121426
C        7.76638174      57.82307053       9.65582275
C        6.58511925      58.52165604       9.32402611
C        7.90382719      57.25426865      10.95686436
C        6.49412537       0.24836348       8.07123280
C        7.53373480       0.12699798       7.12744045
C        6.88584232      57.46538544      11.85326481
H        9.57493210      58.11337280       6.82782936
H        4.87999153      58.12258530      12.24875641
H        9.62251282      57.13541412       8.99436665
H        4.57641697       0.26398206       9.97491264
H        8.92282581      56.92400360      11.07838535
H        5.61618996       0.82339770       7.79888678
H        7.42256641       0.54335475       6.14896822
H        7.06156731      57.09658432      12.85129547
C       -7.96924973      48.67321014      22.19186783
C       -9.89593315      48.74536133      17.52835655
C       -9.31535149      48.70037460      21.73082733
C       -8.62890053      48.42981339      18.06665230
C       -9.62556744      48.45844269      20.35589790
C       -8.50300217      48.30908585      19.47589302
C      -10.88404846      48.58818817      19.69631386
C       -7.22125387      48.21437454      20.03115463
C       -6.92766142      48.40967178      21.34888268
C      -11.05643463      48.75860596      18.37549973
H       -7.83463478      48.93180466      23.27801704
H      -10.00744820      49.11684418      16.52076721
H      -10.20695400      48.82686615      22.44957733
H       -7.70328951      48.31336975      17.39211655
H      -11.75720882      48.53505325      20.28955460
H       -6.37742615      48.22009277      19.33531761
H       -5.88652468      48.58333969      21.54620743
H       27.76885414      48.90380096      17.88393402
C       -3.95838118      55.75708008      23.42504501
C       -4.23297930      58.00294495      19.01346588
C       -3.34447336      56.83070755      22.87054062
C       -4.87007904      56.98286819      19.51713181
C       -3.76515102      57.32315063      21.62726021
C       -4.64249325      56.60831070      20.89885330
C       -3.11353230      58.41486740      21.03936195
C       -5.28402615      55.52663803      21.52139664
C       -4.94049740      55.09413528      22.74105072
C       -3.25128961      58.68460846      19.73445702
H       -3.67947102      55.36080933      24.37897301
H       -4.30236626      58.31925201      17.95208168
H       -2.56169820      57.37247086      23.40728760
H       -5.67123079      56.45547867      19.05524063
H       -2.25835037      58.81991577      21.56968117
H       -5.94324350      54.95753098      20.90477943
H       -5.48754692      54.25077438      23.14458656
H       -2.70235872       0.57548714      19.27981567
C        3.75308347      35.04378891      25.36621094
C        8.12842464      36.03976822      27.89818382
C        4.93002319      34.29745865      25.68095398
C        7.15889263      37.02722168      27.25083923
C        5.99286985      34.96155930      26.32443810
C        5.88933754      36.28408432      26.73782921
C        7.16202402      34.19910812      26.66337013
C        4.65822649      36.89371490      26.72837067
C        3.58789134      36.29789352      26.02300072
C        8.07912827      34.70013428      27.56736374
H        2.96457314      34.71418762      24.68634796
H       27.58252144      36.44797516       0.15220678
H        4.85167885      33.20246124      25.46590805
H        6.85691309      37.81455612      28.02807808
H        7.20038366      33.20589828      26.15122604
H        4.57358694      37.84315491      27.26842499
H        2.62345242      36.73971558      26.08190537
H        8.79434013      34.11120605      28.10254097
C       20.10872841      44.02245712       4.92932510
C       15.62516403      43.95779800       2.75464606
C       19.16242981      45.01879883       4.65879393
C       16.57779312      43.00659180       2.97048807
C       17.99006081      44.73648834       4.00592613
C       17.77881813      43.39759827       3.64641809
C       16.99081039      45.76453400       3.68570638
C       18.78664780      42.36999893       3.83405375
C       19.97151375      42.67932892       4.51569223
C       15.85749054      45.33332825       3.08331251
H       21.05769348      44.30216217       5.45377445
H       14.72694492      43.73880768       2.24858642
H       19.23631668      46.02783585       4.94944191
H       16.46645164      42.04862976       2.62198186
H       17.18064690      46.79473114       4.00460815
H       18.59340096      41.37894821       3.46557522
H       20.72368240      42.00535584       4.45511580
H       15.11535454      46.06332016       2.99302244
C       -2.39387846      52.72125626      24.33323097
C       -4.34078169      48.21003723      23.24097443
C       -2.24238539      51.88018417      23.28478813
C       -4.50773954      49.08135986      24.26516914
C       -2.93148088      50.64145279      23.34140778
C       -3.82000589      50.34466934      24.36609840
C       -2.80536437      49.75330734      22.25040436
C       -4.05564642      51.32493210      25.32845306
C       -3.33775616      52.46151733      25.30724525
C       -3.46674037      48.56510544      22.22361565
H       -1.91469681      53.73822784      24.38172531
H       -4.98118019      47.28852844      23.29810143
H       -1.53638983      52.18999100      22.49118805
H       -5.33197212      48.88877106      24.99545097
H       -2.18452144      50.01223755      21.43424988
H       -4.80328035      51.12125778      26.06877136
H       -3.64243531      53.22454834      26.03300667
H       -3.35741854      47.91603851      21.33437729
C       -9.89426708      40.98229980      19.80032349
C       -8.82386780      43.82051468      15.72815323
C       -9.33381367      42.23702621      19.64442062
C       -9.14354610      42.51549530      15.90395355
C       -9.05219460      42.74724960      18.31802368
C       -9.28967381      41.91719055      17.21178055
C       -8.67768097      44.07314682      18.14869499
C       -9.88541985      40.65332794      17.41595650
C      -10.14712143      40.14670563      18.65802383
C       -8.56984138      44.56099701      16.86200523
H       -9.85497379      40.43109131      20.69764519
H       -8.85720921      44.27175903      14.76304913
H       -9.12566090      42.91255569      20.51451111
H       -9.23848057      41.83526230      15.10005856
H       -8.63830280      44.72178650      18.97382545
H      -10.30932808      40.14214706      16.47907639
H      -10.57536888      39.12764740      18.89423943
H       -8.29566765      45.64030457      16.81320572
C       17.66208267      34.23129654      23.91624641
C       15.82495880      29.61419678      23.68928528
C       16.53127861      33.68671036      23.43562698
C       16.96877861      30.17251396      24.21504402
C       16.24523735      32.33295059      23.54075050
C       17.20597458      31.56306839      24.17648697
C       15.09983253      31.71155548      23.00815964
C       18.43577003      32.10356903      24.73437881
C       18.66608810      33.43426895      24.52568817
C       14.87758923      30.37866020      23.02470970
H       17.73010063      35.31874084      23.77101517
H       15.66836643      28.56616592      23.75890732
H       15.70508194      34.32963943      23.09798431
H       17.78299141      29.61663818      24.63665962
H       14.43773556      32.34006119      22.44964790
H       19.19398117      31.42277145      25.12594604
H       19.57621002      33.85869598      24.94017220
H       14.02118492      29.87740326      22.60701179
C        3.48106718      30.07983398      16.77779961
C        6.39154911      28.35098648      13.10271072
C        3.53488350      30.34192276      15.45178699
C        6.24034214      28.10164452      14.45960999
C        4.51171446      29.70983315      14.65624714
C        5.31888056      28.77766037      15.28357983
C        4.71550226      30.06425095      13.31389999
C        5.24591017      28.48576355      16.66487885
C        4.33782053      29.16172600      17.43432236
C        5.66837645      29.46594620      12.55543900
H        2.73404312      30.60548782      17.31382751
H        7.03210640      27.76625824      12.46244049
H        2.75254631      30.99563217      15.05813789
H        6.81387043      27.25154304      14.87056828
H        4.03799677      30.83930016      12.95727253
H        5.97060919      27.75031281      17.14891434
H        4.35105419      28.97773361      18.52169037
H        5.92871809      29.72671890      11.53476524
C       23.15152359      55.30488586       7.25768566
C       22.08604050      58.13706589      11.33192635
C       23.43509293      55.22087479       8.56582642
C       21.82036209      58.23498154       9.98879719
C       22.85027695      56.05871201       9.55414200
C       22.22094917      57.23590088       9.07546902
C       23.07704735      55.90740967      10.92494965
C       21.85632515      57.29095459       7.67575121
C       22.36706734      56.42805862       6.75541735
C       22.67871094      56.89848709      11.78846455
H       23.68260384      54.64660263       6.58100080
H       21.81138229       0.02820536      11.96835327
H       23.95481873      54.37752914       8.98766327
H       21.21612740       0.07947459       9.52376747
H       23.52333069      54.97234344      11.25865459
H       21.17601967      58.10753632       7.40090179
H       22.05507469      56.48731232       5.74074268
H       22.91480255      56.81598282      12.84252644
C       27.67156982      35.67302704       4.25772667
C       23.25925446      36.02781677       1.75164890
C       26.51704597      36.42511368       4.46191597
C       24.47447968      35.44147873       1.46038210
C       25.42181587      36.37318420       3.50741124
C       25.55367088      35.51253891       2.39051247
C       24.12777710      36.82298279       3.88468218
C       26.67416954      34.64875412       2.33601093
C       27.70842743      34.76686096       3.18473268
C       23.03356552      36.59403229       3.05861211
H       28.45352173      35.70055771       4.97474384
H       22.46205902      35.85384369       1.05192053
H       26.39310074      37.05101776       5.31745195
H       24.59818840      34.81402969       0.56438500
H       23.93417168      37.28781509       4.84869003
H       26.67006111      33.87122726       1.61641836
H       28.54385185      34.05452347       3.25771666
H       22.07170105      36.97156525       3.34973431
C      -10.56218147      52.31338120      21.03447342
C       -6.48417950      51.43096542      18.40288162
C       -9.30580616      52.00771713      21.36939812
C       -7.75732279      51.65081406      18.04207802
C       -8.37806988      51.70524216      20.35037804
C       -8.77285099      51.83375549      18.98442459
C       -6.99846458      51.55440521      20.69448090
C      -10.09591103      52.16656876      18.65020561
C      -10.91733456      52.38507843      19.68321037
C       -6.05127430      51.42426300      19.74363327
H      -11.25815964      52.50870895      21.86822510
H       -5.80295563      51.10605621      17.64455986
H       -8.97521114      52.10025787      22.37611961
H       -8.07522964      51.56395340      17.00271606
H       -6.76348352      51.59738541      21.77728271
H      -10.31363010      52.39787674      17.61074066
H      -11.94601345      52.69160843      19.51286888
H       -4.99833441      51.30112457      19.98085785
C       21.41516113      35.36334610      16.86763382
C       17.43598366      38.04104614      18.37616920
C       20.65706062      35.25511169      17.99252319
C       18.33059120      38.10405350      17.40600395
C       19.57860565      36.16835403      18.17604256
C       19.43311119      37.21500397      17.26359558
C       18.67345047      36.17543030      19.26801491
C       20.27638817      37.29449463      16.07309914
C       21.21313858      36.37168884      15.90806675
C       17.58188820      36.99716568      19.38435364
H       22.32419205      34.72796249      16.86317825
H       16.60241508      38.66879272      18.48129845
H       20.83552170      34.52320480      18.79449654
H       18.29900169      38.81555557      16.62787819
H       18.74940300      35.40375137      20.00499916
H       20.20817757      38.11261749      15.32107830
H       21.98019791      36.48983002      15.17972469
H       16.76095200      36.95324707      20.14739609
C       10.13485432      55.63274002      20.43680191
C        5.71516132      54.56277847      22.52430534
C        9.78177261      55.41563416      21.72585106
C        6.06069231      54.93437958      21.25781822
C        8.41233063      55.05785370      21.99022293
C        7.47972393      55.06919098      20.95686722
C        8.01804256      54.68979263      23.34353638
C        7.95351362      55.24769211      19.59848785
C        9.22202015      55.59246445      19.37658501
C        6.65470219      54.58266067      23.58694458
H       11.15487194      55.94639969      20.29623604
H        4.69462204      54.40624619      22.77961922
H       10.55315876      55.28326416      22.50020790
H        5.32068396      54.83872604      20.49118996
H        8.78697205      54.62554932      24.12726212
H        7.35588121      54.96909714      18.78917885
H        9.52633762      55.80618668      18.39794540
H        6.20597124      54.29251099      24.54227257
C       20.50129700      43.48683166      11.91556358
C       17.24501801      46.66570663       9.78913784
C       19.80425644      44.57105637      12.39195347
C       18.15626907      45.78467941       9.25227165
C       18.93987465      45.32075882      11.55360317
C       18.96516991      45.03009033      10.16681194
C       18.09580040      46.29878998      11.98015690
C       19.66693497      43.91791916       9.77126789
C       20.43223763      43.10293579      10.57185841
C       17.22747993      46.89869308      11.17301369
H       21.27287865      42.91279221      12.43279362
H       16.71232605      47.23921204       9.06274796
H       19.90502548      44.95586395      13.41238403
H       18.18024635      45.54385757       8.20824623
H       18.17797852      46.55052185      13.00265026
H       19.48166847      43.71237564       8.71679783
H       20.88597488      42.17242050      10.21506214
H       16.45089340      47.61812973      11.47936821
C       26.19173431      57.48500824       4.56747770
C       25.96633148      56.96701050       9.59560966
C       25.26950264      57.94137192       5.56823254
C       26.50572014      56.18128967       8.58244896
C       25.37618065      57.65605545       6.94664621
C       26.27808380      56.60658264       7.23427582
C       24.87195778      58.36516571       8.06489944
C       26.99482727      55.90787888       6.22068262
C       27.01122856      56.38032532       4.90811586
C       25.09949684      58.00762558       9.34704018
H       26.17000961      57.91440201       3.56052923
H       26.37600136      56.68470383      10.57166862
H       24.46852684      58.64914703       5.41975498
H       27.34851456      55.49958038       8.70928383
H       24.17131996       0.22242302       7.85785675
H       27.42515755      55.04485321       6.63311958
H       27.71137810      55.86133957       4.31682253
H       24.67493248      58.45429611      10.22077465
C       14.97145176      35.13653183       3.19928217
C       19.24526405      37.81324768       3.64639354
C       16.22554207      34.89220047       3.62387323
C       17.94880104      38.10657120       3.19222951
C       17.27472877      35.84325790       3.62592721
C       16.90836143      37.13534546       3.11712122
C       18.51692581      35.57474899       4.17019415
C       15.60975647      37.37104416       2.52883768
C       14.68268585      36.36778641       2.63601708
C       19.56074333      36.47620010       4.05793953
H       14.18663406      34.42900085       3.13884807
H       20.05079651      38.51208496       3.65345573
H       16.43133926      33.92127991       4.13747549
H       17.82000732      39.15757370       2.99233150
H       18.68556786      34.65187836       4.68816471
H       15.47540474      38.29460526       1.95494461
H       13.73011017      36.47337341       2.21766639
H       20.58583832      36.24580765       4.39641190
C       19.38746071      55.42144012       9.47046280
C       22.83077812      51.89932251      10.42179394
C       19.86957359      54.82901764      10.58621025
C       22.02459908      52.15490341       9.31739140
C       20.71047783      53.72227478      10.64371395
C       21.12199211      53.17288971       9.41256142
C       21.41629601      53.27816010      11.75439835
C       20.54506111      53.68991470       8.18269730
C       19.74893379      54.78750229       8.23196125
C       22.45216179      52.42111969      11.64880657
H       18.79804802      56.28483200       9.63940048
H       23.64223289      51.17220688      10.36678123
H       19.56872749      55.13789749      11.58769512
H       22.21872711      51.70632553       8.38849163
H       21.12254906      53.72509766      12.71682930
H       20.85931778      53.30178070       7.16718435
H       19.51706123      55.31428909       7.34473324
H       23.05308342      52.22675705      12.52196598
C       26.38867378      45.09291840       3.06382012
C       21.49717522      45.93430710       2.19067359
C       25.61035347      46.15517044       2.65711355
C       22.16013145      44.78715515       2.49859834
C       24.24345970      46.08218765       2.39825583
C       23.60663605      44.79826355       2.62058973
C       23.54984283      47.20773315       2.09152007
C       24.46076775      43.68324661       2.92932963
C       25.80269241      43.79364395       3.06041002
C       22.18961143      47.16996765       2.02214265
H       27.42905617      45.23521423       3.32525897
H       20.42623901      45.86692047       1.96520066
H       26.05415344      47.13224030       2.51408124
H       21.70195007      43.74845123       2.47017908
H       24.04786110      48.15106201       2.02095461
H       23.96012306      42.70312500       2.99731040
H       26.39202690      42.91156006       3.32439041
H       21.60913086      48.07278061       1.86081862
C       -2.38272262      47.05664825      16.98828316
C        1.24984634      49.78128433      19.27675056
C       -1.41501582      47.89006042      16.55628777
C        0.21474551      48.91689682      19.69891548
C       -0.39577788      48.38772964      17.40771675
C       -0.59612077      48.18474960      18.87914658
C        0.68652445      49.24274445      17.02286530
C       -1.70876658      47.38925552      19.28212738
C       -2.48494196      46.76099777      18.35360146
C        1.46564174      49.91988754      17.91452217
H       -3.12068701      46.70519257      16.25374031
H        1.79500008      50.24150467      20.05420685
H       -1.25775492      48.03599930      15.49514103
H        0.03979306      48.81921387      20.78339195
H        0.81862515      49.42248154      15.98102188
H       -1.83126044      47.15967178      20.31768036
H       -3.37540913      46.27333069      18.72609901
H        2.24275541      50.54863739      17.48549080
C       32.04418564      51.14732361       5.00120831
C       28.74204445      47.64772797       3.87687397
C       32.21723557      49.83370590       4.65173101
C       28.66820335      48.96212006       4.47589731
C       31.08647347      48.98190689       4.56532621
C       29.80386353      49.65248108       4.74486256
C       31.10032654      47.70593262       3.97488689
C       29.61924744      50.91664124       5.27744579
C       30.78290749      51.64658737       5.42529154
C       29.97089767      47.04708862       3.58872652
H       32.93824005      51.78400421       4.93765306
H       27.83813095      47.10747910       3.62628174
H       33.21458054      49.50272751       4.21595240
H       27.71132851      49.48061752       4.69589329
H       32.09718704      47.27144623       3.77845526
H       28.62199593      51.34977722       5.48152256
H       30.69489670      52.64057922       5.82372570
H       30.01722145      46.08109283       3.07633424
C       21.61459160      46.97616196      13.57156563
C       18.02199554      47.72476959      17.04606438
C       20.49540901      47.70544434      13.54192638
C       19.15238953      46.92350769      16.88866997
C       19.56118202      47.66064072      14.62761021
C       19.88572884      46.78492737      15.76287556
C       18.40181923      48.44614792      14.70045662
C       21.13544655      46.05466080      15.73002720
C       21.93949127      46.11209488      14.61614895
C       17.69385338      48.53041458      15.90721416
H       22.08889389      46.78196716      12.65218163
H       17.50434303      47.86175919      17.94304085
H       20.21272087      48.33789825      12.68322659
H       19.53663635      46.39027023      17.74664116
H       18.17400169      49.04672241      13.83548164
H       21.39431381      45.47285461      16.63789177
H       22.81956863      45.42678070      14.40360165
H       16.90519524      49.28614426      16.00515175
C        9.33994484      42.10139465       1.90696359
C       11.95108414      46.22368240       0.75619435
C       10.51784420      42.59947205       2.22831631
C       10.66679192      45.84589767       0.43224400
C       11.01443291      43.83467102       1.71807957
C       10.15454102      44.60752487       0.96403593
C       12.32911873      44.25112152       2.00226569
C        8.91124153      44.11584854       0.59938592
C        8.51508141      42.83443832       1.05356419
C       12.79906368      45.42809677       1.57609987
H        8.95696831      41.19414139       2.29624271
H       12.20223236      47.23025131       0.39702961
H       11.34227276      42.05973053       2.73080826
H       -8.63300991      46.57468033      28.34748650
H       12.90155220      43.68362427       2.68913865
H      -10.49113274      44.56119156      28.31670761
H        7.54157495      42.40004349       0.67101866
H       13.81352425      45.65508270       1.70629334
C       18.60008812      50.67312241      11.15840054
C       18.37467384      50.31703949       6.00130844
C       18.80341148      49.70681763      10.22086811
C       18.34768677      51.33920670       6.95450974
C       18.72285652      49.85185242       8.77570629
C       18.45767593      51.14579010       8.35254002
C       18.89307213      48.80776596       7.81505060
C       18.17035294      52.19304276       9.26206684
C       18.33855820      51.97714233      10.62964058
C       18.74579048      49.03554153       6.45705366
H       18.62621880      50.36464310      12.19117451
H       18.37391853      50.55735397       4.89164495
H       19.11107445      48.78177261      10.57331371
H       18.11775780      52.39701843       6.67200232
H       19.31350136      47.88098145       8.16995907
H       17.94207573      53.20166016       8.95659637
H       18.15513229      52.81062698      11.31030273
H       18.93297386      48.23755646       5.81097031
C       35.41112518      40.35968018       6.10658264
C       36.14152145      39.14734268       1.27642035
C       36.15452957      40.80084991       5.06366253
C       35.45266342      38.50060654       2.27539086
C       36.20542526      40.19304657       3.80462694
C       35.49074554      39.00549698       3.60877061
C       36.88906860      40.80540466       2.76513457
C       34.70880508      38.47381592       4.63413906
C       34.69096756      39.16620255       5.81660414
C       36.86763382      40.31123352       1.44111514
H       -4.51863289      40.91793060       6.98493195
H       36.18971634      38.68993759       0.27890730
H       -2.97295880      41.71350479       5.15212393
H       34.95109558      37.54574966       2.04441357
H       37.41322327      41.70247269       2.93903995
H       33.97648239      37.72780609       4.47424269
H       34.01682663      38.77714157       6.57827711
H       37.41891098      40.84449005       0.69267297
C       11.29087067      38.08581543       1.14926052
C       -6.32816553      42.69355011      27.88974380
C       12.35929680      38.92380524       1.25647068
C       -7.42711926      41.92233658      27.79875755
C       12.35507107      40.20405579       0.61527139
C       -7.58600616      40.63597107      28.43258476
C       13.51194477      40.98938370       0.64785242
C       -8.67292595      39.70626068      28.48909760
C       10.11564541      38.45679474       0.48080799
C       13.58839798      42.19969559       0.00113951
H       11.50891876      37.09619904       1.54159439
H       -6.44515038      43.72055817      27.53994560
H       13.31565285      38.56864166       1.65819311
H       -8.20917702      42.33842850      27.14855576
H       14.36981010      40.71640396       1.26650763
H       -9.57648849      40.14208221      28.03976059
H        9.24237728      37.86639023       0.40703413
H       -4.32805157      42.79492950      28.33403397
C        4.02837181      40.51379776       6.54362869
C        3.40267038      38.43395996       1.92197454
C        4.81859112      39.50265503       5.81019115
C        3.34092879      39.77061462       2.31532669
C        4.26972771      39.15816116       4.47221088
C        3.69754004      40.13681030       3.63728285
C        4.24934721      37.85670471       4.06955194
C        3.93647337      41.53664017       4.07380867
C        4.12122822      41.75235748       5.65571070
C        3.89236522      37.50029755       2.77903891
H        4.53046989      40.75523758       7.49817753
H        3.04974270      38.17210770       0.91901946
H        4.73527765      38.66107941       6.47780943
H        2.88661361      40.51157761       1.65509498
H        4.46973419      37.06854630       4.75780535
H        3.33563900      42.22500610       3.59357452
H        3.46633577      42.57048416       6.04916143
H        4.14076281      36.56559753       2.35628676
C       25.33097649      33.74914169       6.12419796
C       23.98311424      34.89720535      10.71608830
C       25.44086647      34.87792587       6.87976265
C       24.12298012      33.68539047      10.06244183
C       24.88805389      34.93948746       8.12836361
C       24.54790115      33.72902679       8.71355534
C       24.79786301      36.12895584       8.82261753
C       24.63156128      32.46366501       7.97966862
C       24.95273590      32.51293182       6.67938471
C       24.24349022      36.11248398      10.04055405
H       25.67225456      33.82716370       5.05270290
H       23.43979454      34.87295914      11.65039539
H       25.81133270      35.76077652       6.38248110
H       24.04112053      32.74632645      10.56475258
H       25.12245750      37.06802368       8.44801235
H       24.30836105      31.57956696       8.42222595
H       24.79816246      31.67377472       5.96600723
H       23.96459961      36.99603271      10.61702538
