7200
Lattice="39.763004303 0.0 0.0 0.0 58.9316482544 0.0 -18.8008785248 0.0 28.526468277" Properties=species:S:1:pos:R:3 step=0 time_fs=0.0 pbc="T T T"
C       32.04297256      24.30854225       3.05667281
C       32.89019775      26.70656776       5.60533667
C       36.23721695       1.26342785       4.98079872
C       36.01555252      26.95180893       3.23154831
C       32.74948883      25.17864799       2.27815151
C       32.09033203      27.61861038       6.22945166
C       35.40280914       0.51854783       5.75583410
C       36.51131821      25.99373245       2.38815975
C       33.09288025      24.85280609       0.94609767
C       31.60523415      27.39290237       7.53439999
C       35.05322266       0.95138234       7.07013130
C       37.13348389      26.35381126       1.16956091
C       28.93527794      25.47697258       7.28853607
C       36.75134659      28.70224190       1.74674642
C       38.84815979       0.30629385       0.77700466
C       32.75334930      25.24564934       7.51213121
C       -1.26785815       0.71822929       2.02906966
C       33.24131012      25.50542068       6.25700712
C       29.32827950      25.12896156       6.03015137
C       36.12068176      28.31920433       2.89924765
H       31.77717781      24.57468605       4.06256199
H       33.25294113      26.93051529       4.60734558
H       36.48468781       0.92612946       3.99021363
H       35.52698898      26.68787193       4.14977360
H       33.06198120      26.15209579       2.65727234
H       31.81818390      28.54227257       5.72285795
H       34.99884796      58.49491882       5.42144299
H       36.42615128      24.94624329       2.63013887
H       29.16029930      26.45054436       7.69645405
H       36.81523895      29.75656128       1.49919152
H       38.42443848      58.34388351       0.34414491
H       33.01467133      24.31431198       8.01220608
H       37.78144836       0.13027178       2.61230159
H       33.88514709      24.78136826       5.77701664
H       29.89081573      25.82555580       5.41864967
H       35.71143341      29.07811356       3.55205584
C       27.25764084      23.94013023      10.23065281
C       27.92663193      27.45928955      12.52786446
C       -7.62472582       1.74389529      12.20060062
C       30.60746002      26.85369682      10.08860302
C       27.89872742      24.86387634       9.45272160
C       27.24297714      28.35439682      13.29552078
C       -8.26650620       0.91699350      13.06346035
C       31.38318253      25.92292976       9.46184921
C       28.25709152      24.55148888       8.12047958
C       27.03930092      28.12446022      14.68680668
C       -8.56972408       1.35292459      14.37728119
C       31.92096329      26.16811180       8.18217564
C       24.57738495      25.54620743      14.71632099
C       30.81230545      28.34394455       8.21363354
C       34.19347382       0.20364748       7.90960312
C       28.26227760      26.02443886      14.43909550
C       -5.90333748       0.65373957       9.15704918
C       28.44025421      26.27627754      13.11234093
C       24.96344376      25.19523430      13.45476532
C       30.31284332      28.08102417       9.46153641
H       27.00944519      24.20370674      11.25737762
H       28.08026123      27.64767456      11.46868229
H       32.36455536       1.39079869      11.18991661
H       30.23155212      26.66746521      11.10745239
H       28.13984871      25.83403778       9.84407902
H       26.83742714      29.27545929      12.84665680
H       31.21610260      58.83790970      12.77740955
H       31.64139175      25.00056267       9.96073437
H       24.87549591      26.49409676      15.12092686
H       30.60141754      29.29628754       7.72743797
H       33.83331299      58.18274689       7.56741762
H       28.64381409      25.10564804      14.89905453
H       33.21709824       0.04738271       9.79440880
H       28.97173119      25.53203392      12.49547768
H       25.56664848      25.86530113      12.87555504
H       29.69312477      28.82104111       9.96474743
C       22.63936234      24.12627602      17.55769348
C       23.85494423      27.31181908      19.95870781
C      -12.48248959       1.44904685      19.53675842
C       26.64643097      27.59094620      17.41129875
C       23.41650391      24.98444366      16.83191872
C       23.16869354      28.16493416      20.77307892
C      -13.04299355       0.52387208      20.37221336
C       27.35685730      26.70563507      16.63853073
C       23.79472160      24.66040421      15.50598907
C       22.64496231      27.71472359      22.00769806
C      -13.24005985       0.80428493      21.74048614
C       27.56819725      26.95037079      15.26317120
C       19.78569031      25.63868904      21.61719131
C       26.28965569      29.01472092      15.49447155
C       -9.21744061       0.50846720      15.30472851
C       23.61794090      25.52406311      21.55053329
C       -9.58381653       0.97343934      16.53679466
C       24.06608391      25.96885490      20.34065437
C       20.12338066      25.24524117      20.34899330
C       26.09691048      28.75378418      16.81661797
H       22.34159088      24.40857887      18.57005310
H       24.23580170      27.66501427      18.99839020
H       27.45392418       1.20693457      18.50181007
H       26.49832726      27.38640594      18.45627022
H       23.74700356      25.93778419      17.25211906
H       23.01121330      29.19075394      20.46884537
H       26.43725395      58.47607040      19.98472214
H       27.77021790      25.80286980      17.07529449
H       20.09962845      26.61631775      22.00646973
H       25.86807823      29.88702965      15.05538177
H       -9.42163944      58.42807388      15.00114155
H       23.79813194      24.52655029      21.86893082
H      -10.06923199       0.30894896      17.24731064
H       24.59081268      25.28846931      19.68041039
H       20.70940399      25.89562035      19.72761726
H       25.51657486      29.44784546      17.41712189
C       17.91518593      24.32460976      24.55257225
C       19.50555229      27.12767029      27.27472877
C      -17.42740822       1.32651508      26.55937958
C       21.76689720      26.81150436      24.50798607
C       18.65528488      25.16421318      23.77321815
C       19.08702087      28.08391571      28.14950371
C       21.41206551       0.61300087      27.26675224
C       22.47491837      25.97255898      23.70054245
C       19.03104591      24.77978516      22.45795441
C       37.26993561      27.73728752       0.84705627
C        0.04801724       1.03228462       0.03030564
C       22.91521835      26.38924980      22.42378616
C       33.82929611      25.73674774       0.12544443
C       21.86059570      28.54777718      22.83740425
C      -13.69893646      58.76232147      22.65829468
C       37.62432480      25.38729286       0.25993153
C      -13.85204983       0.13034372      23.98039055
C       19.37696648      25.76115990      27.59373665
C       15.35507393      25.39230728      27.36863899
C       21.43381691      28.11404610      24.05751419
H       17.62262917      24.63025284      25.53826332
H       19.94669533      27.44140434      26.34528160
H       22.63416100       0.98773342      25.58547592
H       21.46247101      26.47916031      25.48345566
H       18.95151901      26.12584305      24.13297081
H       19.22873878      29.14161682      27.92484856
H       20.95599747      58.64384460      26.85685349
H       22.69912338      24.96639824      24.02706718
H       34.15169144      26.69786835       0.52757335
H       21.62077332      29.54829216      22.51374626
H      -13.92575836      57.75704956      22.29821968
H       37.55511856      24.35249329       0.53579205
H      -14.16543484      58.28975677      24.69170570
H       19.74432564      25.00462532      26.92402077
H       15.92870331      26.07448578      26.73760223
H       20.86039543      28.78670883      24.69262886
C       32.05355835       2.04524446       3.36837649
C       32.63288498       5.15003586       5.54408073
C       -2.84887981       7.26834536       5.45020247
C       35.82491684       4.68365431       2.94647312
C       32.81718063       2.88085747       2.60016561
C       31.89925385       5.94801998       6.37108135
C       -3.66897392       6.45711613       6.18223524
C       36.44559479       3.82926965       2.08701587
C       32.83078003       2.73269367       1.18825245
C       31.55689239       5.51177025       7.67731380
C       -4.03091812       6.79228497       7.50662470
C       36.75261688       4.22767973       0.76175272
C       29.21480942       3.38925862       6.36545944
C       35.73034286       6.37931776       1.24752963
C       -0.13116859       5.92992163       1.11931860
C       32.62136078       3.38696933       7.18223524
C       -0.48479977       6.24546242       2.39878345
C       33.03048325       3.86190701       5.97024775
C       29.28608131       2.79920769       5.13822889
C       35.45300293       5.98031330       2.52486825
H       32.07135773       2.12195182       4.44434786
H       32.91619492       5.49795055       4.55658674
H       -2.53975964       6.96261740       4.44765663
H       35.60086060       4.34954929       3.96299458
H       33.43690109       3.61285257       3.05218434
H       31.57999802       6.92673683       6.06254482
H       35.71420288       5.50429010       5.75942183
H       36.68382645       2.81844187       2.39805150
H       29.57951355       4.36804914       6.51565933
H       35.42776108       7.35112190       0.89504200
H       39.27077103       5.01712894       0.65860635
H       32.87498856       2.36868763       7.48850536
H       -1.11638618       5.59119272       2.94575143
H       33.64025879       3.23231030       5.32715702
H       29.72563934       3.31093836       4.30406952
H       34.93112183       6.66230488       3.21011782
C       27.77960205       2.66152596       9.71773720
C       27.95888329       4.76695776      12.51636410
C       -7.75559998       7.62282467      12.52460384
C       30.91826057       4.61943674      10.24617481
C       28.40719414       3.31952047       8.70306015
C       27.18874550       5.57691860      13.30204582
C       -8.57803535       6.77887154      13.21766472
C       31.57146645       3.78621960       9.38705826
C       28.63785362       2.69240642       7.45879841
C       26.93458176       5.22538233      14.65817547
C       -8.90466309       7.05023766      14.57106686
C       31.91035461       4.21157265       8.08427811
C       24.45563507       2.96936941      14.40419865
C       30.86077309       6.35334587       8.58145142
C       -4.86520338       5.96673822       8.30090618
C       28.23513603       3.18763804      14.31593704
C       -5.19270039       6.32201338       9.57108116
C       28.48704529       3.55978179      13.03350067
C       24.68632889       2.64128423      13.09852505
C       30.56084061       5.92239666       9.84509563
H       27.52109718       3.14307308      10.63707352
H       28.15404701       5.04197454      11.49208641
H       -7.51660109       7.39373493      11.48870659
H       30.66446877       4.28424120      11.24129581
H       28.70212364       4.35024500       8.82729912
H       26.76730156       6.51459503      12.93472481
H       30.76058197       5.91231298      12.74093437
H       31.82944298       2.78188086       9.70865154
H       24.42177963       4.01319456      14.73104763
H       30.59971619       7.34683943       8.26768589
H       34.52258301       5.05879688       7.85712337
H       28.63953781       2.26698804      14.72614384
H       -5.84246445       5.69522095      10.17899799
H       29.10208511       2.93212199      12.41666794
H       24.85256767       3.41877675      12.34320354
H       30.00717545       6.58521557      10.50858116
C       23.86446571       1.27168989      17.66126251
C       23.64374924       4.57827950      19.96721077
C      -12.26550961       7.35336733      19.71893692
C       26.47705650       4.51417017      17.31965446
C       23.98621178       2.26734614      16.73397064
C       22.86166191       5.43366480      20.68292809
C      -12.99230766       6.48354530      20.47819328
C       27.21645927       3.68161559      16.52095985
C       24.29596329       1.96232212      15.38612270
C       22.44674873       5.10435963      21.99706268
C      -13.31452370       6.78264046      21.82102013
C       27.45583344       4.02177286      15.17010784
C       19.71170044       3.34112334      21.61072540
C       26.18782806       6.07014227      15.50933170
C       -9.72161198       6.16838121      15.32054615
C       23.63194084       2.98625565      21.77710724
C      -10.03400707       6.44547176      16.61940384
C       24.04779243       3.34425116      20.52790070
C       20.18100166       3.02610970      20.36335373
C       25.95200539       5.71613073      16.80810928
H       23.55612755       1.50248098      18.69373512
H       23.96584892       4.83769417      18.95642471
H      -12.03097630       7.09634590      18.69183731
H       26.29440498       4.22603416      18.35077286
H       23.83543968       3.30617189      17.01474190
H       22.56012726       6.39317513      20.25846100
H       26.43010712       5.53886080      20.05578041
H       27.61667442       2.75152016      16.91629219
H       19.86601067       4.33347273      22.03922081
H       25.80692291       6.98516464      15.11943340
H       29.65683174       5.28910208      14.81716251
H       23.92522812       2.03172112      22.20909691
H      -10.67968655       5.76208496      17.18143463
H       24.70697594       2.69287729      19.98022652
H       20.73340034       3.76109099      19.79219818
H       25.37302971       6.36999607      17.45257759
C       17.83872795       1.78776264      24.40610504
C       18.54346848       5.07732296      26.68521500
C      -16.92756081       7.32894182      26.84512138
C       21.59365463       4.38109541      24.56381416
C       18.50698471       2.71663666      23.66279411
C       17.89167786       5.91752434      27.54313278
C      -17.72852898       6.49290943      27.55088043
C       22.36982346       3.51552677      23.83509064
C       19.01551628       2.39145541      22.38512611
C       36.39094162       5.52097607       0.33945319
C        0.68936342       6.79465437       0.35154641
C       22.81598663       3.85700941      22.54407310
C       33.71182632       3.47701144       0.35971540
C       21.66816902       6.00280571      22.78261185
C      -14.07914352       5.90337181      22.62889671
C       18.57730293       3.35171556      28.36628342
C      -14.41076088       6.23967552      23.91245079
C       18.87978554       3.77422500      27.10029411
C       15.05633926       3.16804862      27.56484413
C       21.25187683       5.64632988      24.03051758
H       17.42754555       2.02983832      25.39054489
H       18.75624084       5.41138124      25.68228912
H      -16.61177254       7.06375170      25.84198189
H       21.25744820       4.08658886      25.54252434
H       18.64261818       3.71368194      24.04787254
H       17.58539391       6.91978216      27.23842049
H       21.67572021       5.56403351      27.12468338
H       22.65718651       2.53834462      24.22426987
H       34.25719833       4.29435110       0.80380088
H       21.40104675       6.95727015      22.36456871
H      -14.41712284       4.96628618      22.20479965
H       37.62168503       2.34181833       0.14163493
H      -15.01641273       5.57681894      24.50630379
H       19.37698746       3.09746981      26.41313934
H       15.75677490       3.71941209      26.94551468
H       20.61236382       6.33539534      24.62087440
C       31.60662651       7.29687786       2.90669346
C       32.80448914      10.30774021       5.41188717
C       -2.94674754      12.76358223       5.45333481
C       35.81264496      10.14571285       3.10880780
C       32.41473389       8.15508366       2.21705079
C       32.03322220      11.16208363       6.15109539
C       -3.67869496      11.92128754       6.24542379
C       36.62456131       9.32711887       2.37707329
C       32.76881790       7.87735844       0.87303144
C       31.72825623      10.87155151       7.49915361
C       -3.99595594      12.27203465       7.58333921
C       36.94439316       9.63016510       1.03188622
C       28.97896194       8.96314240       7.15036726
C       35.60162354      11.65304375       1.23337734
C       -0.04163396      11.44619179       1.25636995
C       33.00395966       8.81466389       7.28872252
C       -0.38679412      11.81037521       2.52646971
C       33.29475021       9.11976147       5.98307419
C       29.28540993       8.59249210       5.86931944
C       35.28591537      11.32236671       2.52817607
H       31.36016083       7.52519417       3.90712619
H       33.04132462      10.53062344       4.37614441
H       -2.70269561      12.46713161       4.43423033
H       35.58297348       9.88471222       4.12378740
H       32.79245377       9.08406925       2.68082738
H       31.64200783      12.06804180       5.73786736
H       35.74192810      10.94734955       5.86359978
H       37.03672791       8.43449879       2.81573653
H       29.33436394       9.88752365       7.55431175
H       35.22435761      12.56427193       0.80312955
H       -0.34024712      10.49087334       0.88954175
H       33.37315750       7.91309834       7.73932934
H       -0.97061652      11.14238739       3.15479207
H       33.90490341       8.44900036       5.40213346
H       29.90386581       9.22858620       5.25188160
H       34.63855743      11.98565388       3.11444306
C       27.12556458       7.64870834      10.09211063
C       28.05018234      10.44614601      12.57977200
C       -7.70522070      12.87094307      12.59572029
C       31.13499641      10.24027252      10.16830826
C       27.88471222       8.47504234       9.31340885
C       27.27587891      11.26465702      13.35764885
C       -8.46487045      12.02770233      13.35111332
C       31.91619110       9.39350128       9.42898369
C       28.18421364       8.12742996       7.97275019
C       26.91020584      10.89056301      14.67538929
C       -8.79306793      12.35053539      14.69346905
C       32.22315598       9.67992401       8.07270336
C       24.12570000       8.77574635      14.40464592
C       30.93852234      11.74356270       8.29713154
C       -4.74604273      11.41818428       8.41343689
C       28.07370567       8.77574635      14.32253075
C       -5.07232332      11.78647041       9.68926716
C       28.45014381       9.18349743      13.07684612
C       24.44324684       8.45324421      13.11929512
C       30.63746452      11.42607784       9.58691788
H       26.91554070       7.94904280      11.13305569
H       28.34782600      10.75594807      11.58418274
H       -7.42938614      12.59887886      11.58358765
H       30.88427353       9.97717094      11.18903923
H       28.26592636       9.41036606       9.69503117
H       26.96588135      12.24196434      12.97788906
H       30.95037079      11.09111118      12.96320629
H       32.31362152       8.47264862       9.82860661
H       24.42080879       9.73146820      14.80647945
H       30.56791306      12.65609360       7.86770678
H       -5.07530737      10.46916866       8.02112389
H       28.36387825       7.81849623      14.68760967
H       -5.67779303      11.14247704      10.28969955
H       29.06620979       8.54499435      12.44190502
H       24.98530006       9.12897205      12.50872803
H       30.01601410      12.11129951      10.18147278
C       22.45682716       7.27503347      17.36973763
C       23.54454803      10.17603970      19.73144531
C      -12.26386452      12.85527515      19.76001930
C       26.24801636      10.10864162      17.28823280
C       23.11013031       8.17907906      16.58115768
C       22.79519653      11.03897476      20.48724937
C      -13.00086498      11.98922825      20.52614975
C       26.97705078       9.26144695      16.49202728
C       23.43126297       7.86925650      15.23310947
C       22.46915627      10.72687721      21.83095741
C      -13.34725571      12.31399250      21.86373901
C       27.31679153       9.62707329      15.16268826
C       19.74562454       8.86742401      21.53584671
C       26.16911316      11.74666882      15.52085018
C       -9.56997204      11.48232269      15.50012112
C       23.67787170       8.62872601      21.57188416
C       -9.88392544      11.82619953      16.78482628
C       23.99389839       8.95502186      20.28578758
C       20.10811996       8.49551678      20.26997757
C       25.83652306      11.36726093      16.79626656
H       22.21718597       7.51849031      18.40479469
H       23.78140640      10.43348026      18.69666862
H      -11.99953175      12.58083153      18.76454926
H       26.01422119       9.80905914      18.30167389
H       23.38798714       9.13095474      16.96483040
H       22.43133926      11.98817062      20.06258202
H       26.44548035      11.03212357      20.12255096
H       27.30963326       8.27618980      16.86540985
H       20.06663704       9.83016586      21.95275497
H       25.87791061      12.70883369      15.13819981
H       -9.92853260      10.54459858      15.06878185
H       23.99859619       7.70458508      21.99657822
H      -10.48826694      11.14679527      17.38489532
H       24.56501961       8.28716755      19.70228004
H       20.73672104       9.15957260      19.69310379
H       25.26835060      12.05720329      17.42701530
C       17.73479652       7.57401466      24.37930679
C       18.77922440      10.30648232      26.91405678
C      -16.98001671      12.82268524      26.87479782
C       21.83409309      10.06034470      24.47029495
C       18.54733086       8.38100624      23.64587212
C       17.95973778      11.11877060      27.63553619
C      -17.72272110      11.97406864      27.63419724
C       22.58840370       9.20099735      23.71921158
C       18.94114304       8.01802254      22.33569717
C       36.43053055      10.80726433       0.45367894
C        0.71644557      12.32272720       0.43959501
C       22.91593361       9.51640892      22.37718582
C       33.58831406       8.76398563       0.12453991
C       21.69803619      11.60840034      22.63283157
C      -14.09508896      11.43144321      22.67358780
C       37.77230453       8.78196144       0.24422029
C      -14.45027828      11.77443981      23.94836044
C       19.28647041       9.11326313      27.48637390
C       15.14765930       8.46301937      27.36490822
C       21.37956619      11.28283119      23.92417526
H       17.42673683       7.86441994      25.35954857
H       19.03316879      10.57064247      25.89583969
H      -16.68984795      12.55615330      25.89140320
H       21.59166145       9.81064034      25.50267220
H       18.89528275       9.33435631      24.03548813
H       17.56461716      12.02750969      27.19373512
H       21.72263718      11.02210617      27.25599480
H       22.93639755       8.26531696      24.11752129
H       33.92878342       9.68498898       0.58799541
H       21.36398125      12.53514099      22.20279312
H      -14.38230515      10.47406769      22.25739098
H       38.13985062       7.87328053       0.69794482
H      -15.02626419      11.09676361      24.56009102
H       19.91356468       8.45436573      26.90596771
H       15.78184700       9.12965965      26.79026413
H       20.77757835      11.97616863      24.52093887
C       31.71881294      13.01125050       3.01762009
C       32.87763977      15.71202660       5.40814114
C       -2.91081309      18.14887810       5.49657917
C       35.64222336      15.45457363       2.98002124
C       32.47488022      13.86777306       2.26451039
C       32.08182526      16.52853012       6.15530539
C       -3.71848583      17.32081413       6.22862291
C       36.46413422      14.64449787       2.24905825
C       32.85158920      13.52967453       0.94306386
C       31.73394585      16.19151115       7.48619127
C       -4.05991077      17.63722801       7.56032658
C       36.85219192      15.00258350       0.92701232
C       28.90301323      14.32861805       7.20297146
C       35.57515335      17.06068230       1.17565787
C       -0.12504137      16.95338631       1.14678776
C       33.00940704      14.12585354       7.21539497
C       -0.48547691      17.31870079       2.41260672
C       33.34394836      14.48919392       5.94141722
C       29.23151588      13.98387527       5.92263269
C       35.18714523      16.68172646       2.43914223
H       31.41407394      13.29693699       4.02001190
H       33.15765381      16.00092316       4.40448475
H       -2.64231014      17.86917114       4.47662640
H       35.34462738      15.14870930       3.96849370
H       32.77392197      14.81274319       2.66043305
H       31.71219063      17.46267509       5.77306032
H       35.68519211      16.39831734       5.79652452
H       36.82567978      13.70883656       2.63568878
H       29.25445175      15.26283550       7.63307667
H       35.22603226      17.99194336       0.75632185
H       -0.43867517      16.01156235       0.72092646
H       33.33372498      13.20244312       7.63757658
H       -1.10104501      16.64495659       3.01135445
H       33.97117615      13.84036446       5.33707619
H       29.84224701      14.64561272       5.32991409
H       34.51158524      17.30608559       3.01273370
C       27.00137329      12.94820690      10.08894539
C       28.16137695      15.74549294      12.59239101
C       -7.66078663      18.31329155      12.64315796
C       31.10491943      15.47925854      10.12253857
C       27.77890778      13.78755283       9.34572983
C       27.43185425      16.60809517      13.36329746
C       -8.44130611      17.48451996      13.40178680
C       31.87941933      14.64082527       9.36225605
C       28.11621475      13.46703053       8.00598717
C       27.09911346      16.28608322      14.69666004
C       -8.76796627      17.82299423      14.73914242
C       32.20627213      14.96871090       8.01977921
C       24.28137588      14.40298462      14.37561417
C       30.96086311      17.04855347       8.29837894
C       -4.87363911      16.78482628       8.35058117
C       28.26383591      14.16613197      14.40299988
C       -5.20984221      17.12301254       9.62908554
C       28.57136536      14.50363827      13.12247372
C       24.60578918      14.06078720      13.09497643
C       30.63670540      16.70417213       9.58037758
H       26.75190735      13.22449303      11.08913326
H       28.41575050      16.02127266      11.56768131
H       -7.40632677      18.02979660      11.61945915
H       30.86988831      15.22343636      11.13914108
H       28.14995003      14.71657658       9.76070976
H       27.09979820      17.58247757      12.95509911
H       30.95706940      16.54729843      13.00078583
H       32.25411606      13.71955681       9.77026558
H       24.65045738      15.33948326      14.79752445
H       30.62054443      17.98807335       7.88553810
H       -5.21565056      15.86949253       7.92650843
H       28.57712555      13.21850967      14.80425262
H       -5.83786440      16.46916199      10.21777821
H       29.15500450      13.82289028      12.51187134
H       25.22233772      14.71179581      12.51014137
H       30.03614044      17.38379669      10.17747211
C       22.45159912      13.00293732      17.30463791
C       23.54542923      15.75580597      19.77380562
C      -12.19554901      18.36783791      19.78634071
C       26.47763252      15.59364319      17.34154320
C       23.19501305      13.85916138      16.52928162
C       22.80737877      16.60393906      20.55262756
C      -12.98267174      17.52953148      20.51073265
C       27.20716667      14.72677422      16.57371140
C       23.50611114      13.54187393      15.18857861
C       22.46517563      16.25852013      21.88283157
C      -13.34639454      17.84793091      21.84186554
C       27.52121353      15.04219437      15.23122883
C       19.67459869      14.43013382      21.52416611
C       26.37099648      17.16809463      15.52588272
C       -9.54385090      16.96205139      15.55895901
C       23.63684463      14.14350986      21.55992889
C       -9.87055969      17.32657433      16.83516312
C       23.96070099      14.50761223      20.28378296
C       20.02655220      14.07568932      20.25207901
C       26.05734825      16.83290291      16.81176567
H       22.21725655      13.25951958      18.32056046
H       23.79506302      16.03437614      18.75897598
H      -11.90407085      18.08714104      18.75728798
H       26.24744415      15.31977272      18.34600067
H       23.55056572      14.78295040      16.93019676
H       22.45148277      17.55928040      20.18161011
H       26.42934799      16.58052444      20.08812904
H       27.53709793      13.77942371      16.95933342
H       19.99849701      15.37897587      21.93425369
H       26.06225967      18.12202263      15.11905289
H       -9.88605785      16.01609802      15.15642071
H       23.94420624      13.18179035      21.96381187
H      -10.48644543      16.66672516      17.44080162
H       24.56857872      13.83406734      19.66513824
H       20.63860321      14.76133919      19.66092682
H       25.51029015      17.51130676      17.43196487
C       17.75177956      13.05199528      24.40168953
C       18.80388641      15.76325989      26.87410736
C      -16.94911003      18.28914642      26.81580925
C       21.76677322      15.48142052      24.48705292
C       18.52398300      13.90794945      23.65132141
C       17.99397087      16.58423042      27.60687256
C      -17.75263596      17.45993805      27.55339050
C       22.52226257      14.64747143      23.71280289
C       18.89942360      13.55802822      22.33412743
C       36.40452957      16.22573280       0.39590326
C        0.67185062      17.80887794       0.34675544
C       22.88287163      15.00518990      22.38970375
C       33.61485291      14.40250587       0.14083919
C       21.71210670      17.12290955      22.71340942
C      -14.14770603      16.98456573      22.63177299
C       37.67364502      14.15977669       0.14511925
C      -14.48900223      17.32763672      23.90542221
C       19.25330734      14.53819466      27.40943336
C       15.17993164      14.05586815      27.39766884
C       21.35346985      16.73973656      23.97194862
H       17.47004127      13.33209801      25.42585564
H       19.11209869      16.05438614      25.87948799
H      -16.66976547      17.98442268      25.81387520
H       21.47716331      15.18436718      25.46383667
H       18.86364937      14.86551094      24.03742981
H       17.62194252      17.52440834      27.20554924
H       21.67219543      16.51825142      27.14829254
H       22.84263802      13.68670654      24.09514999
H       33.91632080      15.35740280       0.56198168
H       21.40408325      18.06736374      22.33045578
H      -14.47588825      16.06372833      22.19247246
H       38.00540924      13.23140144       0.56386989
H      -15.11706829      16.66284561      24.49003029
H       19.89964294      13.89198494      26.82682419
H       15.76228428      14.74000359      26.78469276
H       20.76303482      17.42228699      24.58681488
C       31.73136139      18.50912476       2.99784207
C       32.73974228      21.17771721       5.36310530
C       -3.27062821      23.29108429       5.42434216
C       35.61763382      20.97186089       2.92820954
C       32.48144531      19.35495949       2.23485804
C       32.03416443      22.03470039       6.15772104
C       -3.96374536      22.49913216       6.30182838
C       36.42164612      20.14378548       2.19534326
C       32.84720230      19.02029991       0.90332645
C       31.74717522      21.68875122       7.49869871
C       -4.30229807      22.98449707       7.59381056
C       36.85911179      20.50855637       0.90259129
C       29.03421021      19.81198692       7.23537683
C       35.65752029      22.61489677       1.15450406
C       -0.00688936      22.54046440       0.97002876
C       32.91154480      19.57583427       7.15567732
C       -0.45356309      22.83525276       2.22454286
C       33.18688583      19.92458153       5.86399794
C       29.32190323      19.48374367       5.93835163
C       35.22277451      22.22690392       2.39212036
H       31.45704460      18.79088211       3.99703002
H       32.96201324      21.46918297       4.33162689
H       36.78225327      22.89976883       4.46044683
H       35.28418732      20.66590309       3.92529011
H       32.80107117      20.30251122       2.62584305
H       31.67740631      22.98453331       5.78766632
H       35.51799774      21.47973061       6.03988171
H       36.72044754      19.19430161       2.60896945
H       29.38674927      20.71886063       7.68224049
H       35.35527039      23.57256699       0.74448127
H       -0.22123313      21.59958649       0.51665729
H       33.24417877      18.62612152       7.52209568
H       -1.03624499      22.10779762       2.78904295
H       33.74994659      19.24777985       5.23137856
H       29.91037560      20.16298676       5.33192539
H       34.59417343      22.88433266       2.97108674
C       27.24938583      18.39912033      10.17253113
C       28.31523705      21.37804222      12.71533012
C       -7.72545767      23.67285919      12.50409985
C       31.19370079      20.95439339      10.14590740
C       28.00701714      19.24607086       9.41244316
C       27.63333702      22.24993134      13.51668262
C       -8.44691372      22.88404655      13.36085701
C       31.91321945      20.10662460       9.35298157
C       28.27688789      18.94599915       8.05955315
C       27.25258446      21.88876534      14.83120441
C       -8.79735565      23.35886574      14.64942360
C       32.18355179      20.44491196       7.99698067
C       24.45084381      19.86410713      14.54768753
C       31.01117134      22.55391884       8.34909821
C       -4.95776320      22.17729950       8.55326748
C       28.30541801      19.72053146      14.46316147
C       -5.26842308      22.66438103       9.78547859
C       28.65075302      20.09194183      13.19994831
C       24.81652832      19.51727104      13.28017426
C       30.73144913      22.18706131       9.64207077
H       27.05292702      18.64470100      11.21896553
H       28.60678291      21.66919708      11.71620941
H       -7.43967199      23.28133202      11.52333546
H       31.00196266      20.66982651      11.16930580
H       28.41267014      20.16676140       9.84902573
H       27.38331795      23.24243355      13.17168808
H       31.01235390      21.87492752      13.09405899
H       32.28839493      19.14013863       9.72165489
H       24.79529953      20.80919266      14.97516060
H       30.66713142      23.51512527       7.97188902
H       -5.19559002      21.17050362       8.26865864
H       28.57190704      18.74470329      14.86487007
H       -5.78334188      22.02654266      10.48810863
H       29.20649910      19.39407349      12.57749462
H       25.47660637      20.15423393      12.71537781
H       30.16077423      22.85212898      10.27345467
C       22.49964523      18.47251320      17.39518547
C       23.58240700      21.32500648      19.78404808
C      -12.40591907      23.94253731      19.67396355
C       26.54120827      21.10491943      17.42263031
C       23.28223228      19.32298851      16.65623093
C       22.85058403      22.18053818      20.54596901
C      -13.06952763      23.08948708      20.50245857
C       27.24947739      20.24514771      16.63978958
C       23.63729858      19.00736809      15.32272625
C       22.50582314      21.86417007      21.88695717
C      -13.43277740      23.49341965      21.81413841
C       27.60199165      20.60564041      15.31484222
C       19.75125504      19.93812561      21.57695961
C       26.54170990      22.76548004      15.68402195
C       -9.50300026      22.54965210      15.56848526
C       23.69597816      19.74676514      21.60935020
C       -9.84557438      23.02144814      16.80550194
C       24.01766968      20.08242035      20.31779099
C       20.09467125      19.58768654      20.29459572
C       26.16867828      22.37625885      16.94153786
H       22.23484421      18.73382378      18.40334702
H       23.86614418      21.58521843      18.76210785
H      -12.12476730      23.61588097      18.67822647
H       26.28775597      20.81491470      18.43033409
H       23.64861870      20.26134682      17.10425758
H       22.48600006      23.12264824      20.15417671
H       26.42610741      22.08900642      20.19193649
H       27.53723717      19.27800369      16.99176407
H       20.09311867      20.88440895      21.98949051
H       26.27339363      23.76468468      15.31041908
H       -9.77058697      21.54941368      15.26376152
H       24.01985168      18.79675102      22.04172516
H      -10.39774036      22.39132881      17.48019409
H       24.58926392      19.41062164      19.69911766
H       20.70343590      20.26096725      19.70269775
H       25.59945488      23.05148888      17.55412865
C       17.86243248      18.54819298      24.45761108
C       18.88401794      21.27907181      26.86549568
C      -16.83345604      24.11122322      26.77000999
C       21.83796692      21.14617920      24.50563240
C       18.63047409      19.39478493      23.71460342
C       18.08241272      22.12060547      27.59152031
C      -17.55398369      23.18649101      27.46997070
C       22.59966278      20.29661179      23.75076485
C       18.96588326      19.07457924      22.36965942
C       36.46522903      21.75977516       0.36952531
C        0.76490027      23.47091103       0.23895569
C       22.94005203      20.62647629      22.41653442
C       33.60858154      19.88009834       0.08744741
C       21.73803329      22.73244858      22.69305611
C      -14.10047436      22.61838913      22.71360016
C       37.67603302      19.66259575       0.11608455
C      -14.42051697      23.02709579      23.97622681
C       19.28888512      20.03772163      27.39934349
C       15.17062569      19.51117134      27.35211372
C       21.40309143      22.38348389      23.97311211
H       17.62021446      18.81429100      25.48945427
H       19.22379303      21.56183243      25.87937737
H      -16.46629715      23.85604858      25.77759361
H       21.57234764      20.87452316      25.51549912
H       19.00997543      20.30342484      24.12445641
H       17.75709534      23.08399582      27.17663002
H      -17.76413155      22.20986557      27.05025482
H       22.94750404      19.35735130      24.14891052
H       33.92872620      20.82578087       0.47833323
H       21.39491463      23.68126106      22.26448441
H      -14.35415936      21.59954453      22.35921860
H       37.96392441      18.70051193       0.52907747
H      -14.91907501      22.35856247      24.63417625
H       19.93060303      19.35809135      26.82387543
H       15.76361179      20.17851257      26.73590660
H       20.81025696      23.04880142      24.57806015
C       -0.14699659      24.08431816       2.81331468
C       -0.06479681      26.86720467       5.11152840
C        4.37358856       1.14207435       5.18783998
C        3.82856679      27.21294785       2.86723542
C        0.59621924      25.00740242       2.11901498
C       -0.90616345      27.57590294       5.91168261
C        3.45244241       0.53622234       5.99656868
C        4.55612040      26.33294868       2.11312222
C        1.05824089      24.73211098       0.81527752
C       -1.01788807      27.26860619       7.28889751
C        3.13367653       1.07804358       7.26838589
C        4.96680450      26.67865372       0.79591328
C       -3.29591346      25.11929321       6.98388910
C        3.86251640      28.83724213       1.08792841
C        7.15500593       0.95980793       0.60351068
C        0.55160648      25.44208336       6.95471096
C        6.86152840       1.35726285       1.88201022
C        0.68233550      25.79366112       5.63835716
C       -2.93267751      24.61441612       5.76901007
C        3.49564838      28.49486542       2.34990239
H       -0.51350290      24.33241272       3.81437731
H        0.02359934      27.12439156       4.05853558
H        4.64074421       0.70340759       4.23186588
H        3.51079965      26.93649101       3.87136412
H        0.82633954      25.96920013       2.56575060
H       -1.47741604      28.41180801       5.51782513
H        2.98305750      58.52692413       5.68870306
H        4.81050777      25.36199760       2.49763417
H       -3.07911634      26.13987350       7.24717093
H        3.61243248      29.79806709       0.68587744
H        6.61475849       0.13578622       0.16675545
H        1.08804989      24.59428978       7.34058285
H        6.10908699       0.82667261       2.43775177
H        1.37708962      25.22632980       4.99977827
H       -2.37776375      25.24296379       5.09505987
H        2.93627691      29.18511200       2.96449757
C       -4.91572618      23.98615456      10.14314461
C       -3.76778436      26.83003998      12.61454678
C       -0.30137476       1.55169010      12.38542652
C       -1.29636884      26.56485748       9.98218346
C       -4.26221848      24.78807449       9.23950100
C       -4.42736435      27.76420593      13.36462593
C       -1.19204664       0.81728894      13.13027477
C       -0.44709122      25.84729958       9.19009113
C       -3.95144653      24.31152534       7.94772673
C       -4.91247177      27.44321251      14.65502167
C       -1.48401558       1.17513847      14.47072506
C       -0.29040387      26.18240547       7.81515121
C       -7.68726492      25.46796989      14.11857700
C       -1.88787258      27.98928452       8.13520336
C        2.24624324       0.43137980       8.15970230
C       -3.84534025      25.25827026      14.43042374
C        1.98101401       0.95935583       9.38297844
C       -3.47847509      25.56185532      13.14381027
C       -7.34153843      24.97384262      12.89770222
C       -2.02713633      27.64894485       9.45307446
H       -5.15882015      24.38438034      11.11858845
H       -3.44990206      27.08540535      11.61737156
H       -0.10614130       1.26604557      11.36351395
H       -1.40566325      26.30079269      11.03573990
H       -3.98699236      25.82450104       9.47893715
H       -4.61258221      28.73528862      12.95711613
H       -1.67749083      58.87834549      12.69888306
H        0.10771002      25.00849724       9.57981873
H       -7.40327454      26.46353912      14.40678596
H       -2.43804383      28.83748436       7.70721197
H        1.75566077      58.41410828       7.85516596
H       -3.60940814      24.29320908      14.85863495
H        1.32155859       0.44988513      10.08520603
H       -2.95141459      24.81927109      12.54374504
H       -6.75786161      25.57897568      12.20907688
H       -2.67945194      28.24341965      10.07312679
C       -9.47073078      24.32921982      17.18875313
C       -8.82366943      26.83746910      19.64451790
C       -4.77418852       2.49491477      19.74526215
C       -5.84903526      26.70611000      17.18869209
C       -8.77583408      25.13283348      16.32505035
C       -9.65838337      27.64230919      20.36840248
C       -5.66569519       1.65873027      20.34432411
C       -5.02810574      25.86632729      16.52315712
C       -8.41412640      24.67056274      15.03668976
C       -9.81220913      27.44058800      21.76130676
C       -5.84762192       1.66563857      21.74727249
C       -4.57461309      26.18785477      15.21146297
C      -12.46272755      25.67396164      21.34844017
C       -5.78169537      28.30303955      15.38152123
C       -2.41725016       0.45967108      15.24019337
C       -8.30547047      25.52512741      21.60062790
C       -2.67083454       0.81206799      16.53611755
C       -8.15251255      25.75187302      20.25918579
C      -12.10170174      25.25096321      20.09925461
C       -6.27285814      27.92311668      16.59629440
H       -9.75457764      24.70288658      18.16815186
H       -8.68517399      27.02240944      18.58574867
H       -4.61437130       2.47365308      18.68687058
H       -6.20806742      26.45946693      18.18434715
H       -8.48545170      26.14712906      16.60928345
H      -10.16723824      28.48212433      19.89686012
H       -6.25981188       0.96557879      19.76436043
H       -4.71314430      24.92004395      16.93468666
H      -12.26687336      26.67573166      21.69139290
H       -6.09181499      29.22961044      14.94545937
H       -2.95374417      58.57849884      14.76985645
H       -7.82928514      24.68504524      22.08205605
H       -3.39424276       0.21557014      17.11038971
H       -7.51916695      25.10009384      19.66690445
H      -11.57734585      25.91328430      19.42901802
H       -6.97768879      28.56933975      17.11461258
C      -14.07055855      24.32899666      24.41305923
C      -13.09646320      27.38354301      26.71794510
C       -9.32139397       1.85837901      26.37864304
C       -9.99371815      27.07520676      24.53601646
C      -13.43489265      25.18964958      23.56997108
C      -13.81687450      28.26638603      27.46615219
C      -10.31680870       1.22447526      27.06457520
C       -9.22476292      26.22038078      23.79431152
C      -13.11180687      24.79665375      22.24207497
C        4.60192108      27.94459343       0.27516204
C      -10.63294983       1.60956800      28.38697815
C       -9.11261177      26.38376045      22.38293266
C        1.79133701      25.68074036       0.05889311
C      -10.62472820      28.29373550      22.55309868
C       -6.74360418       0.78283548      22.39908981
C        5.72490263      25.79141617       0.00047609
C       -6.98842573       0.92479610      23.74171066
C      -12.71390152      26.13560104      27.25372314
C      -16.55318260      25.37568665      27.33673668
C      -10.70147228      28.12452507      23.90600777
H      -14.28266621      24.65735435      25.42113686
H      -12.81687069      27.64525604      25.70461082
H       -9.08370781       1.57175350      25.38198090
H      -10.04881763      26.94012451      25.61889839
H      -13.18161869      26.20494270      23.88471985
H      -14.09948349      29.23458481      27.07685280
H      -10.85697937       0.40650854      26.62334442
H       -8.68553066      25.41173553      24.26067734
H        1.99773932      26.65230370       0.50317776
H      -11.15192890      29.11068916      22.09296608
H       -7.25391483       0.02829289      21.80898476
H        6.01611614      24.80563927       0.39794952
H       -7.70937014       0.28215593      24.21816826
H      -12.12357426      25.45922852      26.64649582
H      -15.97784519      26.10383224      26.77307701
H      -11.28810024      28.78291512      24.48975754
C       -0.67466384       1.86903536       2.59419465
C        0.66377139       4.47699499       5.15519714
C        4.86173820       7.14463377       5.23402166
C        3.50532484       4.08926344       2.79142094
C        0.23525360       2.59057045       1.89022291
C        0.10006139       5.37966633       6.01491499
C        4.04884005       6.30532980       5.93059587
C        4.13748026       3.32195282       1.84547245
C        0.61692768       2.20061064       0.58620489
C       -0.35246471       4.97815609       7.30240154
C        3.69150543       6.59137535       7.27626753
C        4.57554865       3.89713168       0.62957633
C       -3.30259657       2.91673684       6.72754002
C        3.70631003       6.04323483       1.38712144
C        7.64815950       5.90063477       1.13249314
C        0.30824763       2.69938755       6.74572086
C        7.33809566       6.24562502       2.41812301
C        0.76085621       3.11442947       5.52365160
C       -2.99463153       2.48108912       5.46411228
C        3.26876259       5.46499825       2.54292274
H       -0.94025743       2.17073679       3.60573745
H        1.00571013       4.80798674       4.18440580
H        5.12605286       6.91266537       4.20312023
H        3.17053342       3.62458277       3.73602915
H        0.68781775       3.48494577       2.33025980
H        0.00877336       6.42630625       5.74982691
H        3.66239595       5.38791466       5.46374512
H        4.28580093       2.26581931       2.02009940
H       -2.89384127       3.85224652       7.09850788
H        3.52611136       7.09404325       1.20669746
H        7.21383810       5.02266836       0.67632353
H        0.36725643       1.65444791       7.02518129
H        6.68895435       5.60862827       2.99051476
H        1.20582032       2.40531969       4.81845474
H       -2.34269905       3.07150650       4.84699535
H        2.73979235       6.07400560       3.28433108
C       -5.36446571       1.88104737       9.62295151
C       -3.75081158       5.15965796      12.60972404
C        0.24861142       7.20668030      12.64169598
C       -1.18389189       4.13238859       9.83772087
C       -4.51051569       2.60306573       8.85301208
C       -4.54867077       5.96189308      13.39479733
C       -0.49597085       6.37418985      13.42277336
C       -0.67222339       3.22066379       8.95842361
C       -4.16934872       2.16659117       7.55009985
C       -4.97141647       5.53586149      14.67482471
C       -0.80636972       6.72598219      14.76301670
C       -0.23337173       3.61817861       7.67414665
C       -7.56904125       3.51043844      13.83116627
C       -0.90744889       5.89405870       8.21485233
C        2.83088017       5.74322033       8.01322269
C       -3.83698034       3.41959691      14.26832485
C        2.47787952       6.05652618       9.29451466
C       -3.38510442       3.88213992      13.07263470
C       -7.24279451       3.04741669      12.59605598
C       -1.31099927       5.49078083       9.45831490
H       -5.58947182       2.20405936      10.61537838
H       -3.41184378       5.52074003      11.63637066
H        0.48562461       6.90664864      11.61635780
H       -1.48360586       3.82207131      10.82394028
H       -4.07667494       3.52444243       9.22515106
H       -4.85147381       6.93146944      13.05049610
H       -0.84392709       5.43163490      13.04791927
H       -0.56979340       2.17753148       9.23400402
H       -7.32348633       4.51564932      14.13342285
H       -1.00111496       6.94003677       7.93287897
H        2.44852138       4.85146189       7.54916143
H       -3.58173776       2.43120360      14.61247253
H        1.80609441       5.41392469       9.85848331
H       -2.74600172       3.25720668      12.46968842
H       -6.70311546       3.68551564      11.90975380
H       -1.72821069       6.21128368      10.16775990
C       -9.32391548       2.31693506      16.88462830
C       -8.71781540       4.73943806      19.50781631
C       -4.57192707       7.28119802      19.65596199
C       -5.79929924       4.61933279      17.19538498
C       -8.64916229       3.13387442      16.03571320
C       -9.30764389       5.60553503      20.37836075
C       -5.37459373       6.41445398      20.35082436
C       -5.05155039       3.80277181      16.38499069
C       -8.24972057       2.67689991      14.75550270
C       -9.65218735       5.19711161      21.69612503
C       -5.62953329       6.61468601      21.72644234
C       -4.62097406       4.24367666      15.11641216
C      -12.37637711       3.04514074      21.33737946
C       -5.74104691       6.36446810      15.52144146
C       -1.58939493       5.88296413      15.60438061
C       -8.83236885       2.96545053      21.13667679
C       -1.89577508       6.26007843      16.88194084
C       -8.46254730       3.39289379      19.90051842
C      -12.11862373       2.72641134      20.03553581
C       -6.15381575       5.91719007      16.75114632
H       -9.66050053       2.69460273      17.84941673
H       -8.45212555       5.05576706      18.50573158
H       -4.36195087       7.10609484      18.60893822
H       -6.11549568       4.25560331      18.14516830
H       -8.43154144       4.17403460      16.31375313
H       -9.51147747       6.62686253      20.08687210
H       -5.82977438       5.55322599      19.86285210
H       -4.79517365       2.80737567      16.70433044
H      -12.11339188       4.03227806      21.72845840
H       -6.00637579       7.35296297      15.17607403
H       -1.95271897       4.94657898      15.20896339
H       -8.70300770       1.92723346      21.43743134
H       -2.50544286       5.61895180      17.51348114
H       -7.99317408       2.72266412      19.20951080
H      -11.62328434       3.45485926      19.38765717
H       -6.74330521       6.54286957      17.39664268
C      -13.61015034       1.44045234      24.45115089
C      -13.23092461       5.13139868      26.83746529
C       -9.04965591       7.13213873      26.83672142
C      -10.30481529       4.31824780      24.27106285
C      -13.15734196       2.40172100      23.59222412
C      -13.94960976       5.86426020      27.73734665
C       -9.92296982       6.35684681      27.54884338
C       -9.75605011       3.44360900      23.37409782
C      -12.92687893       2.09340262      22.22696304
C        4.37733364       5.27934933       0.40113053
C        8.53422165       6.69419622       0.35533622
C       -9.40915585       3.85473371      22.06987381
C      -17.24874115       2.94286251      28.34450531
C      -10.23325539       6.07785940      22.62044525
C       -6.45607853       5.72949743      22.46022606
C      -13.58937073       3.13893366      28.14055824
C       -6.71478224       5.96199512      23.78818512
C      -13.05099487       3.74457479      27.04559517
C      -16.87033081       2.51397800      27.10758972
C      -10.54720974       5.65852261      23.88574982
H      -13.78046799       1.64746869      25.48308754
H      -12.82287979       5.59500456      25.95152283
H       -8.78024960       6.85519314      25.84085846
H      -10.54221439       3.98792291      25.26307678
H      -12.94697094       3.41542959      23.94888115
H      -14.13368416       6.90813589      27.53785324
H      -10.34372902       5.44745016      27.12361336
H       -9.59548950       2.39964652      23.64214706
H        1.96090519       3.83324862       0.24971130
H      -10.42733860       7.09073353      22.31406021
H       -6.86346436       4.86228561      21.95928192
H      -13.51671886       2.09386396      28.28685951
H       -7.36487579       5.27812052      24.34217072
H      -12.49244785       3.16604233      26.32015038
H      -16.14461327       3.07947683      26.52585411
H      -10.98305321       6.37098837      24.58986664
C       -0.01298409       7.44703865       2.98794699
C        1.03126311      10.24517822       5.40445662
C        5.03420639      12.69740200       5.44852114
C        3.95978260      10.10344219       3.06510282
C        0.78424883       8.29687023       2.27398419
C        0.27968857      11.09538460       6.17322493
C        4.25915194      11.85393047       6.19122601
C        4.75085306       9.28469849       2.31743002
C        1.14234257       8.00034332       0.93698919
C       -0.07471656      10.74675179       7.49943399
C        3.90240479      12.17527008       7.52884960
C        5.10561037       9.63685322       0.99258804
C       -2.74545383       8.85587311       7.26254797
C        3.84836960      11.70100117       1.26169896
C        7.94320393      11.39095497       1.30044603
C        1.05854356       8.61886406       7.17967367
C        7.58516264      11.77827644       2.56761050
C        1.41532040       8.98982620       5.91443157
C       -2.39199996       8.49327278       5.98712397
C        3.50157404      11.33543587       2.53099585
H       -0.29275060       7.69251299       4.00416183
H        1.30967438      10.54563236       4.38891506
H        5.29043198      12.41935349       4.43577576
H        3.67592859       9.82027626       4.07601118
H        1.12522340       9.20614243       2.71454787
H       -0.05633579      12.04504013       5.79079294
H        3.89971042      10.91734695       5.78354979
H        5.10472631       8.35953140       2.71726179
H       -2.40886188       9.79136753       7.68457842
H        3.51803327      12.64380646       0.84001178
H        7.63225698      10.41650772       0.90470022
H        1.36052704       7.65232039       7.57673931
H        6.98391819      11.10986233       3.18900013
H        2.01296616       8.30628681       5.29618788
H       -1.74623573       9.15285206       5.41113949
H        2.88572288      11.98163986       3.12283182
C       -4.69959593       7.52774239      10.13001919
C       -3.60817814      10.35786533      12.61628628
C        0.28587973      12.78405285      12.62425041
C       -0.73969764      10.01899433      10.12350273
C       -3.89167213       8.34451771       9.38591099
C       -4.41422939      11.17975903      13.35691929
C       -0.43951508      11.93472385      13.40924644
C       -0.02225792       9.14865971       9.34646130
C       -3.55566287       8.00697231       8.05723000
C       -4.74344301      10.84982395      14.69108868
C       -0.76999825      12.28234959      14.74120808
C        0.32407942       9.49007416       8.00861073
C       -7.57262850       9.07825661      14.42900944
C       -0.82949102      11.61314297       8.31946850
C        3.10832334      11.31109142       8.31285191
C       -3.46560979       8.79261971      14.44162560
C        2.75158048      11.66364956       9.58403873
C       -3.12615561       9.15055275      13.17184925
C       -7.24331522       8.78736019      13.14452171
C       -1.15724683      11.26731300       9.60402298
H       -4.94497967       7.81431866      11.13589478
H       -3.34055328      10.63574886      11.58759785
H        0.56245375      12.48943520      11.61979008
H       -0.99230355       9.77964592      11.14168835
H       -3.52427053       9.28105450       9.80140972
H       -4.77687407      12.10887814      12.95455837
H       -0.76446295      10.97886181      13.04709721
H        0.28002045       8.20287704       9.72524071
H       -7.20515442       9.96803570      14.90769958
H       -1.14718699      12.56639862       7.89211369
H        2.78698397      10.35835361       7.87173843
H       -3.10379696       7.86842394      14.86189938
H        2.11654234      11.00565720      10.18465805
H       -2.48676896       8.50272655      12.57858181
H       -6.59818316       9.46503925      12.59513760
H       -1.72207832      11.96264076      10.19870472
C       -9.51754856       7.60996008      17.24484825
C       -8.38846207      10.32955360      19.78383636
C       -4.41722870      12.76322365      19.81379890
C       -5.40980673      10.12235165      17.31453133
C       -8.71616364       8.46408844      16.54654312
C       -9.10881042      11.17115211      20.57194138
C       -5.12297583      11.88336182      20.57937813
C       -4.61273527       9.30441570      16.57144737
C       -8.39813328       8.20405388      15.18349457
C       -9.43757820      10.81670380      21.90415764
C       -5.47531080      12.21205997      21.91839981
C       -4.27307510       9.64111614      15.24204826
C      -12.13070297       8.90016556      21.55811310
C       -5.56500244      11.69405365      15.49041748
C       -1.49659085      11.41091537      15.58560467
C       -8.28045082       8.69510365      21.55955124
C       -1.83149910      11.77343464      16.86652374
C       -7.96998215       9.06951237      20.28527069
C      -11.82557869       8.58175468      20.26985741
C       -5.89590216      11.33398438      16.76004601
H       -9.74485779       7.81120491      18.26715660
H       -8.13353920      10.62019539      18.76857185
H       -4.16222525      12.50171947      18.78455925
H       -5.67978954       9.81963444      18.33523178
H       -8.29321957       9.34605694      16.98634148
H       -9.44105053      12.13413048      20.21476936
H       -5.42515516      10.93435860      20.18676567
H       -4.22879887       8.38765812      16.97143936
H      -11.79863739       9.83513641      21.98658562
H       -5.92554474      12.61430168      15.06540966
H       -1.80513978      10.43037987      15.20307732
H       -7.96234560       7.71675348      21.93329811
H       -2.39444590      11.10399437      17.50526810
H       -7.39432240       8.38877201      19.64908600
H      -11.24514294       9.27519321      19.64032173
H       -6.52753735      12.00385284      17.35723114
C      -13.96144676       7.46844339      24.46380424
C      -13.03915024      10.36468410      26.89198112
C       -9.03045654      12.75913525      26.89066696
C      -10.08023834      10.06113338      24.52408028
C      -13.19688511       8.31678104      23.71726799
C      -13.83025837      11.18784618      27.64277840
C       -9.75550365      11.90190983      27.67293167
C       -9.35224056       9.20765686      23.73542404
C      -12.87918568       8.00893688      22.37183571
C        4.63545799      10.85524368       0.45333800
C        8.69342613      12.25954151       0.46889156
C       -9.01596355       9.56553841      22.40375328
C        1.95910108       8.87083912       0.17074454
C      -10.18112946      11.68542290      22.74522018
C       -6.19504881      11.31931305      22.73922729
C        5.91277456       8.79932022       0.18605606
C       -6.55975914      11.67764473      24.00751114
C      -12.56010818       9.14239407      27.43556976
C      -16.47696686       8.54414463      27.42212486
C      -10.50282288      11.30687141      24.02132988
H      -14.22570324       7.72089386      25.48941612
H      -12.79935169      10.63089561      25.88003349
H       -8.76092052      12.45377350      25.89976883
H      -10.32599068       9.77364635      25.54528618
H      -12.81743717       9.26180458      24.12595177
H      -14.19844913      12.12242603      27.22968864
H      -10.08339596      10.93231583      27.29297447
H       -9.00841808       8.22799778      24.11434174
H        2.28490663       9.81859684       0.61624694
H      -10.49228764      12.65112495      22.35180855
H       -6.47095871      10.36575508      22.33049011
H        6.27182770       7.85982800       0.62013072
H       -7.11738348      10.99192429      24.63243866
H      -11.93071842       8.48632812      26.83503342
H      -15.81836033       9.21278667      26.86482239
H      -11.08217239      11.99236774      24.64529228
C        0.01611084      13.06882095       3.04074812
C        1.07885277      15.65813065       5.48694563
C        5.03037548      18.05437851       5.49711990
C        3.95099306      15.53964710       3.03489113
C        0.75430226      13.91764259       2.27643895
C        0.32947367      16.51956177       6.24289894
C        4.24130678      17.22142792       6.24032450
C        4.73862362      14.70372391       2.30142879
C        1.11479831      13.57106209       0.95193112
C       -0.03304322      16.18144417       7.57228994
C        3.87959099      17.54316330       7.57316542
C        5.10798550      15.04254913       0.97614789
C       -2.80395150      14.37157726       7.24672651
C        3.88592672      17.13401413       1.23879313
C        7.86843967      16.98503304       1.18335736
C        1.13455570      14.05504227       7.28958607
C        7.51258421      17.35820389       2.45740438
C        1.49685991      14.40865993       6.01719332
C       -2.49832416      14.00623226       5.96189499
C        3.51932597      16.77346230       2.50080276
H       -0.26110303      13.35418034       4.06250143
H        1.36706650      15.94542980       4.47544289
H        5.29156876      17.79715919       4.48585796
H        3.67609954      15.25575352       4.03984451
H        1.08004236      14.87633324       2.64677620
H        0.02124871      17.47226524       5.85580206
H        3.89118361      16.27607346       5.80757046
H        5.08055449      13.76750183       2.69390774
H       -2.47981119      15.31214714       7.64015007
H        3.55298948      18.08184242       0.79992306
H        7.56936884      16.01496315       0.78417915
H        1.43094420      13.12651539       7.69482851
H        6.92720604      16.67411804       3.06889439
H        2.09628797      13.73043537       5.41879988
H       -1.92442131      14.66490650       5.35117531
H        2.88643956      17.45073700       3.10658765
C       -4.63343859      13.03684330      10.19684505
C       -3.68125558      15.74023247      12.64529705
C        0.16433357      18.19413185      12.59214783
C       -0.78053743      15.43429089      10.17084026
C       -3.87563896      13.86337471       9.41417313
C       -4.45454979      16.58269691      13.39510727
C       -0.58014357      17.34046173      13.36113453
C       -0.01513121      14.59002304       9.41529846
C       -3.55652857      13.51595211       8.08790684
C       -4.80672932      16.25822830      14.72341442
C       -0.90297294      17.67521858      14.69598484
C        0.35789663      14.92592907       8.09581947
C       -7.59188843      14.44650173      14.41279316
C       -0.79279679      17.05826950       8.38554859
C        3.06589365      16.70153999       8.36301804
C       -3.58646727      14.15590668      14.47406387
C        2.69912457      17.05079460       9.62674522
C       -3.23309350      14.51543140      13.19943810
C       -7.26069403      14.10700798      13.13527393
C       -1.17122900      16.69311523       9.64995003
H       -4.88008928      13.34916115      11.21045208
H       -3.40779638      16.02905083      11.63901711
H        0.42415071      17.92026901      11.58814716
H       -1.09687197      15.13920212      11.17320251
H       -3.52845287      14.81549358       9.79951763
H       -4.79233551      17.50981331      12.99653149
H       -0.92242420      16.38343620      12.97431660
H        0.28928989      13.60274601       9.82013035
H       -7.28666306      15.40313911      14.82015896
H       -1.08961964      18.01241875       7.97756195
H        2.72070980      15.76311207       7.93542576
H       -3.27445841      13.21442032      14.88160801
H        2.03890848      16.41342545      10.19927311
H       -2.61994815      13.81896687      12.60706615
H       -6.65857506      14.78503704      12.53180218
H       -1.76068926      17.36073494      10.25529099
C       -9.43290520      13.05097389      17.32523155
C       -8.29916954      15.77050972      19.76028633
C       -4.36817312      18.36299515      19.75149727
C       -5.48493719      15.55773354      17.34997177
C       -8.68810558      13.89939976      16.56192207
C       -9.02962780      16.63946915      20.52540207
C       -5.13578939      17.52123070      20.50550079
C       -4.72725010      14.70200825      16.60243797
C       -8.35039043      13.58109093      15.22648716
C       -9.38282776      16.30776596      21.86078644
C       -5.50202131      17.88704491      21.83312225
C       -4.37310600      15.02275562      15.26447868
C      -12.19471931      14.44520569      21.57801628
C       -5.57592106      17.13320351      15.52957249
C       -1.64977109      16.79877853      15.52851295
C       -8.21206570      14.18323040      21.57225609
C       -1.96564662      17.14987755      16.80413628
C       -7.87793779      14.53225422      20.29065704
C      -11.85453129      14.09562969      20.29946327
C       -5.91675043      16.79442978      16.80043411
H       -9.69703197      13.33187199      18.34106445
H       -8.04320431      16.04032326      18.75111008
H       -4.07137918      18.05976486      18.74895859
H       -5.76003981      15.28475761      18.36090279
H       -8.34049129      14.86551666      16.97954941
H       -9.36571312      17.59557533      20.14820671
H       -5.48443890      16.58198357      20.13385773
H       -4.37379217      13.75359154      17.00173569
H      -11.88238430      15.39305592      21.99232101
H       -5.89955902      18.07933998      15.10167217
H       -1.96980500      15.86158466      15.11983204
H       -7.89102793      13.24409866      22.00194740
H       -2.53593040      16.46266747      17.43010139
H       -7.29941034      13.85565853      19.68482208
H      -11.24548721      14.80416489      19.70564079
H       -6.52430868      17.48864174      17.40909576
C      -14.05708218      13.02990532      24.47678185
C      -12.99238873      15.76183128      26.88805962
C       -9.07300854      18.36117554      26.80134201
C      -10.08207703      15.58701992      24.47107506
C      -13.31338406      13.89025021      23.71459007
C      -13.75655556      16.61231995      27.63676643
C       -9.81331062      17.50277328      27.56779480
C       -9.31778717      14.73047638      23.71930695
C      -12.94979668      13.55852318      22.38942719
C        4.67636442      16.27513123       0.43855962
C        8.61749744      17.85852814       0.35782096
C       -8.96924305      15.06668091      22.38777351
C        1.88378894      14.43845272       0.13426173
C      -10.13443756      17.18381882      22.67518234
C       -6.26989412      17.01315880      22.64125061
C        5.89999580      14.17434311       0.17712155
C       -6.61734772      17.37760162      23.91454506
C      -12.55946541      14.52831650      27.42442131
C      -16.56542969      14.07699585      27.39211273
C      -10.49089718      16.83229256      23.94793701
H      -14.35285187      13.31072807      25.49098778
H      -12.69853210      16.04340363      25.87580490
H       -8.78971863      18.07343864      25.78240585
H      -10.35132217      15.31209373      25.48269272
H      -13.01113129      14.85228634      24.11075401
H      -14.09626770      17.55573654      27.25301170
H      -10.11853218      16.52856255      27.19041634
H       -8.99152946      13.79501915      24.11188889
H        2.19925690      15.39817047       0.52069736
H      -10.43647861      18.14157486      22.27356338
H       -6.57338095      16.06682396      22.22592354
H        6.23389387      13.22738934       0.60189009
H       -7.24589586      16.69468880      24.52063179
H      -11.95296955      13.86856556      26.84356880
H      -15.96295643      14.74592113      26.78391266
H      -11.09150410      17.51632118      24.54683113
C       -0.05323364      18.55215454       2.95069218
C        0.89685816      21.26584244       5.32241917
C        4.52250290      23.41233444       5.31961489
C        3.89367342      21.11970520       2.85279655
C        0.73408639      19.38615799       2.20104909
C        0.10906428      22.08114815       6.07696438
C        3.98820376      22.55248642       6.23757315
C        4.69339180      20.28450966       2.11629224
C        1.11064756      19.04205894       0.88362813
C       -0.19587632      21.76377106       7.41947889
C        3.52704120      23.03868675       7.49025249
C        5.09678411      20.64767265       0.80582982
C       -2.79427123      19.70245171       7.33559990
C        3.90322375      22.76068306       1.09037066
C        7.80184603      22.60322380       1.04439831
C        1.10576475      19.71725082       7.16035891
C        7.39748621      22.87840271       2.31756997
C        1.40446007      20.05907631       5.87325478
C       -2.44485879      19.36252594       6.06274891
C        3.49031925      22.36526489       2.33023119
H       -0.32876238      18.83872986       3.97117472
H        1.13037884      21.53417397       4.30601406
H        4.92150736      23.03992653       4.36591768
H        3.58968019      20.83062363       3.85582829
H        1.07154047      20.33869934       2.60010099
H       -0.29202330      22.99670792       5.66523075
H        3.93335962      21.49474716       6.04029036
H        5.03222227      19.33386421       2.50334120
H       -2.44913840      20.63293457       7.76104784
H        3.61134887      23.72283936       0.68724370
H        7.52932072      21.66381454       0.58299547
H        1.50474811      18.80378342       7.57942343
H        6.80527639      22.15998268       2.87962103
H        2.03601313      19.40395546       5.26396370
H       -1.83850849      20.02650452       5.47022438
H        2.85858750      23.00899696       2.92988038
C       -4.72735024      18.33283806      10.19693470
C       -3.73751473      21.16078949      12.56027317
C       -0.09653134      23.55648422      12.42402649
C       -0.80371648      21.05285835      10.05770779
C       -3.93400455      19.15976143       9.46763039
C       -4.49862194      22.03691101      13.29126072
C       -0.75326461      22.74743080      13.31001568
C       -0.00321460      20.23386955       9.31221485
C       -3.59223151      18.84260178       8.12915993
C       -4.84451056      21.74329567      14.63533974
C       -1.10551739      23.22588348      14.59998417
C        0.30875498      20.56160164       7.96565294
C       -7.53235722      19.89712334      14.45347500
C       -1.01396823      22.59680557       8.21723270
C        3.01942611      22.16211700       8.47533703
C       -3.62322831      19.64427185      14.42837334
C        2.60444832      22.62887764       9.69313622
C       -3.28818274      19.94900703      13.14246368
C       -7.19458914      19.53517723      13.17796898
C       -1.32686722      22.24252319       9.50234985
H       -5.01787281      18.61380005      11.20910835
H       -3.47122073      21.40375328      11.55494690
H        0.18165787      23.17593193      11.43431473
H       -1.04649961      20.77931595      11.08243656
H       -3.55334425      20.08861542       9.89279842
H       -4.83780289      22.95658112      12.85805702
H       -1.01250446      21.72289848      13.06381130
H        0.40351596      19.33613396       9.71550941
H       -7.20302439      20.85709381      14.86767387
H       -1.40921533      23.51037788       7.78233576
H        2.96926427      21.10692024       8.23358536
H       -3.26625896      18.73162079      14.88093948
H        2.17734647      21.93274498      10.40896320
H       -2.69410491      19.26518250      12.55414963
H       -6.57974720      20.18700409      12.57976532
H       -1.96839130      22.89443207      10.09023762
C       -9.42262363      18.56232834      17.35854721
C       -8.45997143      21.42723465      19.63394165
C       -4.63982391      23.81007004      19.62623405
C       -5.51307487      21.09868813      17.28463554
C       -8.65289116      19.39496803      16.60037422
C       -9.20219231      22.29143715      20.39433289
C       -5.34367800      23.02503014      20.50555420
C       -4.74054718      20.24174690      16.55411530
C       -8.32108784      19.04517364      15.26728249
C       -9.47776508      21.99245644      21.75298691
C       -5.56786585      23.46000671      21.83356094
C       -4.40671396      20.53035355      15.20594692
C      -12.11602974      19.93655586      21.60635185
C       -5.63771915      22.62838173      15.41375542
C       -1.76107752      22.39632988      15.54652309
C       -8.26184463      19.89780235      21.48667908
C       -2.10631633      22.88480377      16.77094650
C       -7.98319149      20.21753502      20.18242264
C      -11.75380707      19.59092331      20.34188080
C       -5.97500944      22.30650520      16.69750977
H       -9.67872143      18.84802055      18.35977554
H       -8.24310589      21.66749001      18.62444115
H       -4.46944904      23.45408058      18.63125229
H       -5.78207541      20.85807991      18.31304550
H       -8.29562092      20.35223198      16.98471642
H       -9.57466316      23.21847153      19.98134613
H       -5.72687340      22.07679176      20.19616508
H       -4.39089441      19.31792641      16.96732712
H      -11.81033611      20.88092232      22.02838135
H       -5.97381163      23.54608154      14.96424103
H       -1.97716188      21.38628197      15.26120186
H       -7.90792847      18.97228813      21.93169403
H       -2.63402748      22.25514412      17.48937988
H       -7.41828299      19.51235390      19.58633995
H      -11.13020515      20.26443291      19.75531197
H       -6.60600996      22.98048782      17.27162743
C      -14.03802967      18.53449059      24.46659470
C      -12.89774036      21.44104385      26.76890945
C       -9.07670784      24.17367935      26.80258751
C      -10.04487515      21.34454155      24.41381073
C      -13.25872231      19.38691711      23.73299789
C      -13.66843700      22.28183937      27.52419281
C       -9.82581902      23.26881218      27.50511360
C       -9.30481434      20.48093605      23.65893555
C      -12.90709877      19.07262611      22.39743996
C        4.70661497      21.91622353       0.28587657
C        8.55866718      23.53743553       0.29943916
C       -9.01525211      20.78291130      22.30267525
C        1.92142868      19.89377022       0.08559987
C      -10.23321533      22.88109398      22.56815338
C       -6.28555775      22.67088318      22.76019669
C        5.87865257      19.79494667       0.00112526
C       -6.51812410      23.12570000      24.02630615
C      -12.51643848      20.17067337      27.28064346
C      -16.51181221      19.52158165      27.35318375
C      -10.51432133      22.56071091      23.86159515
H      -14.30534458      18.79228973      25.49260139
H      -12.57082844      21.75017929      25.80102348
H       -8.74665165      23.93996048      25.78951073
H      -10.27492142      21.09883690      25.44328499
H      -12.90401840      20.32493210      24.15418625
H      -13.96296024      23.25366402      27.13666916
H      -10.09580326      22.32238388      27.05904007
H       -8.94770241      19.55881119      24.06532478
H        2.26835608      20.82806396       0.51015979
H      -10.58788300      23.80787277      22.14982033
H       -6.65506458      21.70391846      22.44902611
H        6.17583704      18.83788490       0.39924362
H       -7.09843111      22.51874733      24.73300934
H      -11.91134357      19.50989342      26.67478752
H      -15.87072563      20.17476463      26.76977348
H      -11.10931110      23.25659180      24.47851562
C        7.76055765      24.10565376       2.91403198
C        7.47535419      26.74833679       5.15205050
C       12.78554630       1.59920454       5.18862152
C       11.75343609      27.19215393       2.85670757
C        8.50899410      25.02801132       2.23361945
C        6.57690620      27.34456635       5.99141550
C       12.19278336       0.66632414       5.99512005
C       12.59325981      26.40301132       2.12293196
C        8.90990925      24.77084923       0.89723712
C        6.55252361      27.02420235       7.36686611
C       11.96098518       0.94752151       7.36894989
C       12.88833141      26.71249390       0.76810664
C        4.04437351      25.29385376       6.75276899
C       11.41319752      28.64953232       0.96187025
C       15.79357052       0.25707904       1.46229815
C        8.32497692      25.40386963       6.96426868
C       15.26557922       0.79641157       2.60133266
C        8.37813377      25.79121590       5.65319347
C        4.52942038      24.80100822       5.57814217
C       11.15536404      28.33533478       2.26981926
H        7.42194366      24.32193756       3.93702650
H        7.47878838      27.04466248       4.10785532
H       12.94311047       1.38270533       4.15933895
H       11.51746178      26.94067764       3.87694073
H        8.81160641      25.96092796       2.69443798
H        5.89304209      28.08454323       5.63326645
H       11.86898422      58.64411545       5.60393667
H       13.06188965      25.52596092       2.55903244
H        4.01594353      26.34059715       6.94178247
H       10.94408035      29.51710510       0.50352919
H       15.54613018      58.17291641       1.17886412
H        8.95887852      24.61200333       7.32429457
H       14.60723209       0.20790121       3.20506549
H        9.10511684      25.32320595       4.98539591
H        4.92419624      25.49197960       4.80060291
H       10.47794247      28.94206047       2.85591841
C        2.70658088      24.00487518       9.98248100
C        3.58585525      26.33953667      12.64260197
C        8.27733040       2.73324227      12.23621845
C        6.43774652      26.24276352      10.06237316
C        3.17176509      24.87968063       9.03575802
C        2.76813340      27.11265373      13.40252399
C        7.31004953       1.94074965      12.76823711
C        7.31885529      25.62834549       9.21992111
C        3.59347200      24.41134071       7.76535749
C        2.56134820      26.82180977      14.78240204
C        6.94169140       2.06794786      14.13865566
C        7.40985537      26.01074982       7.85287237
C       -0.15733668      25.38166046      13.99152184
C        5.66657257      27.65631104       8.26371193
C       11.39855289      58.91746902       8.23735428
C        4.07103348      24.91894531      14.52591515
C       11.12339306       0.31028754       9.53044319
C        4.25113630      25.22921181      13.20878124
C        0.19901322      24.88767815      12.76511860
C        5.61523581      27.27871132       9.57005119
H        2.39115262      24.39482498      10.96299362
H        3.71884680      26.55286407      11.60062218
H        8.61146069       2.59534264      11.20985794
H        6.37004948      25.94821548      11.10128021
H        3.22503185      25.93590546       9.24938679
H        2.24901581      27.97327042      12.96165180
H        6.82355690       1.14119565      12.17432785
H        7.94650745      24.83254242       9.57196236
H        0.06035258      26.38308144      14.26510620
H        5.02230644      28.43269730       7.86952782
H       11.17217922      57.91859055       7.83736706
H        4.55894661      24.07030106      14.95419788
H       10.64658928      58.51425552      10.18550873
H        4.90662861      24.62094688      12.58237171
H        0.73432988      25.52424431      12.05728149
H        4.93311834      27.75901222      10.25833416
C       -1.80275166      24.22056198      17.11975288
C       -0.79805630      26.55591583      19.78773880
C        2.66650462       1.36471331      19.97761345
C        2.06520319      26.06267166      17.42358017
C       -1.17479634      25.03902817      16.22959709
C       -1.51403475      27.45076370      20.53053856
C        2.30634117       0.39320919      20.87291908
C        2.94316864      25.34186745      16.67276001
C       -0.80080867      24.54798126      14.94308472
C       -1.57454562      27.33308983      21.94011307
C        2.29833913       0.66865611      22.26217842
C        3.21202707      25.69585419      15.33276653
C       -4.35360289      25.50681114      21.30957985
C        1.69518340      27.58502007      15.59643555
C        6.05790710       1.16924095      14.77528286
C       -0.20951672      25.32188606      21.76266098
C        5.71724224       1.34715378      16.08167267
C       -0.13367219      25.47593308      20.41238022
C       -4.14657640      25.06735992      20.03724480
C        1.43992698      27.20569420      16.87947464
H       -2.09892750      24.59342575      18.08916855
H       -0.74431175      26.68079948      18.72219086
H        2.68850398       1.14285994      18.90311241
H        1.83649075      25.76185226      18.44112968
H       -0.94290698      26.07441902      16.45895386
H       -2.02421808      28.27184677      20.05187416
H        2.04482889      58.32443619      20.53692055
H        3.43659663      24.46788788      17.07849503
H       -3.96857476      26.44839668      21.64223862
H        1.20637643      28.45231628      15.17806053
H        5.65856075       0.33885071      14.21563053
H        0.24162628      24.44910049      22.25659943
H        5.01258945       0.68003732      16.55850792
H        0.41280076      24.77458000      19.81554031
H       -3.59467411      25.67554855      19.33054924
H        0.76999241      27.79334068      17.49384308
C       -6.01682377      24.37620354      24.44485855
C       -5.40088224      27.36163139      26.62318802
C       -0.66524446       1.23505044      27.26911354
C       -1.67990887      27.00105667      24.72817802
C       -5.29675865      25.14963341      23.57116508
C       -6.25538111      28.13818550      27.35197830
C       -1.48750794       0.47278190      28.04197502
C       -0.98743069      26.10457611      23.96580315
C       -5.07328415      24.71733284      22.23919678
C       12.27760029      27.84422874       0.18460406
C       16.71395111       0.99556971       0.68467307
C       -0.91584933      26.25529099      22.56267738
C        9.67362976      25.70127869       0.14390819
C       -2.29875994      28.24337387      22.75362396
C        2.05124021      58.59761429      23.22727203
C       -5.04601812      25.90388870      28.50844574
C        2.06235075      58.90380478      24.55699921
C       -4.78143311      26.23691750      27.21215057
C       -8.72325516      25.41085434      27.40267181
C       -2.34136415      28.08576775      24.11146164
H       -6.18038940      24.72427177      25.44411278
H       -5.19330168      27.63349342      25.58445168
H       -0.23812820       0.80746323      26.35442162
H       -1.74605596      26.88435936      25.80980110
H       -4.88650990      26.09441757      23.88125992
H       -6.73734903      28.99319458      26.89615440
H       -1.70281684      58.38280869      27.78341293
H       -0.48578867      25.26402664      24.42105484
H        9.91062546      26.65166664       0.61113191
H       -2.82986856      29.04277611      22.27045631
H        1.86407089      57.59350204      22.90348053
H       14.21224689      25.02022362       0.43846101
H        1.86941707      58.14368439      25.29260063
H       -4.10076189      25.61495018      26.63471603
H       -8.11896324      26.12075424      26.86120224
H       -2.87448311      28.76733017      24.73067284
C        7.57943058       2.40999222       2.48158121
C        9.04302311       4.34059858       5.26070070
C       12.91407585       7.13874245       5.30354404
C       11.86236572       4.06073999       2.78356838
C        8.57167816       3.04419231       1.79084384
C        8.23102093       5.16940641       5.97514009
C       12.10016346       6.27982044       5.98858070
C       12.61216164       3.28691649       1.95325494
C        8.88045883       2.66691542       0.45950314
C        7.70929098       4.76809597       7.22603464
C       11.70729160       6.55979347       7.31602573
C       13.08757877       3.78630519       0.72053713
C        4.69931269       2.89667559       6.80739498
C       11.97194004       5.90174246       1.24247479
C       15.86823082       5.83436203       1.24472857
C        8.85021591       2.62624621       6.95165348
C       15.47314644       6.16188288       2.50476789
C        9.37063313       3.05619502       5.76394081
C        5.00262499       2.33327341       5.59756041
C       11.53963184       5.39378834       2.43158221
H        7.36454582       2.70855808       3.50645733
H        9.45044518       4.66450024       4.32426786
H       13.19315815       6.90237617       4.29090548
H       11.50335121       3.66366339       3.72223163
H        9.13163185       3.85330629       2.23230910
H        7.98900223       6.17283487       5.63437128
H       11.75519085       5.36893940       5.51462173
H       12.88287735       2.27329659       2.24002743
H        5.19448757       3.82329202       7.13419628
H       11.73446178       6.90817165       0.95316041
H       15.55683708       4.87515116       0.79841721
H        9.10615540       1.65125537       7.36014366
H       14.86395645       5.47185326       3.09453201
H       10.04443264       2.42068291       5.22319126
H        5.71915817       2.80081916       4.95561457
H       10.91236496       6.00333977       3.07603145
C        2.59483719       2.17056084       9.79127598
C        3.87691951       4.67943382      12.34513187
C        7.95766020       7.25399733      12.37528515
C        6.65236855       3.89718270       9.67060375
C        3.48091531       2.79271150       8.96204472
C        3.27057076       5.50251627      13.25462532
C        7.12658024       6.45603704      13.11538887
C        7.42170763       3.04304790       8.93936253
C        3.76523089       2.26719475       7.67706394
C        2.88041639       5.01947641      14.52725792
C        6.83782530       6.78061962      14.46696854
C        7.99297953       3.46458888       7.70960855
C        0.05528285       3.05043054      14.24667549
C        6.90698099       5.63025427       8.01886654
C       10.87373447       5.68302584       8.04991436
C        3.67201471       2.82038426      13.86278248
C       10.45809841       6.00669193       9.31223488
C        4.08163929       3.30619669      12.65812111
C        0.32028896       2.68856382      12.95283890
C        6.40253115       5.21233034       9.21140289
H        2.39776134       2.58854556      10.75812435
H        4.17884111       5.05959654      11.38983345
H        8.18628693       6.97018671      11.36505127
H        6.23295498       3.57365441      10.60878372
H        3.96694827       3.69358063       9.26964760
H        3.08441091       6.55619097      13.01153946
H        6.69792509       5.56127691      12.68561554
H        7.61175919       2.03933859       9.28864765
H        0.52259755       3.92672968      14.68304729
H        6.70825148       6.63150930       7.66396713
H       10.54648495       4.75913668       7.58313370
H        3.76606393       1.76497507      14.09923363
H        9.81744289       5.33719254       9.84770489
H        4.55569744       2.65459585      11.94382000
H        0.99132073       3.28942418      12.37324142
H        5.76985121       5.88513899       9.82649708
C       -1.98729551       1.89438224      17.13707352
C       -0.61502433       4.34461832      19.69399834
C        3.41068840       7.16073799      19.71842003
C        2.12244630       4.00999022      17.02779770
C       -1.08595061       2.61413884      16.40499878
C       -1.09584677       5.25920677      20.58688545
C        2.70110488       6.36569309      20.57107925
C        2.72319746       3.17710066      16.12297821
C       -0.82826269       2.28168941      15.04732037
C       -1.32071435       4.90297270      21.93696213
C        2.47841764       6.78423977      21.91515923
C        3.10892868       3.66425633      14.84898758
C       -4.24833059       3.50245404      21.86963272
C        2.25805211       5.85775566      15.48106956
C        6.00553179       5.95179176      15.26484299
C       -0.54167640       2.65778112      21.40860748
C        5.71341181       6.29445076      16.55633545
C       -0.35033435       3.02256298      20.10536766
C       -4.04537725       3.42307043      20.51727104
C        1.86936927       5.36129379      16.69484901
H       -2.17078519       2.15809798      18.17851067
H       -0.46568993       4.61852360      18.64823341
H        3.58144474       6.82714176      18.69654274
H        1.81649339       3.63231158      17.98353577
H       -0.55902690       3.46249509      16.84238052
H       -1.32403362       6.28628922      20.27948952
H        2.27964306       5.40853214      20.26476669
H        2.89110065       2.13482141      16.36876488
H       -3.76842523       4.22925615      22.46601868
H        2.05878735       6.90118027      15.21594524
H        5.60991526       5.05106878      14.81948185
H       -0.31181306       1.62495613      21.73303032
H        5.08247614       5.65802097      17.15364647
H        0.02480020       2.28992987      19.38772202
H       -3.36030746       4.10361290      20.02873802
H        1.35434377       6.01884699      17.40713882
C       -6.31552219       1.90886784      24.49306297
C       -4.85706472       4.84160185      26.79157448
C       -0.98447233       7.28130245      26.96307182
C       -1.73886859       4.14719677      24.60317802
C       -5.40237474       2.72318983      23.89338684
C       -5.62632895       5.60398245      27.62563133
C       -1.73901153       6.39505434      27.67781067
C       -1.21313190       3.24061203      23.72342491
C       -5.14995384       2.62410831      22.51445389
C       12.74315071       5.10706282       0.35257348
C       16.64813805       6.71300507       0.47782016
C       -1.01448941       3.58869052      22.35919571
C       -8.92461109       3.33521223      28.24057579
C       -1.88754678       5.81419086      22.86437798
C        1.73261619       6.00109959      22.83630753
C       -4.90590763       3.01295924      28.36921310
C        1.49403930       6.44831514      24.09689140
C       -4.48143291       3.52560997      27.17975807
C       -8.62378216       2.94087148      26.96067238
C       -2.10578132       5.44247675      24.15805054
H       -6.51557446       1.99085033      25.52461243
H       -4.53544760       5.22549391      25.84595489
H       -0.67630953       7.02735329      25.96363258
H       -1.88461792       3.85687637      25.63232231
H       -4.88785505       3.47808433      24.45761490
H       -5.90591717       6.61259460      27.34288788
H       -2.03702688       5.45249844      27.26805496
H       -0.93137783       2.24754334      24.04870605
H       10.37821102       4.19471169       0.16130285
H       -2.17847753       6.77505779      22.50920296
H        1.32763553       5.03514385      22.51590538
H       14.18769646       1.99025011       0.14520344
H        0.88899785       5.82962751      24.77287674
H       -3.85966182       2.92234111      26.52934456
H       -7.87666225       3.47928357      26.39576149
H       -2.56778121       6.13990498      24.84925461
C        7.90393209       7.40300703       2.99374771
C        8.90430260      10.15936852       5.30460405
C       12.99600887      12.70061779       5.46468067
C       12.03576374      10.00725174       3.08162355
C        8.74918461       8.19369507       2.27380490
C        8.13988876      10.98842621       6.07476473
C       12.22353554      11.85015011       6.19866753
C       12.80894089       9.18538189       2.32436585
C        9.08948898       7.85774422       0.93359965
C        7.78568172      10.62068653       7.40821838
C       11.87506199      12.15570450       7.53441286
C       13.13633823       9.52094460       0.98742199
C        5.01531410       8.63200951       7.12516022
C       11.87667084      11.58961201       1.26735389
C       15.84895229      11.43361568       1.35774004
C        8.96500874       8.52475643       7.06828976
C       15.49056911      11.82282829       2.61822414
C        9.33007622       8.90710926       5.81460524
C        5.35337973       8.33791065       5.83179283
C       11.55673027      11.22800827       2.54868507
H        7.65348148       7.67264318       4.00204039
H        9.18199158      10.45849609       4.30794239
H       13.24394989      12.43252945       4.43449306
H       11.78983784       9.73419380       4.10632610
H        9.19933891       9.08595276       2.71347475
H        7.77719307      11.94626617       5.70518780
H       11.86012363      10.92302132       5.79376745
H       13.18236923       8.23722267       2.73167253
H        5.38133383       9.52596951       7.60517120
H       11.50449562      12.51933479       0.85385495
H       15.54797649      10.47683620       0.96773452
H        9.26791477       7.55291033       7.46423864
H       14.88075256      11.15029049       3.22950292
H        9.93447590       8.24435997       5.18334961
H        5.99743557       9.01027489       5.27215433
H       10.94705391      11.88878918       3.15968490
C        2.98320270       7.22863197       9.90336323
C        4.13822603      10.33558750      12.56545830
C        8.25742054      12.72855568      12.56728745
C        7.12144136       9.85422802      10.01652431
C        3.81854939       8.06422043       9.21464729
C        3.41291761      11.18961048      13.35339737
C        7.46191883      11.90728474      13.31098270
C        7.85673952       9.00744534       9.22264481
C        4.18596792       7.76959276       7.87293530
C        3.07578874      10.84213352      14.68363953
C        7.11495876      12.25055313      14.64629364
C        8.20702553       9.37700939       7.90213299
C        0.41188905       8.80859756      14.43834019
C        7.03904915      11.48154640       8.23910427
C       11.07409859      11.28919220       8.31989574
C        4.18333960       8.70859718      14.34555817
C       10.74411964      11.61684132       9.60740280
C        4.51950026       9.07026672      13.06983089
C        0.71416527       8.44587803      13.15841770
C        6.71304226      11.11392212       9.51150990
H        2.70015693       7.47287560      10.93120384
H        4.39801407      10.60902023      11.55195808
H        8.52807903      12.44979572      11.56764984
H        6.87011814       9.56446075      11.01009369
H        4.20389652       8.96186161       9.65438461
H        3.10391927      12.16799736      12.96730614
H        7.10810614      10.98045731      12.89563274
H        8.16704655       8.04560757       9.58303356
H        0.75826710       9.75692654      14.84556103
H        6.73205137      12.43554497       7.83229256
H       10.71525478      10.36271000       7.88015127
H        4.46989822       7.73252153      14.74764061
H       10.11054516      10.94165611      10.19842243
H        5.08878994       8.38729382      12.45592976
H        1.32212722       9.11164856      12.52727318
H        6.12213230      11.79518414      10.14050579
C       -1.40705085       7.48559904      17.40236092
C       -0.43868336      10.20484161      19.75415230
C        3.42448330      12.87056828      19.70186806
C        2.40750456      10.10748863      17.30498505
C       -0.64340091       8.30902290      16.61796570
C       -1.19866216      11.02851105      20.52628326
C        2.70251107      12.02199554      20.48171425
C        3.12946773       9.23975086      16.51932526
C       -0.34213603       7.95091152      15.27463627
C       -1.51458430      10.69050407      21.86490440
C        2.37200284      12.37423706      21.81974983
C        3.46711898       9.59259987      15.18670177
C       -4.26147270       8.63146210      21.62477112
C        2.34322834      11.72054958      15.51488209
C        6.31315374      11.40510178      15.44713783
C       -0.27683678       8.61852741      21.56267166
C        5.96375561      11.77241135      16.71723557
C        0.03398100       8.97659397      20.27806664
C       -4.00924826       8.40703201      20.30378151
C        2.00744390      11.36192131      16.78669739
H       -1.63754261       7.77897596      18.42002296
H       -0.20159729      10.48178768      18.73940659
H        3.66541958      12.59490585      18.67639732
H        2.15859890       9.82758617      18.32258224
H       -0.27113560       9.24099541      16.98209190
H       -1.56123149      11.97022057      20.12529564
H        2.37173939      11.05320644      20.10939598
H        3.42660022       8.28161526      16.89048004
H       -3.86208844       9.49950123      22.12526703
H        2.04599261      12.68807793      15.11679649
H        5.96495962      10.46963215      15.02878857
H        0.07644437       7.68580341      21.96669197
H        5.33964634      11.13470459      17.32191849
H        0.62377226       8.31818295      19.65165520
H       -3.39802313       9.09925556      19.74278641
H        1.44183266      12.05464077      17.40678024
C       -6.15459299       7.09468460      24.42878723
C       -5.03321314      10.24832153      26.88531113
C       -1.07620955      12.75490856      26.95694733
C       -2.08508492       9.97830486      24.51013947
C       -5.34245539       7.95123291      23.74569893
C       -5.81172371      11.07353306      27.64173889
C       -1.82586908      11.91553593      27.73221016
C       -1.33594859       9.13746548      23.73713493
C       -5.05869818       7.74040556      22.36951065
C       12.66684628      10.73870373       0.45541745
C       16.61559868      12.28556442       0.52393138
C       -1.03681040       9.47076607      22.38809395
C        9.95753002       8.66817570       0.16080426
C       -2.27536416      11.55011559      22.69174004
C        1.66808867      11.48906040      22.66434860
C       13.92996883       8.67516994       0.18186462
C        1.36202872      11.83885288      23.95272255
C       -4.55146027       9.02872849      27.43122673
C       -8.50661564       8.31397533      27.41358566
C       -2.56858134      11.19986725      23.98144722
H       -6.37313557       7.26393509      25.47708702
H       -4.78993082      10.50020885      25.84737396
H       -0.80634916      12.45280457      25.94574547
H       -2.32259727       9.69594479      25.53370285
H       -4.89720154       8.79795361      24.23971748
H       -6.18717766      11.99740505      27.23277473
H       -2.17474842      10.96057224      27.35166931
H       -0.95622635       8.22301769      24.13132095
H       10.34977436       9.58781242       0.58426124
H       -2.62406802      12.47281361      22.27796936
H        1.36416185      10.52206802      22.26445770
H       14.28076363       7.74702072       0.59773880
H        0.83298695      11.15612698      24.59990501
H       -3.92732334       8.36773491      26.82936096
H       -7.81724739       8.92624474      26.84673691
H       -3.16700959      11.86106014      24.61328506
C        7.99926090      13.02592468       3.07021117
C        8.98988724      15.64715195       5.48188400
C       12.96201420      18.04279518       5.47917795
C       11.90829563      15.55892277       3.03582382
C        8.75436306      13.86931992       2.29496837
C        8.26113319      16.48884773       6.27917910
C       12.17372417      17.21161652       6.23984480
C       12.69924927      14.72784901       2.30623579
C        9.09819508      13.51268196       0.97207850
C        7.92441177      16.10776329       7.60837984
C       11.84686756      17.55135727       7.57448053
C       13.04076672      15.05573559       0.96924108
C        5.14818335      14.26085091       7.27757072
C       11.76541615      17.12046814       1.20597935
C       15.77435589      16.99748039       1.13060093
C        9.07585335      13.98717785       7.22447205
C       15.43214130      17.34687424       2.40286851
C        9.40896130      14.39338207       5.96227169
C        5.48993349      13.91806221       6.00605583
C       11.43342781      16.77757835       2.49099875
H        7.74270058      13.33566856       4.07136917
H        9.24288464      15.94779205       4.48866987
H       13.20644665      17.77911949       4.45551491
H       11.64997768      15.29188061       4.06085682
H        9.06225204      14.82276249       2.69056392
H        7.93850708      17.45745659       5.93042040
H       11.80183125      16.27992249       5.84461832
H       13.07341766      13.79529095       2.73076963
H        5.49939680      15.18595886       7.71624327
H       11.40130901      18.05800629       0.77849668
H       15.47161961      16.05723381       0.73200470
H        9.38545036      13.03129578       7.59114981
H       14.81644535      16.65793991       3.02724767
H        9.99569988      13.70990562       5.33054781
H        6.09601212      14.58561230       5.42057800
H       10.78987217      17.43458748       3.07378125
C        3.21267915      12.89433861      10.14009762
C        4.17538500      15.70512199      12.60727882
C        8.24958992      18.09622002      12.59589291
C        7.27438927      15.29209137      10.20467091
C        3.99879265      13.71984673       9.41250420
C        3.41253710      16.54005432      13.37193298
C        7.45005655      17.27582932      13.34086800
C        7.99781084      14.46025276       9.40445805
C        4.34819412      13.39887524       8.07432079
C        3.11131263      16.22090721      14.71805859
C        7.11358166      17.61122131      14.67747402
C        8.33491611      14.84379768       8.08281517
C        0.37094286      14.40640068      14.40915489
C        7.19902992      16.95699120       8.46701336
C       11.04865742      16.70436287       8.37993526
C        4.33868980      14.12513924      14.42153835
C       10.70981216      17.06963158       9.65028286
C        4.64403200      14.47942448      13.14033890
C        0.69572705      14.04030895      13.12934971
C        6.86486387      16.56028748       9.73515511
H        2.91652870      13.16040516      11.13913250
H        4.40814066      15.96791935      11.57220745
H        8.49438000      17.82006264      11.59030914
H        7.01348495      14.96889687      11.19734192
H        4.35822201      14.65011692       9.83488464
H        3.03697062      17.47842979      12.96380425
H        7.07066965      16.35798454      12.92326641
H        8.32454014      13.49223042       9.74262714
H        0.66919273      15.36885738      14.78425503
H        6.88983393      17.93437767       8.09747601
H       10.70393848      15.76380348       7.94526148
H        4.68616438      13.18357849      14.82855701
H       10.06542110      16.42350960      10.24136543
H        5.23172617      13.80398846      12.53590488
H        1.26057100      14.72409248      12.51060390
H        6.29140949      17.22919655      10.39099789
C       -1.41049218      13.03270817      17.36485291
C       -0.47140500      15.81755066      19.75370598
C        3.50381231      18.35035896      19.76389122
C        2.50395226      15.50005341      17.35085106
C       -0.68428171      13.88124752      16.58617210
C       -1.21407104      16.67601395      20.51798248
C        2.70391798      17.53726196      20.51141357
C        3.25533795      14.66319466      16.59306145
C       -0.35691488      13.53332424      15.24898243
C       -1.56910384      16.33590508      21.84657669
C        2.38079405      17.86879539      21.85267448
C        3.57051253      14.99468136      15.25020504
C       -4.35180950      14.36337090      21.60916328
C        2.36079121      17.07864952      15.54070950
C        6.30921888      16.76074219      15.47723866
C       -0.41417500      14.21251965      21.54427147
C        5.98889160      17.10628510      16.75556183
C       -0.06136518      14.56544209      20.27726746
C       -4.01894236      14.01991558      20.32975197
C        2.05214691      16.73152924      16.83371544
H       -1.66888273      13.30692863      18.38159180
H       -0.18705074      16.10971260      18.73846436
H        3.75897408      18.06856155      18.74943924
H        2.23792648      15.22473240      18.36799049
H       -0.36680588      14.83096790      16.94444084
H       -1.52930617      17.63299370      20.13028908
H        2.29438567      16.61153221      20.11109924
H        3.62756634      13.72391701      16.98696518
H       -4.06523561      15.31333923      21.99517250
H        2.00116324      18.01628494      15.13962173
H        5.97296333      15.82553482      15.04737473
H       -0.11635090      13.25410366      21.93854904
H        5.36619997      16.42755127      17.36965370
H        0.53141207      13.91069698      19.65031242
H       -3.45390916      14.70436668      19.71499252
H        1.45498037      17.39169121      17.42527962
C       -6.17923784      12.93773460      24.52763748
C       -5.12186193      15.74223328      26.86240005
C       -1.15800011      18.38455200      26.76176071
C       -2.25604963      15.61463451      24.45735359
C       -5.45155811      13.80618000      23.76137543
C       -5.90302706      16.58151817      27.60470009
C       -1.90474248      17.52982330      27.52028084
C       -1.51531804      14.75331879      23.69527626
C       -5.08393002      13.47058487      22.43111801
C       12.56740761      16.26593971       0.41631436
C       16.53581047      17.87431335       0.32122460
C       -1.16677129      15.08559608      22.36407280
C        9.84554768      14.37790489       0.13970543
C       -2.32096052      17.21192551      22.65923309
C        1.57709014      17.02325249      22.65621758
C       13.83774376      14.19399261       0.17223546
C        1.27556002      17.36306763      23.94583702
C       -4.64911318      14.52699757      27.41114616
C       -8.61405659      14.01260471      27.39167595
C       -2.66964316      16.86248779      23.93297005
H       -6.47230959      13.23526764      25.52722931
H       -4.86939907      16.00650024      25.84287834
H       -0.87423295      18.10215950      25.77541161
H       -2.52642083      15.34112549      25.46385193
H       -5.15658045      14.77835655      24.12318993
H       -6.26812840      17.52103043      27.17643738
H       -2.23330879      16.59112358      27.12422180
H       -1.18122983      13.80638504      24.09828949
H       10.13797665      15.35483170       0.53337157
H       -2.61391997      18.17595482      22.23041344
H        1.21401608      16.10984039      22.23808861
H       14.18045044      13.28161812       0.59779656
H        0.63776553      16.71780014      24.54923821
H       -4.03039169      13.85565376      26.82558441
H       -8.03668499      14.67968082      26.76970673
H       -3.23231745      17.51546478      24.53984642
C        7.89345169      18.62713814       2.95922184
C        8.80438900      21.27706909       5.27422714
C       12.48701572      23.35982704       5.31492758
C       11.69299316      21.21738434       2.84455585
C        8.62304020      19.47906494       2.18168211
C        7.95546293      22.05710793       6.00792122
C       11.98172474      22.52023888       6.25982189
C       12.47290516      20.37425041       2.12257743
C        9.00460529      19.12885284       0.86882716
C        7.66545057      21.74241829       7.36175919
C       11.48537159      23.03329659       7.48141766
C       12.93738937      20.73166656       0.82972801
C        5.15177917      19.60306740       7.33676720
C       11.81110287      22.88333130       1.09921682
C       15.80183029      22.65150070       0.87213016
C        9.08286858      19.76149750       7.12499428
C       15.32427216      22.96287537       2.11573219
C        9.36539078      20.11128235       5.83970070
C        5.48472118      19.26441574       6.05888224
C       11.35186863      22.49382973       2.32535291
H        7.60057735      18.91563797       3.95283651
H        9.02565289      21.54878998       4.24480581
H       12.91545200      22.98163033       4.38935757
H       11.33752728      20.92461395       3.82026029
H        8.90881443      20.45130730       2.53894782
H        7.49926615      22.95057106       5.57071161
H       11.97767448      21.46023750       6.09173489
H       12.73597908      19.39199066       2.51966357
H        5.49963093      20.54344940       7.76867056
H       11.54123211      23.85784721       0.70426923
H       15.59752750      21.70210838       0.41672850
H        9.49234962      18.85931206       7.57092190
H       14.70901108      22.23487854       2.64400744
H       10.01444626      19.47481346       5.25430679
H        6.09847832      19.94594383       5.46539211
H       10.73645973      23.16883278       2.92056775
C        3.16330767      18.27081871      10.18046188
C        4.08134794      20.98955917      12.49284744
C        7.83246851      23.36835098      12.47945213
C        7.08765030      21.02833557       9.99703503
C        3.98802209      19.08617401       9.45477200
C        3.29655242      21.85029984      13.19550991
C        7.19376993      22.54885292      13.36317539
C        7.93300962      20.24694252       9.26915455
C        4.34105444      18.74974251       8.13306141
C        2.97584677      21.59945488      14.54858875
C        6.92116022      22.99646568      14.68583298
C        8.23719025      20.57921982       7.92342186
C        0.27130270      19.78097343      14.39134407
C        6.80062103      22.54050827       8.13944054
C       11.00822830      22.17575073       8.51470184
C        4.29315901      19.54853630      14.41362667
C       10.60676193      22.67497635       9.71220589
C        4.58504200      19.81963348      13.10582256
C        0.59640735      19.43222809      13.10716820
C        6.50064230      22.18897629       9.42561150
H        2.87645364      18.53600883      11.17835999
H        4.30277967      21.20273781      11.46326733
H        8.04021645      23.00676155      11.47192955
H        6.83686733      20.74799728      11.03410721
H        4.36142969      20.00685501       9.86453438
H        2.87377548      22.74582672      12.72627163
H        6.86950541      21.56738853      13.09800816
H        8.37885761      19.35581207       9.70121288
H        0.58325452      20.72426224      14.79467487
H        6.33827114      23.41593742       7.69478035
H       10.97485447      21.13452530       8.31090164
H        4.66041136      18.64278412      14.89325142
H       10.24637127      22.04102707      10.47878075
H        5.20919991      19.14678001      12.55082512
H        1.17477238      20.11307144      12.50283718
H        5.83355331      22.80519676      10.00345325
C       -1.52649236      18.39366722      17.33375168
C       -0.49321002      21.40151787      19.63300514
C        3.36923122      23.66968346      19.69585800
C        2.35992122      21.02792358      17.22478104
C       -0.79780465      19.24015427      16.55920410
C       -1.22393465      22.26917076      20.39236259
C        2.69582319      22.88431549      20.59332275
C        3.16716766      20.18346977      16.52506256
C       -0.47212768      18.90489578      15.22203255
C       -1.51101744      21.97857094      21.74636650
C        2.44607949      23.34962845      21.90525246
C        3.48137522      20.43639183      15.16617012
C       -4.28937054      19.98123169      21.54553413
C        2.14044380      22.46289444      15.30658722
C        6.26655245      22.16257095      15.63124752
C       -0.32183883      19.86971283      21.48970795
C        5.98027754      22.62214661      16.89262009
C       -0.01852197      20.17775154      20.19307137
C       -3.93363881      19.60138130      20.27512360
C        1.83352351      22.18338394      16.60372353
H       -1.78931200      18.65765762      18.36952209
H       -0.27401945      21.64192390      18.60322189
H        3.56332254      23.29922295      18.70354080
H        2.12675881      20.80747032      18.26503944
H       -0.45126396      20.20475769      16.95191765
H       -1.59183800      23.20129776      19.97549438
H        2.35703659      21.89652061      20.32950592
H        3.60379648      19.28512764      17.00026703
H       -3.95124865      20.92761803      21.95054054
H        1.74048841      23.34751892      14.81000423
H        5.98733234      21.14459419      15.33148289
H        0.01460560      18.95766258      21.91327667
H        5.47292566      21.98569870      17.58966446
H        0.57094663      19.47968102      19.57872772
H       -3.33093071      20.25538063      19.66105270
H        1.17420852      22.83737755      17.17602158
C       -6.18296051      18.60762978      24.44963646
C       -4.98824787      21.49870110      26.81144142
C       -0.83001518      24.15301704      26.77816582
C       -2.11733627      21.31842995      24.39624596
C       -5.41535234      19.45785522      23.68758583
C       -5.73174191      22.36551476      27.54893112
C       -1.65323210      23.27337074      27.41396332
C       -1.37925148      20.44461632      23.64637184
C       -5.06960058      19.11694908      22.35817719
C       12.59930038      22.00228882       0.31471613
C       16.60614777      23.57674980       0.15733586
C       -1.07241213      20.75553703      22.29983330
C        9.76397038      19.99896049       0.04223062
C       -2.24957180      22.87783432      22.56793404
C        1.76753855      22.55498505      22.85931206
C       13.71322250      19.84695435       0.03837043
C        1.53608632      23.02521133      24.11847877
C       -4.66572762      20.22243118      27.32188988
C       -8.67533875      19.61229897      27.30514717
C       -2.55039072      22.55147552      23.85755539
H       -6.44090366      18.90746307      25.45012665
H       -4.62630272      21.79641914      25.82734680
H       -0.41705954      23.88486099      25.82022667
H       -2.37620974      21.04669952      25.42973328
H       -5.08505297      20.42314148      24.10177803
H       -5.98263597      23.35836792      27.18055153
H       -1.89201403      22.31064606      26.94886589
H       -1.03877759      19.49969673      24.05845642
H       10.06809139      20.96152115       0.44506121
H       -2.57683039      23.81418228      22.14990044
H        1.43412864      21.58669472      22.57878494
H       13.97175312      18.86358261       0.42536959
H        1.00810242      22.39722061      24.82976532
H       -4.06119251      19.54692078      26.73416519
H       -8.08359432      20.29399109      26.68777275
H       -3.12531543      23.22612381      24.44905090
C       15.61777687      24.21032143       2.70206451
C       15.81859970      26.63936424       4.85233641
C       21.05838585       1.42870700       5.55254745
C       19.98164749      27.00332642       2.68930125
C       16.38101196      25.12495422       2.01771569
C       14.95880127      26.74695587       5.90809155
C       20.06373596       0.78397805       6.23885918
C       20.75750160      26.18782425       1.92040241
C       16.90515709      24.82678032       0.74094981
C       15.29607105      26.19749641       7.16264868
C       19.67170525       1.22740626       7.51852083
C       21.10987663      26.55955505       0.59645206
C       11.90604496      25.26835251       6.65389633
C       19.83020973      28.62218666       0.90417409
C       23.30050659      58.86179733       1.32201850
C       17.42132187      25.45866013       6.21993876
C       23.14836502       0.18509860       2.65466309
C       17.04586601      25.95555687       5.01086617
C       12.42723274      24.75515366       5.50435686
C       19.50513268      28.23110199       2.17173910
H       15.24237156      24.44848442       3.68070745
H       15.55721283      27.08957291       3.90105009
H       21.36870193       1.02131116       4.58816195
H       19.74462318      26.73753738       3.70221472
H       16.60581970      26.09133148       2.43047023
H       14.01337910      27.27292633       5.78218937
H       19.61573982      58.84103012       5.82727289
H       21.10699463      25.25612640       2.31078482
H       11.82014561      26.33751297       6.79421473
H       19.48119354      29.58717728       0.50801057
H       22.85841179      57.98249054       0.87432414
H       18.38685608      24.97648430       6.32592630
H       22.60519791      58.43936157       3.28575754
H       17.72354126      25.84944916       4.18030643
H       12.80316067      25.41237640       4.74292421
H       18.89019394      28.88336563       2.78384924
C       10.67434311      24.06532669       9.95746422
C       11.57365990      26.45688248      12.78173351
C       15.31951237       1.73183537      12.39410877
C       16.11429596      25.33727646       9.69595623
C       11.09252071      24.92195892       8.97910881
C       10.78397179      27.29268265      13.52725697
C       14.47760010       1.17683935      13.31798267
C       16.96116638      25.20827293       8.63553143
C       11.49345493      24.42895508       7.71135330
C       10.53587723      27.02664375      14.89966869
C       14.53181839       1.57629764      14.67886829
C       16.56560326      25.60963440       7.34321403
C        7.95924520      25.11761665      14.12340927
C       14.42367458      26.26369667       8.27380371
C       18.66497803       0.56826919       8.27194023
C       11.95856380      25.04752541      14.69548702
C       18.27034950       1.05956304       9.48134232
C       12.18636513      25.32763100      13.37775898
C        8.22815132      24.66459274      12.86784267
C       14.80409431      25.83788300       9.51141071
H       10.38292885      24.44292450      10.93938255
H       11.74502468      26.67586899      11.73382282
H       15.26532841       1.40422153      11.35796452
H       16.44211960      25.06217575      10.67345619
H       11.10918331      25.98980331       9.13883114
H       10.35157108      28.17635155      13.08534908
H       13.74381065       0.43610066      13.02565002
H       17.96469307      24.83455467       8.76702118
H        8.27400112      26.10238266      14.43396378
H       13.44299507      26.69919968       8.10371017
H       18.19873238      58.63819504       7.85548735
H       12.42550850      24.18286514      15.16453457
H       17.48786926       0.59104210      10.03906536
H       12.83499908      24.70162582      12.78052235
H        8.71534061      25.32565117      12.14147377
H       14.13936329      25.92496300      10.33633232
C        6.36104107      23.92980766      17.26882744
C        7.09403467      26.47713470      19.73320007
C       11.05991554       2.48723578      19.41793823
C       10.06791306      26.41965294      17.59996223
C        7.00983334      24.73835564      16.38894844
C        6.26630354      27.33960342      20.38527298
C        9.90285492       2.05454564      19.98616409
C       10.84711075      25.58437157      16.84402847
C        7.30583715      24.29521370      15.07403374
C        6.13638401      27.29348564      21.79632378
C        9.65612030       2.24505520      21.37219238
C       11.11387730      25.87427521      15.48555946
C        3.48636746      25.47193909      21.29231453
C        9.73320198      27.87723160      15.70259380
C       13.68013573       1.00475621      15.64590549
C        7.62393951      25.36983299      21.80122948
C       13.72057056       1.42195034      16.94289017
C        7.78323555      25.47291565      20.45010185
C        3.75378656      24.97737122      20.04438400
C        9.50904179      27.58117867      17.01580811
H        6.11587286      24.30040359      18.25676155
H        7.19751596      26.54875946      18.66065979
H       11.23269367       2.34381056      18.35753059
H        9.90527058      26.21383286      18.64207268
H        7.31683826      25.75007439      16.70737839
H        5.71603298      28.10387611      19.84998322
H        9.13600731       1.57431042      19.36952972
H       11.30701828      24.70096588      17.27173996
H        3.77039456      26.48192787      21.55441856
H        9.32696819      28.76995277      15.26838779
H       13.00775719       0.22313382      15.34605312
H        8.10719204      24.57172394      22.34991455
H       13.07553196       0.98281187      17.67554092
H        8.41973495      24.77284813      19.90899086
H        4.22067356      25.60913467      19.30366325
H        8.90826416      28.28057480      17.61295319
C        1.98419750      24.30886841      24.49049950
C        2.98749399      27.34463882      26.52930260
C        5.96538353       1.54904222      26.83376122
C        5.93322086      27.16054153      24.58429527
C        2.62756944      25.10975838      23.58942032
C        2.19655442      28.15672874      27.28343201
C        5.30140972       0.65194362      27.61588478
C        6.67965651      26.23018265      23.91860008
C        2.86221409      24.64349365      22.27086258
C       20.64020538      27.79539490       0.08351181
C       24.03089333       0.82108903       0.49198407
C        6.81826067      26.28114510      22.51413918
C       17.75229454      25.73091507       0.05493706
C        5.34249306      28.22380257      22.50946045
C        8.49650669       1.77918589      22.00523376
C        3.11066532      25.72722244      28.30581856
C        8.28785229       1.99874711      23.33043098
C        3.45640016      26.11231422      27.04478455
C       -0.50304145      25.39689446      27.37714958
C        5.27055931      28.17945671      23.86732101
H        1.80386412      24.67903900      25.49217606
H        3.24126673      27.63316154      25.50917625
H        6.00434113       1.40621650      25.76246643
H        5.86717987      27.11036110      25.67406845
H        2.96274567      26.09664154      23.84856606
H        1.82978642      29.09320068      26.87193489
H        4.80866718      58.72459030      27.17971992
H        7.16173029      25.42607498      24.46072197
H       18.00391769      26.67862129       0.53077000
H        4.84338856      28.99314117      21.97322464
H        7.79394627       1.19096041      21.42839241
H       22.25722504      24.78215790       0.18962596
H        7.42978382       1.59454513      23.81208420
H        4.09634447      25.47250557      26.43554688
H        0.17402905      26.06238556      26.89937782
H        4.69002151      28.92394638      24.40261459
C       15.65588093       2.08342886       3.03543186
C       16.90155029       4.76556015       5.26336336
C       20.94912338       6.99386311       5.45387220
C       20.00644302       4.29743576       3.18289876
C       16.54689980       2.80847383       2.30579495
C       16.17046547       5.58668041       6.06901455
C       20.15914917       6.15668917       6.19449663
C       20.73601341       3.51679444       2.32419658
C       17.06241417       2.30786276       1.08478165
C       15.72421837       5.14814043       7.34399509
C       19.76444244       6.50945616       7.51023865
C       20.97525787       3.93825197       0.99647719
C       12.90820408       3.16698670       7.00977945
C       19.74256516       5.98607826       1.48177063
C       23.77912331       5.72977972       1.21159232
C       16.74493027       2.98646545       6.87749863
C       23.44268036       6.06205988       2.49536562
C       17.20859337       3.44835186       5.68195772
C       13.16583061       2.85719132       5.71053982
C       19.49389648       5.54211617       2.74883604
H       15.30025387       2.46585464       3.98413229
H       17.23121452       5.13358545       4.29829931
H       21.23337746       6.70489788       4.44301748
H       19.82579231       3.93278408       4.18956709
H       16.86321259       3.79096508       2.63817525
H       15.93275166       6.61525965       5.77126360
H       19.82518578       5.21968031       5.80297232
H       21.16124916       2.58770323       2.64821053
H       13.16310310       4.14243793       7.41069078
H       19.34778976       6.92845058       1.15570390
H       23.49561691       4.77878284       0.79163551
H       16.94207954       1.96203494       7.19931316
H       22.86822891       5.36724758       3.08761311
H       17.77568245       2.80264664       5.04065037
H       13.63850975       3.60568881       5.07074738
H       18.92840767       6.16084337       3.42141151
C       11.41142654       1.59480071      10.03383160
C       12.19406509       5.09453726      12.26923084
C       16.25074387       7.23427534      12.54090309
C       14.91820431       4.26775217       9.86755562
C       11.99126244       2.53006983       9.22454548
C       11.59751892       5.99338770      13.11551571
C       15.46879768       6.40823269      13.28003693
C       15.58991814       3.40788031       9.03987217
C       12.29425716       2.22289300       7.87233734
C       11.23692322       5.60833120      14.42352962
C       15.17603683       6.71897221      14.64139843
C       16.01598740       3.82658815       7.75390339
C        8.48903561       3.93054938      14.30406570
C       15.02624512       6.01260710       8.21546745
C       18.91481400       5.67880154       8.28536987
C       12.04186630       3.36813879      13.93308067
C       18.55165863       6.04912996       9.54717827
C       12.40367889       3.76131177      12.68557549
C        8.87284851       3.74248958      13.01479530
C       14.63314056       5.58923960       9.44961262
H       11.17372036       1.82978904      11.05572605
H       12.46751785       5.40119028      11.26827431
H       16.48100281       6.99440479      11.50614262
H       14.60126019       3.94539404      10.83882999
H       12.21662426       3.53205585       9.59257412
H       11.40780830       7.00601578      12.78848934
H       15.06824303       5.49272966      12.85044670
H       15.78482151       2.40478945       9.35554123
H        8.90921497       4.73776245      14.89766216
H       14.80835438       7.01815271       7.88293028
H       18.55818748       4.74548244       7.85942793
H       12.13459492       2.31244183      14.24298477
H       17.88451958       5.41132212      10.12114716
H       12.86469269       3.07078791      12.00144005
H        9.62847900       4.39382601      12.56103706
H       14.10194778       6.27820778      10.11351776
C        6.25105953       2.41074324      16.83213043
C        7.00174427       5.49804401      19.80109787
C       11.53931046       7.09450197      19.70409203
C       10.53788185       4.80231190      17.01859856
C        7.16739082       3.24771404      16.26582336
C        6.50219965       6.23024845      20.82981491
C       10.67722416       6.30734491      20.43394279
C       11.13272476       3.90561914      16.17227745
C        7.53358603       3.08839178      14.90990257
C        5.99045992       5.59622765      21.98533440
C       10.32528400       6.66132116      21.74969673
C       11.48302555       4.28664541      14.85350513
C        2.92119908       2.97058725      21.74036407
C       10.58452129       6.50078344      15.31447792
C       14.36872005       5.86936569      15.43872261
C        6.34541273       3.45483828      20.89384651
C       14.09747791       6.18474102      16.73502731
C        6.92001152       4.09031057      19.82740784
C        3.00555873       2.65457773      20.41359138
C       10.24312878       6.10884953      16.58153534
H        5.92338753       2.55041194      17.85207367
H        7.48235893       5.98548794      18.94545937
H       11.82132626       6.80563498      18.71201134
H       10.24910545       4.48708344      18.00946999
H        7.59538984       4.05620146      16.83803940
H        6.49638176       7.31870651      20.77155304
H       10.26089954       5.39963198      20.01392555
H       11.34147263       2.89153767      16.45189667
H        3.18913817       3.96531701      22.06433678
H       10.33623314       7.48263693      14.92224503
H       13.97160149       4.95767069      14.98665142
H        6.21186256       2.39572024      20.87838554
H       13.48842049       5.51697350      17.34044075
H        7.31000900       3.50833631      19.00268555
H        3.31803632       3.39680076      19.70119667
H        9.71209526       6.78933954      17.22510529
C        2.24970078       1.29941010      24.99298859
C        2.68971658       4.84985542      26.93135643
C        6.75040674       7.21300888      26.81960297
C        5.16265297       4.29565048      24.31997681
C        2.47442389       2.28851366      24.07856369
C        1.94764042       5.62321997      27.77517700
C        6.04665899       6.31821728      27.57819939
C        5.53004074       3.55344057      23.22773170
C        2.55591226       1.98903525      22.69825172
C       20.48218918       5.19314909       0.57391852
C       24.50373650       6.63110256       0.39277729
C        5.94239855       4.19365215      22.03420067
C       17.92658615       3.07566977       0.26700753
C        5.55408955       6.34271431      23.11463928
C        9.40877438       5.89302683      22.51282501
C       21.70364571       3.13763261       0.08988792
C        9.07349968       6.26780653      23.78557205
C        3.17514133       3.59525990      27.35656738
C       -0.36347547       2.55949211      27.63569450
C        5.14626980       5.70297337      24.25487900
H        2.21289968       1.53060293      26.04909325
H        2.89580297       5.20899630      25.92910767
H        6.99523783       6.94768906      25.78426933
H        4.86904240       3.79970050      25.23318481
H        2.61469722       3.31873775      24.37760735
H        1.55437517       6.59100151      27.47198105
H        5.72723866       5.37033272      27.16892624
H        5.49064064       2.47802091      23.26629066
H       18.17821312       4.10122442       0.57781303
H        5.55199099       7.42887211      23.04948235
H        8.98132515       4.99090004      22.06107521
H       22.06605339       2.16859174       0.42191517
H        8.37694454       5.65716743      24.34292221
H        3.74911880       2.98277760      26.68688202
H        0.27667430       3.13033700      27.00991821
H        4.80999136       6.27921104      25.08821487
C       15.87306976       7.38859749       3.07687545
C       16.97446632      10.17023849       5.49074268
C       20.94553947      12.71694469       5.48129940
C       19.86881065       9.98339462       3.15832973
C       16.65204430       8.26444817       2.35960507
C       16.19847488      11.01771069       6.23489761
C       20.23182297      11.86454773       6.27260208
C       20.62773514       9.13200760       2.40199876
C       17.04412460       7.94858599       1.03444707
C       15.85507488      10.68989277       7.57153511
C       19.87948608      12.23018265       7.59238672
C       21.00837708       9.47614002       1.08101392
C       12.97702694       8.65017796       7.18208218
C       19.82456779      11.59066010       1.35619020
C       23.74278450      11.48617840       1.27351213
C       17.07110596       8.60382366       7.32044840
C       23.37185860      11.87777328       2.53178573
C       17.42045403       8.94457436       6.03428793
C       13.36226940       8.33801460       5.90172625
C       19.45918083      11.23151970       2.62185693
H       15.56591225       7.65807009       4.05973434
H       17.25550842      10.44802284       4.48814631
H       21.22707748      12.43302631       4.45765495
H       19.57444954       9.69015884       4.16199541
H       16.97439003       9.20053577       2.77081919
H       15.87912178      11.96421719       5.82318163
H       19.92574120      10.89231586       5.90274239
H       20.95393181       8.18490219       2.79862523
H       13.31012535       9.56220245       7.64206553
H       19.50330162      12.55502796       0.94157898
H       23.42020416      10.53591347       0.88272351
H       17.38035774       7.66530561       7.73399591
H       22.73432350      11.23010540       3.12695360
H       18.02610588       8.27029037       5.44669199
H       14.00190353       9.01971626       5.37245274
H       18.84831047      11.89787960       3.22475886
C       10.89435673       7.21249151       9.91004467
C       12.27565384      10.30254269      12.62519932
C       16.38265038      12.75951099      12.64786434
C       15.21909809      10.02410889      10.21348763
C       11.72706795       8.06502342       9.24093056
C       11.45365715      11.11750126      13.35060406
C       15.67092991      11.90944099      13.44505787
C       15.95835590       9.15585041       9.45635891
C       12.14450741       7.76738071       7.92030001
C       11.16113091      10.83343220      14.70573807
C       15.32311344      12.28948498      14.76765633
C       16.28875732       9.47070122       8.12063313
C        8.23230553       8.77162552      14.24166393
C       15.09396076      11.57485867       8.37756824
C       19.13809204      11.35121155       8.44054413
C       12.56739712       8.86230469      14.53604889
C       18.79750633      11.74027634       9.70019245
C       12.83807373       9.15516567      13.23332787
C        8.51831150       8.42733574      12.94348240
C       14.77479076      11.25318432       9.66349792
H       10.55065537       7.47046518      10.90056419
H       12.48247147      10.52386951      11.58488178
H       16.65059662      12.44328022      11.63245487
H       14.98293686       9.77626419      11.24816418
H       12.05945587       8.98746777       9.69776535
H       10.99872303      11.98605537      12.91563320
H       15.37595463      10.91799355      13.11059093
H       16.29659462       8.22662830       9.88607216
H        8.65777111       9.65873146      14.66720581
H       14.78071594      12.52484226       7.93032169
H       18.83884811      10.39578533       8.05067158
H       12.97382641       7.96111298      14.99951077
H       18.22168922      11.07659721      10.32283688
H       13.48281002       8.48816776      12.65210152
H        9.15405560       9.03921509      12.36373711
H       14.20005417      11.95225239      10.26490307
C        6.25637197       7.47389412      17.11714745
C        7.46557283      10.52698803      19.69952393
C       11.74818039      12.77225685      19.82843399
C       10.59029675      10.23442936      17.38282013
C        7.08982468       8.26624107      16.37884712
C        6.63341999      11.31563663      20.45206451
C       11.00824356      11.94626141      20.62353325
C       11.42926407       9.42002487      16.67286110
C        7.39464808       7.94143963      15.03649139
C        6.38012075      11.01419735      21.81350136
C       10.60576630      12.35959911      21.92193031
C       11.72524357       9.69243813      15.30968857
C        3.70391083       8.83513355      21.42012978
C       10.31448841      11.67566109      15.47348213
C       14.60837078      11.41887856      15.63552380
C        7.84047794       9.07438087      21.58457947
C       14.26552391      11.81897545      16.89693451
C        8.07436466       9.39104557      20.28490829
C        3.91467047       8.40442562      20.14333916
C       10.03107071      11.37618351      16.77928925
H        6.03090143       7.74637985      18.13833046
H        7.65372181      10.78689861      18.68020821
H       12.05642605      12.44169235      18.84734726
H       10.38283825       9.99442482      18.40413094
H        7.52987385       9.16940594      16.81344032
H        6.15715170      12.20513153      20.03674698
H       10.73068714      10.95500278      20.30701065
H       11.87267494       8.51906490      17.12473297
H        4.09415245       9.78450680      21.73849106
H        9.91877842      12.56395817      14.99068642
H       14.32481670      10.43286324      15.24051476
H        8.30027103       8.20072746      22.04305458
H       13.73054504      11.16211128      17.53437996
H        8.72455692       8.75096226      19.69051552
H        4.48898554       9.03171444      19.44694328
H        9.38226318      12.03570557      17.35728073
C        2.00798726       7.69156837      24.52257919
C        2.93484211      10.20718288      27.00876045
C        6.87885380      12.80805588      26.90757179
C        5.84672689      10.32910252      24.47646713
C        2.73871183       8.46333504      23.66840553
C        2.16533804      11.06063271      27.75152016
C        6.10304070      11.98294353      27.66858482
C        6.70823717       9.56087112      23.74444580
C        2.97984052       8.03363419      22.33716965
C       20.59689331      10.71929359       0.54584473
C       24.53749657      12.33877945       0.46568510
C        6.98299170       9.87100315      22.39147186
C       17.82371902       8.84765244       0.26299953
C        5.53605032      11.81723499      22.60906410
C        9.86203957      11.51208973      22.77609062
C       21.78160858       8.60650349       0.27950191
C        9.45542812      11.94158268      24.00711823
C        3.34447360       8.96171379      27.54635048
C       -0.59725255       8.52407837      27.52138329
C        5.25723505      11.48748970      23.90428543
H        1.79800594       8.03131199      25.53261948
H        3.22525644      10.49588108      25.99010658
H        7.16048050      12.52079105      25.91700935
H        5.63193464      10.07320499      25.50272369
H        3.15377164       9.42448521      23.96945190
H        1.81490338      11.99552059      27.34476280
H        5.76561785      11.03350639      27.28741074
H        7.19467115       8.69060707      24.18564224
H       18.12825012       9.78747368       0.71812946
H        5.12183571      12.72259331      22.16978836
H        9.61571598      10.52887821      22.43435097
H       22.08495522       7.65961933       0.69431305
H        8.86064816      11.28981113      24.63776970
H        3.96734452       8.29548645      26.95790291
H        0.00646298       9.21515179      26.95632172
H        4.61529016      12.10557556      24.51147461
C       15.90628338      13.07996750       3.12025023
C       16.98426437      15.74798012       5.48609638
C       20.99399567      18.46281052       5.45630121
C       19.88016129      15.63569927       3.05468225
C       16.67136002      13.90920639       2.34647369
C       16.24761963      16.57622337       6.28763199
C       20.22406197      17.61222839       6.19610929
C       20.64577675      14.79374313       2.30322075
C       17.03089142      13.53713608       1.02438223
C       15.94088173      16.20874023       7.62310123
C       19.92058754      17.90567780       7.55002356
C       20.98564529      15.13042736       0.96575803
C       13.12972927      14.23456478       7.31774759
C       19.75183678      17.21760941       1.24435401
C       23.72191620      17.05003166       1.20343757
C       17.13401222      14.11277962       7.24821997
C       23.35000229      17.40699196       2.46353579
C       17.44292831      14.50133324       5.98257589
C       13.45227528      13.90911388       6.02869225
C       19.42645264      16.87017250       2.52687478
H       15.62795162      13.36180305       4.12307358
H       17.21137810      16.05576515       4.49861479
H       21.20862198      18.21610451       4.42499590
H       19.63192558      15.35723972       4.08296633
H       16.98801804      14.88453484       2.72436070
H       15.89118481      17.51231384       5.91773558
H       19.84835625      16.70525360       5.78484821
H       21.00348473      13.83179760       2.71173358
H       13.49508381      15.15671444       7.76767063
H       19.41380692      18.17763329       0.81329119
H       23.39645195      16.11356735       0.78077596
H       17.47282028      13.15983295       7.64936495
H       22.71693230      16.74186897       3.05014920
H       18.02952385      13.84645653       5.34460592
H       14.05839729      14.58334255       5.44814968
H       18.81645966      17.55108643       3.13690162
C       11.22572899      12.82643414      10.17306042
C       12.34498596      15.68946648      12.68224335
C       16.41058540      18.29524612      12.61416340
C       15.33206463      15.40487766      10.23802090
C       12.00574017      13.67414665       9.44196510
C       11.57183933      16.52704811      13.44613361
C       15.60879326      17.45664406      13.33715820
C       16.07664680      14.58714867       9.44376469
C       12.33926296      13.36950207       8.09978104
C       11.21373177      16.17618752      14.76941776
C       15.24506187      17.77470207      14.66387653
C       16.38890076      14.95701790       8.10818672
C        8.37876701      14.32443810      14.36957836
C       15.20080853      17.05565262       8.48602772
C       19.13778496      17.02815819       8.33895969
C       12.43854141      14.08603191      14.49152946
C       18.85552025      17.33278847       9.64377022
C       12.78245640      14.45305061      13.22069359
C        8.72546864      13.95271778      13.10553551
C       14.89303493      16.66519737       9.76077366
H       10.95914745      13.08368587      11.18447208
H       12.60732269      15.96155834      11.69670105
H       16.72475433      18.02119637      11.58454514
H       15.08645535      15.08809567      11.25116348
H       12.38517666      14.58185196       9.86437511
H       11.23476028      17.46653366      13.06401539
H       15.23553562      16.52787018      12.91727924
H       16.41031647      13.63480282       9.79034805
H        8.72746086      15.26304054      14.79725552
H       14.86322975      18.01288986       8.10682392
H       18.76176643      16.11033058       7.88649702
H       12.76887226      13.15643978      14.90712261
H       18.24434853      16.67260551      10.24991798
H       13.38186264      13.77935696      12.60461807
H        9.34669399      14.60618401      12.49392128
H       14.31243610      17.30920029      10.40197086
C        6.43736935      12.99761581      17.25340271
C        7.56132793      15.76703548      19.75147057
C       11.51488400      18.17497063      19.74867821
C       10.47185898      15.41395473      17.36124992
C        7.23002338      13.81582642      16.51193237
C        6.78935194      16.61391640      20.49690056
C       10.69730568      17.39033699      20.50425148
C       11.26976967      14.58614445      16.62118149
C        7.57562256      13.47342777      15.17993546
C        6.42389679      16.28343201      21.82391167
C       10.36141014      17.75149727      21.82834435
C       11.64606857      14.93767929      15.29442596
C        3.53452873      14.49046421      21.48982811
C       10.42594910      17.03270912      15.57479191
C       14.44031334      16.91609192      15.44822788
C        7.66092443      14.19393063      21.57588387
C       14.09400654      17.25638771      16.72379303
C        8.00362206      14.54344368      20.29758072
C        3.85377812      14.12352657      20.21412277
C       10.04437160      16.65809631      16.83880043
H        6.16587734      13.27944851      18.26656723
H        7.86249828      16.04788589      18.73756027
H       11.76512909      17.86697006      18.76326179
H       10.17473125      15.10634899      18.33962631
H        7.62561321      14.74110508      16.91636467
H        6.44050932      17.55456543      20.09841919
H       10.28609753      16.47505379      20.10653496
H       11.59834290      13.64839935      17.00742149
H        3.85220289      15.44525337      21.87975502
H       10.11389923      17.98748970      15.16192436
H       14.09159183      15.97574711      15.01962376
H        8.01959038      13.26437092      22.00434875
H       13.45631981      16.57747459      17.32188225
H        8.63516045      13.88774204      19.72156906
H        4.44068623      14.80343056      19.58759499
H        9.43258858      17.32266426      17.41719437
C        1.78567457      13.09268284      24.46023750
C        2.84127855      15.85749531      26.86969566
C        6.89207602      18.40162468      26.87833977
C        5.76993895      15.59702587      24.45398140
C        2.48286843      13.95787525      23.66761971
C        2.07005548      16.69412041      27.62832069
C        6.09986591      17.56015015      27.61900139
C        6.52873278      14.74421215      23.70820808
C        2.79644585      13.62238979      22.32699394
C       20.53246498      16.35789108       0.43341273
C       24.52256012      17.90138435       0.41319039
C        6.86983013      15.05804539      22.37203407
C       17.79743576      14.39187145       0.20099753
C        5.65368223      17.15838814      22.62819099
C        9.53898335      16.93321228      22.63817978
C       21.75646973      14.26949596       0.15018426
C        9.21125603      17.30264854      23.91719627
C        3.28998804      14.62405396      27.40398026
C       -0.65175450      14.00828552      27.45528030
C        5.32291746      16.82095337      23.90974617
H        1.55925500      13.36740685      25.48694229
H        3.11250877      16.14550400      25.85914040
H        7.18601227      18.09782982      25.87686729
H        5.51087618      15.33838463      25.46706009
H        2.82298470      14.90051746      24.06193161
H        1.72150600      17.64461136      27.22292519
H        5.76075363      16.62094688      27.20477104
H        6.88401222      13.80131054      24.11827469
H       18.12178993      15.34918404       0.59829551
H        5.32681417      18.09424591      22.19778824
H        9.19203377      15.99984741      22.22523117
H       22.07499695      13.32231903       0.58115828
H        8.57919884      16.66344452      24.52764511
H        3.90919662      13.95251179      26.78946304
H       -0.05681685      14.67114258      26.86001396
H        4.72372389      17.50629616      24.50221825
C       15.84348488      18.59716606       2.93656540
C       16.71638107      21.37457085       5.34735870
C       20.75947952      23.60891342       5.29068565
C       19.72430229      21.21971893       2.92237496
C       16.58068848      19.45078468       2.17380691
C       15.95484257      22.17980957       6.14377499
C       20.05637169      22.84401703       6.17293024
C       20.53948212      20.39235306       2.20963287
C       16.94848251      19.11720848       0.84765679
C       15.70866776      21.83162117       7.50037527
C       19.97495079      23.21228027       7.55042982
C       20.95521927      20.74490547       0.90220660
C       13.14468861      19.59503555       7.31923437
C       19.72650337      22.83820915       1.12986147
C       23.81941986      22.71056175       1.23761749
C       17.05769157      19.83155060       7.17668724
C       23.53717995      23.07864952       2.51782918
C       17.27261543      20.17648315       5.86659908
C       13.45213890      19.25363731       6.03302956
C       19.30360413      22.45719147       2.37374043
H       15.56731987      18.85263062       3.95494199
H       16.89422035      21.64631462       4.32073307
H       20.80484200      23.33318138       4.25658751
H       19.39913750      20.95233727       3.92107821
H       16.90649033      20.41033936       2.56941772
H       15.52282619      23.10356140       5.73744392
H       19.57154274      21.94778252       5.85101032
H       20.87721252      19.45055008       2.61305356
H       13.51014233      20.51650620       7.74977684
H       19.43061256      23.78149986       0.69496906
H       23.45454597      21.76943016       0.83496904
H       17.46948814      18.90697861       7.56943941
H       22.94497490      22.40635490       3.16449213
H       17.86997032      19.53700638       5.22891045
H       14.07400703      19.92226219       5.42218399
H       18.64674377      23.12222672       2.93216801
C       11.19044018      18.27839088      10.19574356
C       12.27688599      21.10206413      12.58989334
C       16.36100960      23.61126900      12.76517582
C       15.25463390      21.10748100      10.16431808
C       12.00494957      19.08970451       9.45772076
C       11.44203567      21.92086411      13.31428337
C       15.51999378      22.86788559      13.54534245
C       16.04065895      20.32005882       9.37598419
C       12.33504677      18.75679588       8.12546921
C       11.11713028      21.60941887      14.65769768
C       15.12962627      23.32616425      14.82871151
C       16.27743912      20.65744209       8.02472782
C        8.40383148      19.66023254      14.42974567
C       14.89423847      22.63970566       8.32867146
C       19.26167107      22.42434692       8.48429966
C       12.49303055      19.60941505      14.45931053
C       19.20202637      22.79255676       9.79728127
C       12.80670547      19.93015480      13.17398548
C        8.72550774      19.31619072      13.14549160
C       14.66901684      22.29003906       9.63132000
H       10.92304611      18.56642532      11.22627068
H       12.53365231      21.35006142      11.55454540
H       16.66896820      23.21648407      11.80235195
H       15.08602619      20.86372185      11.20494556
H       12.38991547      20.01196861       9.88837814
H       11.03560638      22.81057930      12.86276150
H       15.17433643      21.88672829      13.20453358
H       16.50144386      19.41147995       9.78223038
H        8.76973534      20.57557869      14.86592388
H       14.45939159      23.54710770       7.93306065
H       18.77500725      21.51764107       8.14472198
H       12.85242844      18.70003700      14.90932274
H       18.66881180      22.18750191      10.52166080
H       13.44785786      19.27489281      12.61179066
H        9.36974716      19.96612549      12.54783726
H       14.07516193      22.92608070      10.27122021
C        6.47836733      18.31562805      17.30788994
C        7.54437733      21.26976776      19.76750946
C       11.44013596      23.56393433      19.76537704
C       10.50993538      20.93972588      17.30909729
C        7.27723789      19.13964272      16.56802559
C        6.80049181      22.15115738      20.48974228
C       10.70236111      22.79062462      20.62185287
C       11.33887577      20.13652611      16.58360100
C        7.59797192      18.80977249      15.23106956
C        6.45098114      21.87496376      21.83443832
C       10.37245560      23.25705338      21.92464828
C       11.65570736      20.44422340      15.23706245
C        3.68577862      19.91127396      21.60401726
C       10.25843143      22.43448257      15.43305397
C       14.37513447      22.51449013      15.70109940
C        7.63198805      19.74428749      21.62775803
C       14.05213356      22.96059608      16.95861435
C        7.97321177      20.04731178      20.34482384
C        4.00781012      19.55085754      20.31722069
C        9.95154095      22.10219192      16.72018242
H        6.22303391      18.59359169      18.33320808
H        7.81632471      21.50775146      18.74230766
H       11.69709873      23.17619514      18.81728745
H       10.26944256      20.69462585      18.33133888
H        7.64806938      20.04432106      16.98481941
H        6.46951818      23.08311844      20.05948639
H       10.36495972      21.78907204      20.32651711
H       11.77023888      19.22834206      17.02082443
H        4.04821873      20.82965469      22.02122879
H        9.83507347      23.32901764      14.98628426
H       14.06849861      21.52375221      15.37239933
H        7.95527792      18.82636642      22.08807182
H       13.49195480      22.30732536      17.60776520
H        8.55988884      19.35331726      19.75536537
H        4.62302494      20.19940186      19.72521591
H        9.26535702      22.72142792      17.27794647
C        1.77825165      18.57001686      24.49808502
C        2.96617246      21.48155403      26.85396385
C        6.84971094      24.01331520      26.80154800
C        5.78552771      21.25145912      24.48468399
C        2.57398295      19.39340591      23.74331856
C        2.17690587      22.33247948      27.57657051
C        6.10555601      23.19188499      27.59850121
C        6.52702951      20.36924362      23.75433540
C        2.88729620      19.06773376      22.40539360
C       20.55944824      21.98424149       0.35831559
C       24.57225800      23.55641365       0.39939040
C        6.87338781      20.65279770      22.40876389
C       17.73119926      19.98736572       0.04436292
C        5.69045305      22.78002739      22.61900139
C        9.63990688      22.46149063      22.83401108
C       21.76324272      19.88135719       0.11982588
C        9.32403755      22.92841148      24.07955360
C        3.36682367      20.23459244      27.38649750
C       -0.72522855      19.62799644      27.29605675
C        5.34668970      22.47027588      23.91001701
H        1.54005349      18.84407806      25.53095627
H        3.26514745      21.76543617      25.85212326
H        7.12176895      23.70335960      25.81341362
H        5.51128912      21.01770401      25.51914978
H        2.96232581      20.30920029      24.17124558
H        1.85626554      23.28046608      27.15485001
H        5.76166582      22.22825813      27.25144768
H        6.85406446      19.41686440      24.19302177
H       18.04373741      20.92066956       0.45051971
H        5.35566521      23.72339821      22.18030739
H        9.30980110      21.47812843      22.50969505
H       22.06172371      18.93540382       0.54939491
H        8.75362110      22.32263184      24.75814247
H        3.99007440      19.56984138      26.80996513
H       -0.11473951      20.28893852      26.69757652
H        4.74728918      23.15751076      24.48422050
C       24.01359940      24.30570412       3.03000760
C       24.74904442      26.81500244       5.79379845
C       28.77912521       1.49610472       4.94104099
C       28.16247559      26.34635925       3.06738019
C       24.72789001      25.15364265       2.23826885
C       23.98280334      27.58471107       6.61777163
C       28.30035019       0.77049601       5.98863697
C       28.90940285      25.57122231       2.22885466
C       25.02124405      24.80095673       0.88935733
C       23.85988808      27.27116394       7.99812412
C       28.23601151       1.35055554       7.28504467
C       29.19664955      26.00920486       0.91469026
C       21.34894180      25.15564728       7.04511786
C       28.03064346      28.08544922       1.40005732
C       31.11657715       1.01983452       1.41477692
C       25.23039436      25.29495430       7.60886192
C       31.19071007       1.10598707       2.76911974
C       25.38395309      25.65495682       6.30047798
C       21.41171646      24.79144478       5.72847080
C       27.74404716      27.63833237       2.65562129
H       23.82509041      24.57293320       4.08180714
H       24.86716652      27.07098389       4.75056839
H       28.76681900       1.07211363       3.93062401
H       27.90446281      25.99236107       4.05800152
H       25.09280205      26.10203934       2.62369323
H       23.43507957      28.45473099       6.24101400
H       27.96256638      58.68355560       5.84488821
H       29.24269867      24.60078239       2.52441478
H       21.84439850      26.06389427       7.37061787
H       27.71994019      29.06608772       1.07870531
H       30.41570473       0.34566540       0.95726532
H       25.66499519      24.38521957       7.99022341
H       30.59799194       0.43431810       3.38933730
H       25.97591782      25.03647614       5.64708185
H       21.94722939      25.41857338       5.02502918
H       27.17763901      28.27111053       3.34033823
C       19.86432648      23.95891190      10.24100018
C       20.63449097      26.75768662      12.75667572
C       24.72328377       1.28580642      12.70138168
C       23.60731316      26.58548546      10.70827484
C       20.56494904      24.73365402       9.35703182
C       19.81430244      27.56691360      13.49364948
C       24.60927010       0.28826860      13.63408661
C       24.33315659      25.78510475       9.86531830
C       20.63208199      24.38577843       7.98664522
C       19.38614845      27.16216469      14.77816963
C       24.42670059       0.60546416      15.00399303
C       24.48938179      26.11115074       8.49659920
C       16.38065529      25.37620735      14.40815640
C       23.09923172      28.06763077       8.88341904
C       27.72207451       0.65109068       8.39474773
C       20.66266632      25.10736656      14.49750423
C       27.44977188       1.28940678       9.56719494
C       21.05897331      25.51064301      13.25082493
C       16.80241203      24.87582970      13.20964432
C       22.99225998      27.75121689      10.20645332
H       19.81416702      24.23818588      11.29590321
H       20.99847794      27.05268097      11.77130127
H       24.82877159       1.04031241      11.66990471
H       23.50845909      26.32773209      11.74155617
H       21.07427216      25.62682152       9.68644238
H       19.47645187      28.53164482      13.12241077
H       24.62583542      58.17519379      13.34741879
H       24.78980446      24.88755608      10.21587372
H       16.72637177      26.34532356      14.74922371
H       22.58520126      28.91528893       8.47808456
H       27.47394180      58.52682114       8.29670906
H       20.96165657      24.14189148      14.87123585
H       26.98938370       0.76300043      10.38082409
H       21.70769691      24.88270950      12.65876675
H       17.51498604      25.46025467      12.60443687
H       22.41583633      28.38664246      10.84915066
C       14.45192909      24.24700737      17.37899590
C       15.78090382      26.75203705      19.70795059
C       19.95804596       1.75143814      19.82849121
C       18.58430099      26.28327179      17.32704735
C       15.17354202      25.04878998      16.54504585
C       14.92770672      27.52855301      20.43675613
C       19.29034996       0.80189610      20.55436325
C       19.44908905      25.52679634      16.59908867
C       15.54998779      24.60317421      15.25765705
C       14.50269222      27.11824417      21.72183037
C       18.82088280       1.08986926      21.86604500
C       19.83923912      25.93692780      15.29164791
C       11.52073002      25.33931160      21.39205170
C       18.49171638      27.93012047      15.56145477
C       24.32990074      58.52800369      16.00408745
C       15.89848804      25.14297485      21.48088837
C       24.06341362      58.85215378      17.29492760
C       16.25531769      25.52342987      20.22234917
C       11.85349464      24.85738373      20.15992737
C       18.07163811      27.47879791      16.77942276
H       14.20761013      24.58987236      18.36317825
H       16.09128571      27.08453941      18.71414948
H       20.31934166       1.49977839      18.83418274
H       18.29714966      25.97214317      18.33005714
H       15.46522903      26.04538345      16.87372589
H       14.57618618      28.46916771      20.05605698
H       19.10837173      58.75364304      20.12501144
H       19.84401321      24.60676002      16.97895050
H       11.84192848      26.31041336      21.67681694
H       18.09700966      28.86865234      15.17390442
H       24.40296364      57.50268936      15.70618725
H       16.25137329      24.20395088      21.89388466
H       23.93583488      58.08057785      18.05014229
H       16.91410828      24.91870117      19.63100815
H       12.43198299      25.46716309      19.48430824
H       17.32882500      28.05134010      17.31837082
C        9.76174545      24.22399712      24.47951889
C       10.80298233      26.83514023      26.79930305
C       14.26767731       2.14597845      26.99123383
C       13.78219986      26.27564239      24.31112099
C       10.46959972      25.00427628      23.61777115
C       10.12532711      27.65247726      27.66286278
C       13.30982494       1.51634312      27.73600197
C       14.68393230      25.55312347      23.58319855
C       10.79423523      24.54953003      22.31520653
C       28.72892571      27.26783180       0.48066589
C       31.99216843       1.77990532       0.58554047
C       15.03027725      25.93371582      22.26408958
C       25.76740074      25.66333771       0.04685104
C       13.53943348      27.83366013      22.47326469
C       18.14247131       0.13286947      22.66888618
C       29.90773010      25.19282341       0.00029925
C       17.67574310       0.48448890      23.89685631
C       11.31766415      25.60121727      27.23679543
C        7.28898239      25.27326012      27.30023956
C       13.18786526      27.42506599      23.72569656
H        9.51795959      24.59790993      25.47887611
H       10.93593025      27.15463638      25.76310158
H       14.40761566       1.84622872      25.94062996
H       13.52359772      26.00731277      25.32905960
H       10.80984211      25.99354935      23.91883087
H        9.69799995      28.59586906      27.31862450
H       12.69211388       0.73423588      27.28671837
H       15.14797974      24.64939690      23.99518967
H       26.09460449      26.60543251       0.41392782
H       13.13654232      28.71672058      22.04002190
H       18.00664711      58.06344223      22.29564285
H       30.25665092      24.23306847       0.31718373
H       17.15656090      58.70959854      24.49251938
H       11.86805630      24.95900917      26.55527878
H        7.87326145      25.93080711      26.65674210
H       12.48663235      28.00000763      24.28960609
C       23.74063301       1.33394003       3.22715402
C       25.03393173       4.49553871       5.47066450
C       28.79353333       7.37037802       5.34506798
C       27.54975510       4.09904909       2.72701216
C       24.47868156       2.18921208       2.45900536
C       24.26645279       5.32910681       6.24721527
C       28.01247787       6.55683804       6.11967182
C       28.15214539       3.28110099       1.80734241
C       24.63610458       1.95849597       1.06574917
C       23.93632317       4.98749304       7.57445955
C       27.70468521       6.91009235       7.45753765
C       28.49187279       3.76801085       0.52619278
C       21.30785179       3.02344632       7.32620907
C       27.58351517       5.93306446       1.17277050
C       31.47770119       5.81106853       1.00840366
C       25.20031166       2.91641164       7.28784323
C       31.12953949       6.10488415       2.29753208
C       25.50993347       3.27726769       6.00629187
C       21.69526100       2.55803466       6.10200834
C       27.24628258       5.43370104       2.40018392
H       23.63808823       1.50987017       4.29514885
H       25.27778625       4.77902699       4.46936178
H       29.05254745       7.08439159       4.33527851
H       27.28485680       3.71851945       3.70611763
H       24.92528534       3.07720995       2.89698315
H       23.89153099       6.27294445       5.86292553
H       27.63976669       5.61774206       5.71829748
H       28.36554527       2.24159622       2.04843450
H       21.75544739       3.90633297       7.74964046
H       27.36240387       6.96292114       0.91957408
H       31.11949730       4.88872814       0.54672211
H       25.56721115       1.99238968       7.71448183
H       30.47879028       5.43114090       2.85165930
H       26.13525963       2.62784481       5.40594482
H       22.48997307       3.05336952       5.55753708
H       26.74746704       6.06535959       3.13116479
C       18.90270424       2.20095968      10.03112412
C       19.97297859       4.78476334      12.45740604
C       24.05100822       7.19650984      12.58964920
C       23.19686317       4.18765926      10.15775204
C       19.89823914       2.82515907       9.34396935
C       19.35047722       5.62907648      13.32363701
C       23.37681198       6.29565096      13.37020206
C       23.99673271       3.38290048       9.41848469
C       20.30146790       2.36974525       8.06736946
C       19.09575462       5.23161650      14.66567326
C       23.05275345       6.60768986      14.71504211
C       24.39432907       3.75190806       8.10202026
C       16.26170731       3.18570018      14.07433128
C       23.13875389       5.82943773       8.38827705
C       26.92638779       6.06567764       8.28563499
C       20.09178734       3.06662893      14.14408875
C       26.63955879       6.42569876       9.57497692
C       20.34869766       3.48692775      12.86312199
C       16.21983910       2.75617313      12.78408051
C       22.77400970       5.44057131       9.65034676
H       18.57649803       2.57049751      10.99583530
H       20.16429520       5.10621452      11.44058037
H       24.32348061       6.95838547      11.56758690
H       22.86904144       3.87603760      11.14510918
H       20.39690399       3.67982864       9.77473927
H       19.02907181       6.65060282      13.01053429
H       23.08446884       5.33963394      12.96781254
H       24.32721519       2.40291262       9.80750847
H       16.94035721       3.97326827      14.36935902
H       22.80261803       6.77153158       8.00539684
H       26.60512543       5.12120008       7.89054346
H       20.33722687       2.07735896      14.46820641
H       26.03574562       5.77003717      10.19317913
H       20.81832886       2.80754614      12.16600990
H       16.85412979       3.21010065      12.04095745
H       22.12808990       6.08919144      10.24657249
C       14.61622524       2.44684744      17.33259201
C       15.85955334       4.50331497      19.78012466
C       19.67355347       7.26191092      19.74238968
C       18.62115288       4.39505625      17.29478836
C       15.45894527       3.01468897      16.41451836
C       15.08025455       5.33810139      20.51682091
C       18.89138603       6.42712593      20.49265289
C       19.23878860       3.54635072      16.42136765
C       15.43451881       2.59034109      15.05852318
C       14.67193604       4.98799562      21.82738876
C       18.50694847       6.77345276      21.81141090
C       19.48064041       3.93715024      15.07674599
C       11.83220863       3.32110643      21.52835083
C       18.44412422       6.08008337      15.58507061
C       22.36797142       5.68501186      15.55460453
C       15.84455013       2.86074734      21.54349899
C       22.07820511       6.01390982      16.85201454
C       16.26041985       3.24470568      20.30712891
C       12.04260921       3.13789821      20.19615364
C       18.20959473       5.68542480      16.86174393
H       14.62530994       2.78601909      18.35653305
H       16.15609360       4.80176401      18.77846909
H       19.95258522       6.96211958      18.73307037
H       18.45491982       4.07639027      18.31693649
H       16.13061142       3.82226253      16.70777130
H       14.75189018       6.28506327      20.11639404
H       18.53166580       5.47009087      20.09484482
H       19.52688599       2.55103850      16.72397614
H       12.56119823       3.84706044      22.14858437
H       18.13035011       7.04245758      15.23957920
H       22.07570076       4.72520351      15.14116573
H       16.12642097       1.89163208      21.95901299
H       21.55520058       5.31972456      17.47276497
H       16.87755585       2.59504676      19.70682716
H       12.95761871       3.51343155      19.72830582
H       17.70149803       6.35074711      17.56432915
C        9.25017643       2.66504812      24.10373497
C       10.43096161       4.81921482      26.56300163
C       14.68710709       7.26904202      26.75960350
C       13.88146591       4.22344875      24.39468002
C       10.41368961       3.07733774      23.53107643
C        9.79119873       5.62224150      27.45624542
C       13.87750626       6.41900825      27.45870972
C       14.63761425       3.36795616      23.64771652
C       10.64564705       2.88750553      22.15135384
C       28.21999931       5.11937475       0.20485635
C       32.30799484       6.68843842       0.26643726
C       15.06439304       3.72756767      22.34723473
C       25.34185982       2.86929607       0.23928322
C       13.88438129       5.84893560      22.62674713
C       17.70649910       5.93661880      22.60333443
C       10.29999638       2.95181656      28.06913185
C       17.30087471       6.32868242      23.84918022
C       10.68819237       3.47231197      26.86995125
C        6.61052608       2.66568613      27.42278671
C       13.49607468       5.47968626      23.88303947
H        9.07362270       2.78755641      25.13772583
H       10.72218800       5.23111725      25.60351181
H       14.97927570       7.00593615      25.73775101
H       13.53804207       3.93641233      25.37233925
H       11.19337177       3.56344962      24.11529350
H        9.55241203       6.66055107      27.23183441
H       13.53382492       5.49546576      26.99238968
H       14.94291019       2.37916327      24.02968597
H       25.78914070       3.75647235       0.68675965
H       13.56601238       6.80011463      22.20029831
H       17.38277435       4.97004604      22.18700600
H       10.44516468       1.89059544      28.26675224
H       16.64785385       5.69084692      24.42615700
H       11.15778160       2.82624173      26.14179611
H        7.16344786       3.37400723      26.81655884
H       12.88684368       6.13438606      24.45122719
C       23.82374954       7.31874609       3.02251291
C       24.72013283      10.28193283       5.37406206
C       28.76783371      12.77135086       5.37405825
C       27.72051048      10.04511642       2.91898489
C       24.54221535       8.20317173       2.26210833
C       23.99688721      11.12125587       6.17237568
C       27.99432182      11.93183994       6.11626673
C       28.45610428       9.17532158       2.16154456
C       24.89638329       7.88332272       0.93166298
C       23.68891907      10.75809860       7.51596785
C       27.65511131      12.25159550       7.45898724
C       28.85885239       9.52107239       0.84923810
C       21.02637672       8.58818340       7.26132870
C       27.74096298      11.66674614       1.14172196
C       31.68521881      11.39927101       1.21764147
C       24.85702133       8.64916229       7.14517355
C       31.31807137      11.76228333       2.48933673
C       25.16409874       9.02549267       5.87137938
C       21.37373352       8.23340321       5.99142075
C       27.35763741      11.31060600       2.39807892
H       23.55290794       7.57270718       4.02904129
H       24.94660568      10.58492374       4.36935616
H       29.02379036      12.50035381       4.34502935
H       27.40404511       9.77205467       3.93053651
H       24.84497643       9.15174007       2.66246772
H       23.65375710      12.09238529       5.81782484
H       27.62282753      11.00417995       5.70699692
H       28.74301720       8.19177341       2.53905392
H       21.34666634       9.51988125       7.67712259
H       27.47866440      12.63123703       0.73274809
H       31.40042877      10.44139194       0.81931645
H       25.18408775       7.68316412       7.53865957
H       30.72312927      11.07927513       3.08766532
H       25.75645828       8.35909462       5.22959661
H       21.99213028       8.88165474       5.38207912
H       26.77540016      11.98414326       2.98986483
C       19.05275536       7.24580002      10.11701298
C       20.21767616      10.18385983      12.58801079
C       24.14319229      12.83716106      12.55539989
C       23.08555222       9.99132061      10.13625336
C       19.88097000       8.05852985       9.39126682
C       19.49163818      11.04670143      13.36265278
C       23.38015366      11.99415207      13.31084538
C       23.80067062       9.14484978       9.33435726
C       20.23452187       7.72573090       8.05407619
C       19.17711258      10.73055458      14.70682812
C       23.05775642      12.31512451      14.65790653
C       24.11714554       9.50472927       8.00056267
C       16.48392105       8.76252937      14.38880730
C       22.97281647      11.62597561       8.36788559
C       26.86808968      11.38564014       8.26287365
C       20.36071205       8.61643887      14.40791035
C       26.53670883      11.72734070       9.53553581
C       20.65964508       8.95094395      13.11792850
C       16.76792336       8.43171501      13.10219288
C       22.66496658      11.25253296       9.65302944
H       18.78488541       7.53206205      11.13285923
H       20.45245743      10.46248150      11.56391335
H       24.39348984      12.58974934      11.53463650
H       22.83656883       9.68812561      11.12963676
H       20.25488663       8.97049618       9.80974865
H       19.14451218      11.99771786      12.96587181
H       23.00573730      11.06294823      12.89794922
H       24.12553024       8.17249012       9.70033455
H       16.87758827       9.67843246      14.82397747
H       22.66132545      12.58316994       7.99307728
H       26.52038383      10.46664524       7.82269192
H       20.69829178       7.66858959      14.81064701
H       25.91340065      11.04893684      10.15252972
H       21.23180771       8.27156353      12.49607563
H       17.39345932       9.07987976      12.50082588
H       22.09852028      11.93523693      10.26394653
C       14.62684727       7.37158203      17.30958939
C       15.67873573      10.23917675      19.70717430
C       19.60590935      12.84653091      19.71447563
C       18.59356880      10.02969265      17.35492706
C       15.40783405       8.20924377      16.55148697
C       14.89869308      11.07269287      20.45403481
C       18.83577728      11.99197388      20.47109032
C       19.32802391       9.17733479      16.58137894
C       15.69103527       7.90780926      15.20146847
C       14.51266670      10.71504688      21.76599312
C       18.47271538      12.33038616      21.78901863
C       19.62768936       9.49508095      15.23513603
C       11.74027443       8.64060688      21.54167748
C       18.43600464      11.59951973      15.53198814
C       22.30465889      11.43681049      15.46982193
C       15.70393467       8.60277081      21.48511124
C       22.00069618      11.77185535      16.75992775
C       16.09141159       8.98181629      20.23045349
C       12.06378651       8.27965641      20.26598740
C       18.13658714      11.25918198      16.82673454
H       14.39270306       7.64377594      18.34201622
H       15.98702335      10.53972816      18.71686363
H       19.85680008      12.57448959      18.71063995
H       18.36247444       9.76398754      18.39381790
H       15.80938625       9.12311745      16.98790169
H       14.59235287      12.04062748      20.06793022
H       18.49749565      11.05383301      20.06796646
H       19.69574165       8.23970318      16.97677612
H       12.13731766       9.54765129      21.97421074
H       18.10657310      12.55478859      15.12908459
H       21.98489189      10.50851154      15.04650784
H       16.02456474       7.64404202      21.87605858
H       21.41836548      11.11454582      17.39576530
H       16.71251297       8.31151390      19.61766052
H       12.73678398       8.91544628      19.67198753
H       17.55283165      11.93425465      17.42888641
C        9.64061546       7.42947102      24.36076927
C       10.84728336      10.26575947      26.79826355
C       14.78624916      12.81040478      26.86642265
C       13.75336266       9.94288826      24.35219192
C       10.52475452       8.19439316      23.64706802
C       10.11162186      11.13389015      27.54281235
C       14.02834988      11.94881916      27.61343002
C       14.52161026       9.09967041      23.60097885
C       10.87886906       7.83934879      22.32220459
C       28.49828529      10.78665257       0.33374572
C       32.45107269      12.28316307       0.41183862
C       14.91459084       9.46478939      22.29169464
C       25.62913895       8.78376579       0.11845381
C       13.72426701      11.57519817      22.58136940
C       17.68495560      11.46467209      22.59137344
C       29.61276245       8.63830280       0.04230267
C       17.32818413      11.82220936      23.86477852
C       11.20504761       8.99554539      27.30652809
C        7.15254498       8.45749569      27.35547829
C       13.34524536      11.19333458      23.84043884
H        9.36542988       7.70793009      25.37049675
H       11.16476059      10.55423737      25.78331184
H       15.07126045      12.55706024      25.85664749
H       13.45703983       9.61856651      25.35377693
H       10.95701122       9.11107254      24.08170891
H        9.83128166      12.10757828      27.16527176
H       13.72008038      10.99224567      27.19895744
H       14.83274937       8.13424587      23.99361610
H       25.91478539       9.74739933       0.51009762
H       13.42125893      12.52329826      22.16837311
H       17.34906769      10.51437378      22.18953514
H       29.87897491       7.65359592       0.44920459
H       16.71588516      11.16301823      24.45688438
H       11.80759144       8.31488895      26.71449280
H        7.71785784       9.14256668      26.75649071
H       12.73094368      11.85160351      24.42557526
C       23.81294250      13.12121677       3.04990172
C       24.79672813      15.72080231       5.39540148
C       28.83981323      18.27812386       5.39075804
C       27.78874969      15.58442211       3.01487112
C       24.60166931      13.93905258       2.29629350
C       24.06367111      16.57094383       6.16779804
C       28.06712341      17.43002701       6.15243721
C       28.55393219      14.75176239       2.26056480
C       24.96851730      13.57466793       0.97139210
C       23.77983856      16.25282860       7.51813316
C       27.78495598      17.74377441       7.50261211
C       28.93365097      15.10693932       0.94181752
C       21.00208855      14.36640263       7.24199772
C       27.74522018      17.20990372       1.23416996
C       31.65742493      16.90978813       1.19804418
C       24.96057510      14.15424347       7.21750212
C       31.31109047      17.26796532       2.47134328
C       25.25892258      14.48592663       5.92535448
C       21.33548164      13.98745155       5.97586727
C       27.36649895      16.83579063       2.49028254
H       23.51715660      13.42417622       4.04367065
H       25.01939583      15.99540043       4.36120653
H       29.07328987      17.98867798       4.38220835
H       27.49282837      15.28355217       4.02981567
H       24.94354248      14.87414837       2.67548132
H       23.70952225      17.49870491       5.75065184
H       27.70262527      16.50732422       5.74336243
H       28.86854744      13.78993130       2.65972853
H       21.30685806      15.33234215       7.64790440
H       27.43537712      18.15516853       0.83158797
H       31.34302521      15.95822430       0.77447677
H       25.29376793      13.22306061       7.62097502
H       30.70697594      16.58231354       3.08277583
H       25.85733032      13.80301857       5.31606293
H       21.91811943      14.64608192       5.34801292
H       26.74844742      17.49091530       3.09617519
C       19.20019341      13.00117683      10.19813538
C       20.25946045      15.77757168      12.61318398
C       24.35407066      18.30174637      12.71357822
C       23.22743225      15.57567215      10.18135929
C       19.92434120      13.85352039       9.41491032
C       19.54458427      16.64233589      13.39450645
C       23.54760361      17.47755051      13.42644501
C       23.93964958      14.71106243       9.40225506
C       20.27482033      13.48699570       8.08338642
C       19.18729401      16.30270958      14.72392464
C       23.18098640      17.79571724      14.76530838
C       24.23254204      15.02987289       8.04545307
C       16.43185043      14.42786503      14.39118767
C       23.06125450      17.13999748       8.35457325
C       27.01414108      16.88254356       8.31333160
C       20.30716324      14.16223335      14.40881443
C       26.74800110      17.19778633       9.62258720
C       20.65831947      14.51616287      13.12469482
C       16.77545166      14.02880192      13.12675190
C       22.78324890      16.81337929       9.64802074
H       18.95004845      13.30737972      11.21390438
H       20.55901337      16.05738449      11.60273266
H       24.62109947      18.02489662      11.69273758
H       23.02029610      15.31041908      11.21321201
H       20.24121475      14.81899357       9.77942657
H       19.23756409      17.59609985      13.02220726
H       23.14751053      16.53647804      13.01464081
H       24.30454254      13.76484394       9.77772617
H       16.72472954      15.40194607      14.76250172
H       22.73782921      18.08106232       7.94386101
H       26.64438820      15.94142914       7.88014030
H       20.61905098      13.20911407      14.81343555
H       26.14300919      16.52606392      10.22951412
H       21.23171806      13.83528042      12.50307465
H       17.33649445      14.68409920      12.50510406
H       22.21796608      17.49146461      10.28391361
C       14.63523293      13.10187721      17.36841583
C       15.61156273      15.83111954      19.78583145
C       19.64359665      18.36122513      19.74922371
C       18.47860718      15.56316280      17.32513046
C       15.34895325      13.95088482      16.56478119
C       14.86844158      16.68405914      20.54703712
C       18.85143662      17.52310562      20.49334908
C       19.21499062      14.70130253      16.55948067
C       15.70567894      13.56133366      15.24501324
C       14.50075626      16.33819389      21.87011909
C       18.50856972      17.85712624      21.82467842
C       19.57579041      15.04384232      15.23652363
C       11.74243259      14.48148727      21.53141975
C       18.44640541      17.17590523      15.54312706
C       22.38365746      16.92897987      15.54876900
C       15.66145611      14.21069908      21.56978989
C       22.04760361      17.25417900      16.82610893
C       16.01990700      14.58081245      20.30386353
C       12.12017441      14.06145859      20.28572655
C       18.09712219      16.82309723      16.81519127
H       14.34484768      13.42904854      18.35033989
H       15.89717770      16.14314651      18.78957176
H       19.92486382      18.06751251      18.74082565
H       18.19952393      15.29523754      18.34486389
H       15.62217236      14.92060280      16.91328049
H       14.55837727      17.65225220      20.14638519
H       18.49070358      16.59147072      20.08016586
H       19.51571083      13.74055290      16.95596886
H       12.02814579      15.47298718      21.89783287
H       18.17663574      18.14057541      15.13197899
H       22.04477882      15.99168015      15.10376167
H       15.96496773      13.24595261      21.98370934
H       21.43277168      16.58216667      17.41073418
H       16.61855507      13.89148521      19.71109009
H       12.71982193      14.73866367      19.65051460
H       17.49487686      17.50146484      17.42009735
C        9.81835175      13.23210621      24.46417999
C       10.86878300      15.86956787      26.87698555
C       14.74989605      18.27015686      26.83149719
C       13.73593903      15.57381821      24.45269012
C       10.57709312      14.05136681      23.67641258
C       10.10887718      16.71176147      27.62913895
C       13.98911095      17.42717743      27.58936501
C       14.49511337      14.72878170      23.69907188
C       10.97895050      13.63720036      22.37551117
C       28.52372551      16.35146904       0.42656365
C       32.42570877      17.77560616       0.38291082
C       14.88722038      15.08238029      22.38675499
C       25.75475883      14.42252350       0.16346222
C       13.73206043      17.20726585      22.68479729
C       17.70963287      16.99577904      22.62571907
C       29.71239281      14.24181175       0.13033828
C       17.39044380      17.33170128      23.90385628
C       11.28057480      14.61738110      27.39638901
C        7.30934811      14.04461670      27.42791748
C       13.34848785      16.83464241      23.93986511
H        9.51106834      13.56994057      25.44330215
H       11.16587830      16.18037796      25.87982750
H       15.05045509      17.97184944      25.84050941
H       13.43023205      15.25131607      25.45359802
H       10.86783791      15.02711201      23.99341202
H        9.78892899      17.65876198      27.26730537
H       13.65393639      16.46768761      27.20511818
H       14.78626442      13.75087357      24.07950211
H       26.06171989      15.37392616       0.56670082
H       13.43431473      18.17623520      22.26962471
H       17.35820198      16.07629585      22.18457603
H       30.03521347      13.28775978       0.52175176
H       16.75314713      16.65706062      24.49216270
H       11.88022804      13.95028591      26.79795647
H        7.92161131      14.70550156      26.82213974
H       12.73361969      17.52867508      24.54292679
C       23.79813385      18.63543129       3.01138902
C       24.94464874      21.38090515       5.51337099
C       28.99693680      23.85714722       5.50954676
C       27.88918686      21.22709084       3.04671931
C       24.58018303      19.47152901       2.28150249
C       24.30383682      22.21710205       6.38868809
C       28.28662109      22.96953773       6.26414633
C       28.67466354      20.38425827       2.31112599
C       24.96179390      19.13048172       0.95291400
C       24.04564857      21.80235863       7.72413778
C       27.91907883      23.28801346       7.59307623
C       29.00366592      20.69085503       0.97191983
C       21.21158218      19.95812225       7.33173752
C       27.74475288      22.76192474       1.19165051
C       31.95376205      22.70718765       1.24994075
C       25.07608604      19.65746689       7.18898201
C       31.63177681      23.05773544       2.53102851
C       25.33248138      20.07627106       5.92096233
C       21.49040031      19.65739822       6.02392483
C       27.41811943      22.43709373       2.48074770
H       23.51369667      18.90400505       3.99902463
H       25.14080429      21.72270584       4.50145388
H       29.29885101      23.58308983       4.50637817
H       27.61823463      20.95991135       4.07801580
H       24.94219589      20.41697693       2.68544221
H       23.99737930      23.19416237       6.09253025
H       28.00756454      21.99488258       5.86303377
H       29.02342796      19.44984055       2.73954797
H       21.58760071      20.85180283       7.79244614
H       27.39165688      23.71040344       0.74589545
H       31.62449837      21.77316666       0.81754917
H       25.35717773      18.66053963       7.49705172
H       31.03941154      22.37973976       3.14298844
H       25.82424164      19.41777420       5.20645237
H       22.10363197      20.34610176       5.42967796
H       26.80179405      23.11883926       3.07665348
C       19.37608337      18.51843071      10.22922516
C       20.41578102      21.25123024      12.80487061
C       24.54766655      23.95664787      12.90641785
C       23.57359886      20.92827034      10.34030247
C       20.15357971      19.36798477       9.48587704
C       19.61155891      22.08768272      13.52540493
C       23.77380562      23.09716606      13.63250542
C       24.19922066      20.08971596       9.46096706
C       20.42429161      19.08477211       8.11906338
C       19.23760986      21.76335907      14.86288929
C       23.38551140      23.42179489      14.95508671
C       24.44710159      20.50858116       8.12711811
C       16.50001526      19.85833549      14.44182777
C       23.40739822      22.64197922       8.67051125
C       27.21198654      22.36034584       8.41818619
C       20.49314117      19.68905067      14.62690163
C       26.89856720      22.67869377       9.70508957
C       20.85685921      20.02608299      13.35397720
C       16.86250496      19.50983238      13.17476940
C       23.16302490      22.22133064       9.94021606
H       19.17409515      18.74687767      11.27341747
H       20.71506310      21.52602196      11.80331993
H       24.86085129      23.67782402      11.90899277
H       23.38756180      20.59665108      11.34275913
H       20.55486679      20.26321793       9.93526745
H       19.25526428      23.02541351      13.11336040
H       23.43448448      22.15441704      13.21410847
H       24.51417160      19.09477997       9.74537849
H       16.82991409      20.77935791      14.89820480
H       23.11405945      23.63361740       8.35249329
H       26.94999313      21.41442680       7.98493814
H       20.81686020      18.74008751      15.05278301
H       26.37161255      21.96581650      10.31245995
H       21.47229385      19.37845230      12.77871799
H       17.50454903      20.17040825      12.58815193
H       22.65048027      22.87751579      10.63340092
C       14.54718208      18.47170448      17.29253197
C       15.62843132      21.34204102      19.77760887
C       19.70123100      23.99277115      19.86535835
C       18.52044678      21.03744698      17.47396088
C       15.33191967      19.31591797      16.56176949
C       14.81957054      22.17323112      20.50607681
C       18.95679092      23.15841675      20.64884949
C       19.31461716      20.19895554      16.73409081
C       15.68704987      18.99289703      15.22701550
C       14.46307278      21.84970093      21.84072685
C       18.62214661      23.51437759      21.97034645
C       19.69261932      20.53776360      15.40517616
C       11.69599533      19.76808739      21.55164528
C       18.41826248      22.61641884      15.64306641
C       22.59323311      22.55037498      15.72611427
C       15.77076912      19.80108261      21.62957191
C       22.20308113      22.90314865      16.99639702
C       16.11522675      20.13738823      20.35260582
C       12.02594948      19.38708878      20.28269768
C       18.07114601      22.24955368      16.92198944
H       14.29291153      18.74042702      18.29304886
H       15.88429928      21.59912682      18.76420212
H       19.95174408      23.69528770      18.84941673
H       18.24154854      20.75593376      18.47953796
H       15.67360020      20.23992538      16.98427773
H       14.44999695      23.09384537      20.08165169
H       18.62709427      22.19656181      20.27210808
H       19.66239166      19.24985313      17.13924980
H       12.08721256      20.68981171      21.96237564
H       18.07155609      23.54544640      15.22033215
H       22.27170181      21.61688423      15.31694031
H       16.10631180      18.88088989      22.07693481
H       21.54778481      22.23512268      17.58677673
H       16.74942970      19.46205139      19.76097870
H       12.67665768      20.00741768      19.68218803
H       17.45080566      22.91721344      17.51373672
C        9.71998692      18.51556206      24.44664955
C       10.84257030      21.34562874      26.84773445
C       14.94640160      24.13610458      26.84752655
C       13.76509666      21.15368652      24.46018982
C       10.53597736      19.31172562      23.69790840
C       10.06019783      22.19430351      27.58873749
C       14.23386097      23.26733208      27.61748505
C       14.58023453      20.32311821      23.74145699
C       10.86401272      18.95700073      22.36585236
C       28.53770447      21.89828682       0.40790790
C       32.69554520      23.59393120       0.42857689
C       14.94606113      20.64539719      22.40890884
C       25.76017189      19.98962784       0.16234618
C       13.63501740      22.69514084      22.61720276
C       17.87051201      22.66489601      22.80921745
C       29.79165077      19.81378937       0.18566164
C       17.52141762      23.05659103      24.06941032
C       11.30611706      20.14148521      27.42171860
C        7.32670355      19.62199974      27.41691780
C       13.29073620      22.35374260      23.89704704
H        9.47191525      18.82610703      25.46273804
H       11.08035374      21.60028648      25.82600784
H       15.20531178      23.85924721      25.84577179
H       13.49407482      20.86803436      25.47531891
H       10.92082787      20.22760010      24.10585785
H        9.68243217      23.11669350      27.16734123
H       13.93218136      22.29283333      27.22918892
H       14.92860699      19.39185143      24.17153549
H       26.09062386      20.90488434       0.58773327
H       13.28330326      23.60577202      22.16429329
H       17.55201530      21.69825554      22.41638184
H       30.11828613      18.87220383       0.60913008
H       16.91695976      22.40039062      24.69452286
H       11.90143681      19.44878578      26.81150055
H        7.96359348      20.29260254      26.82439804
H       12.63460350      22.99902344      24.47447777
C       30.93149948      51.44979095       9.26275825
C       -8.39867592      50.79376984      14.23776627
C       30.49411201      52.16024399      10.34609795
C       -7.96445417      50.09673691      13.15360737
C       30.84260178      51.77087021      11.65717983
C       31.58263588      50.58172989      11.84177494
C       30.49619293      52.51650238      12.81413555
C       32.03953171      49.87809372      10.70679474
C       31.73360825      50.30913544       9.44301414
C       -9.02283001      52.05186462      14.06545353
H       30.68544960      51.78501129       8.26128769
H       -8.24819756      50.41450500      15.22860050
H       29.90241241      53.06109238      10.22051811
H       -7.45303583      49.12812042      13.28127861
H       30.10455322      53.51832581      12.67980766
H       -7.15758419      48.97038651      10.87038231
H       32.08307648      49.74725723       8.57017994
H       -9.24555874      52.65641785      14.91487312
C        4.02996540      55.72856522       3.86485648
C        4.79164600      51.28769302       1.65746307
C        3.21381998      54.84185791       3.23776126
C        5.63426161      52.22190094       2.18952203
C        3.71315956      53.62022781       2.75249243
C        5.11505747      53.38511276       2.79980397
C        2.86214781      52.59545136       2.24722505
C        5.92634249      54.30323791       3.49020815
C        5.38228512      55.41545868       4.06689787
C        3.39846444      51.45322418       1.72811091
H        3.62107062      56.65133286       4.25503922
H        5.17386007      50.36166763       1.22138608
H        2.16095996      55.04878235       3.17417598
H        6.71478462      52.06248474       2.17414355
H        1.80196667      52.73817825       2.30571461
H        6.98135567      54.10294342       3.54745698
H        6.00751305      56.07064819       4.67543125
H        2.75097919      50.66353989       1.36929095
C       29.31400299      48.53467560      11.00277996
C       28.43725777      46.73852158      15.58886242
C       28.95275497      49.10692215      12.18083858
C       28.86588097      46.14949036      14.43299007
C       28.88791275      48.33643341      13.36670780
C       29.12152672      46.94587708      13.29015732
C       28.56216812      48.92192459      14.60982895
C       29.56325912      46.38481522      12.07444572
C       29.66236305      47.16086197      10.95516682
C       28.33554649      48.14047241      15.69945526
H       29.37602425      49.12651062      10.11515141
H       28.22061157      46.10801697      16.42528725
H       28.74876785      50.17745590      12.23308849
H       28.99712563      45.08144379      14.37436104
H       28.47954941      50.00135422      14.66380024
H       29.78303719      45.32038116      12.04159260
H       30.00198555      46.72586060      10.03051090
H       28.06772995      48.57508850      16.65117455
C       15.53771687      37.84692764      12.30890656
C       15.90122604      35.71074677      16.84083748
C       14.81883717      36.89772034      12.94496441
C       16.54040527      36.75428009      16.25152588
C       15.14628792      36.52357483      14.27854538
C       16.20782280      37.16255569      14.94276619
C       14.45581055      35.48878479      14.92916393
C       16.85157204      38.23489761      14.28888512
C       16.54310989      38.56175613      13.00928402
C       14.87104607      35.05807114      16.15133286
H       15.30135441      38.09825516      11.28636074
H       16.21461868      35.38926697      17.82461929
H       14.00466347      36.36307144      12.45644760
H       17.29061699      37.27405548      16.78031349
H       13.62381935      35.00357056      14.42846680
H       17.56350708      38.80809021      14.81996155
H       16.99908829      39.41621399      12.52668476
H       14.40249252      34.21050644      16.57596016
C       10.63126469      52.16821289      20.03832817
C       13.75354004      48.27350616      19.56252289
C       10.65690804      51.10493088      19.19479752
C       13.63983154      49.27603912      20.47709847
C       11.65316010      50.11429596      19.32836533
C       12.59362507      50.21305466      20.38132668
C       11.77736950      49.06112671      18.40830612
C       12.48854351      51.28702164      21.29094505
C       11.54773712      52.25579834      21.10159683
C       12.80633640      48.16992569      18.52324486
H        9.90751553      52.95482636      19.90814781
H       14.57462692      47.58251572      19.59512711
H        9.94276428      51.01453400      18.38455391
H       14.36962318      49.42221069      21.25984192
H       11.04746914      49.00801468      17.61191368
H       13.18405724      51.30862808      22.11011124
H       11.47062206      53.09075165      21.75328255
H       12.88882351      47.36270905      17.81039047
C        8.74783611      40.28702545      11.89042091
C       10.11850548      39.45436096      16.71307564
C        7.97396278      40.04011917      13.13357067
C       10.73711491      39.95452499      15.58576393
C        8.78502560      39.52578354      14.27725315
C       10.12578011      39.89365005      14.34504604
C        8.14779568      39.07866287      15.42398167
C       10.88958550      40.18756485      13.09257126
C       10.05709934      40.45109558      11.88782310
C        8.82905483      38.96163559      16.62335587
H        8.18707943      40.43202972      10.98901081
H       10.66602325      39.42517471      17.62251854
H        7.16119814      39.36184692      12.93472862
H       11.73200989      40.33816910      15.67460728
H        7.08221293      38.87717819      15.37923431
H       11.58585453      41.00987625      13.27703094
H       10.62189388      40.67351913      10.97409630
H        8.33346176      38.52378845      17.49478149
C        8.94786739      41.49138260       8.88763618
C        8.25473022      43.46839905       4.38997412
C        8.55568695      40.91081238       7.75156975
C        8.14737701      44.00081635       5.65458059
C        7.99206591      41.69410324       6.62524462
C        8.16842556      43.17613602       6.78997946
C        8.47738647      41.25308609       5.31923580
C        8.47176838      43.70716095       8.05366421
C        8.86406708      42.89940262       9.08224392
C        8.48452091      42.06996155       4.25567341
H        9.38518238      40.89984131       9.66864872
H        8.23558235      44.08496475       3.51337433
H        8.65462589      39.82984543       7.62595844
H        8.12983322      45.06692886       5.78393888
H        8.69225025      40.19709778       5.23533726
H        8.47023773      44.79650116       8.17808342
H        9.15328789      43.32578278      10.02436543
H        8.68460464      41.60256958       3.31683111
C        6.48477077      57.59071350      23.53591156
C       11.03672504       0.25389141      24.88173676
C        7.66626978      57.72300339      22.87081146
C        9.91357327      58.87336349      25.59382439
C        8.84555721      58.07528305      23.56167221
C        8.78545761      58.31733704      24.94641113
C       10.05241871      58.32945251      22.86589432
C        7.57081413      58.08483124      25.63246727
C        6.44832420      57.72546387      24.94469643
C       11.12559032      58.88180923      23.51452827
H        5.58449459      57.35113525      23.00538826
H       11.88432026       0.69580251      25.36849022
H        7.71609449      57.60428238      21.79279137
H        9.86302471       0.13980180      26.66879082
H       10.05785370      58.17144775      21.79177475
H        7.53726625      58.22147751      26.69770813
H        5.51210451      57.58024597      25.46664238
H       12.04901409       0.18485223      22.96457481
C       11.68153381      44.71846390       9.86056709
C       14.01788425      46.06744766      14.07582378
C       11.36226845      44.56849670      11.17695999
C       14.14427567      46.46581650      12.77522945
C       12.18518925      45.15309906      12.17721176
C       13.26160526      45.97980118      11.78243065
C       12.04729557      44.78543854      13.53988552
C       13.54753685      46.14575577      10.41079712
C       12.81109715      45.47402191       9.47494221
C       12.96872711      45.20304871      14.46277714
H       11.06050777      44.24571991       9.09312344
H       14.70548058      46.42416382      14.80538177
H       10.51047611      43.96477127      11.48274899
H       14.95106506      47.13592148      12.48893642
H       11.24937725      44.14064789      13.81026077
H       14.36898518      46.77316666      10.11272717
H       13.05749130      45.55907822       8.43036842
H       12.89675713      44.87232208      15.50184059
C       10.05582523      41.85186386      18.84918594
C       14.68059921      40.02905655      19.69225693
C       10.55043983      40.84448242      19.62020302
C       14.19585896      41.04912567      18.91744423
C       11.93128300      40.52461243      19.61375046
C       12.80604839      41.29821396      18.82816696
C       12.45105267      39.44795990      20.37305450
C       12.25887394      42.32474899      18.00016212
C       10.92752743      42.59384537      18.00941658
C       13.79742336      39.20303345      20.40532684
H        9.00078869      42.08905029      18.86783600
H       15.74182415      39.88903809      19.76168633
H        9.89163303      40.28406906      20.25184059
H       14.88630867      41.70986557      18.40982437
H       11.77435017      38.83783340      20.92737198
H       12.93050671      42.89498901      17.37415504
H       10.51714802      43.38687134      17.41493225
H       14.18869114      38.39073944      21.00345421
C       27.22842026      32.81550980      10.68483353
C       28.94304657      31.49299812       6.14546871
C       27.37575340      31.61269379      10.05912876
C       28.83296013      32.68977737       6.79456472
C       27.88734627      31.56102753       8.73788548
C       28.28840637      32.76046371       8.10560036
C       28.01461220      30.32715225       8.03835678
C       28.13092995      33.98425293       8.77865124
C       27.59102631      34.02061844      10.02699566
C       28.51811600      30.29941750       6.77293253
H       26.80501938      32.86765671      11.66633224
H       29.37656403      31.45705795       5.15845680
H       27.08052444      30.68925858      10.53803730
H       29.17501259      33.61341476       6.34030199
H       27.71479034      29.40867805       8.53827858
H       28.43432617      34.90312576       8.27827263
H       27.43337250      34.96282578      10.54526615
H       28.61239052      29.35424042       6.27085209
C       13.18006706      29.09601974      11.02832890
C       11.64854240      31.52720833       6.92555618
C       12.83833408      28.69110870       9.77241707
C       12.11253071      31.93757439       8.14113712
C       12.60244846      29.62662697       8.74301147
C       12.61556149      30.99802399       9.06691551
C       12.28132534      29.26210785       7.40612698
C       13.06122780      31.39917755      10.34523010
C       13.35018253      30.47051239      11.30247784
C       11.81875134      30.18726921       6.52255535
H       13.35918617      28.38360977      11.79862499
H       11.20442009      32.21124649       6.25030613
H       12.71791744      27.62513542       9.57547474
H       12.06696606      32.99080276       8.41636276
H       12.37545586      28.21691132       7.10518312
H       13.11972141      32.46606827      10.55184364
H       13.69087887      30.77272224      12.27017117
H       11.56293488      29.90295982       5.50594091
C       15.51414776      46.31992340      25.63431549
C       17.89348030      50.10546494      23.33276749
C       15.56194496      46.76613998      24.34944534
C       17.86289787      49.66800308      24.61961937
C       16.34048653      47.89139938      23.98927498
C       17.07286453      48.55653381      24.99564743
C       16.36058044      48.38364029      22.66730690
C       16.98283005      48.10046005      26.33014870
C       16.21574211      47.01191711      26.64654732
C       17.10289001      49.48100662      22.34295082
H       14.91084957      45.44729996      25.88690948
H       18.53637886      50.93789673      23.06569099
H       15.00531769      46.29758072      23.56620407
H       18.45648384      50.17497635      25.36958504
H       15.76192570      47.88613510      21.91968155
H       17.50689697      48.64293671      27.10345650
H       16.13715935      46.69187164      27.67865562
H       17.11609840      49.87031555      21.33857155
C        9.70880795      51.68328857       2.17475009
C        8.92443562      54.98659515       5.86249161
C        9.93556309      53.02283859       2.28405452
C        8.58045769      53.68097305       5.68463087
C        9.56720924      53.72107315       3.46017027
C        8.90136814      53.01607132       4.48659754
C        9.88489532      55.08463287       3.65659142
C        8.56032372      51.65549469       4.28961611
C        8.98992157      50.98890305       3.17323756
C        9.60993767      55.68260574       4.84364033
H       10.06144714      51.16171646       1.29664743
H        8.64843464      55.49030304       6.78655529
H       10.41697121      53.57779694       1.49304950
H        8.06122398      53.13475418       6.44331264
H       10.36809349      55.63930511       2.86755419
H        7.96017504      51.15432739       5.03542376
H        8.76783848      49.95142364       3.03462219
H        9.91011238      56.70301437       4.99456406
C       24.76327705      34.38789368      18.74833870
C       25.28574562      34.46694565      13.76817894
C       24.92128563      35.39085388      17.83380890
C       25.00539017      33.47617722      14.64784908
C       24.93962097      35.11414337      16.44546318
C       24.84178925      33.76613617      16.02161217
C       25.16193581      36.13756561      15.48732471
C       24.69005013      32.74990082      16.98696518
C       24.63561630      33.04729462      18.31994057
C       25.33765221      35.81327057      14.18304062
H       24.73503113      34.61890030      19.78315926
H       25.50755692      34.21854782      12.73541737
H       25.05689430      36.40593338      18.13742447
H       25.00107002      32.42533875      14.32896137
H       25.25670624      37.16171646      15.83360672
H       24.63456345      31.72493172      16.64854050
H       24.48299408      32.26919937      19.05787849
H       25.56329918      36.57402802      13.43498421
C       13.02944183      58.40431213      20.49241447
C       17.31293488      55.87118530      21.19333649
C       14.30539703      58.59107590      20.03498459
C       16.08138847      55.81507874      21.76353264
C       15.32504177      57.66979599      20.37568855
C       15.03965282      56.64454269      21.31045723
C       16.61543655      57.70460510      19.80380249
C       13.70784378      56.45140839      21.74161530
C       12.72772121      57.29108429      21.30287552
C       17.57341957      56.79960251      20.16700554
H       12.22912216       0.18448541      20.21102333
H       18.11751747      55.22069168      21.53022766
H       14.53916073       0.48973015      19.38807487
H       15.86230850      55.11750793      22.57077408
H       16.84230995      58.45912170      19.05412102
H       13.48419571      55.60625458      22.39035797
H       11.71668625      57.10500717      21.62769318
H       18.54620552      56.78774643      19.69233131
C       26.01189041      52.16703796      11.98793030
C       26.37819862      51.12549973      16.90313721
C       26.09424210      52.94820404      13.10522652
C       26.07784462      50.37695312      15.80921364
C       26.15052223      52.35589218      14.39924526
C       26.01239967      50.96106339      14.51642895
C       26.35845375      53.12042618      15.58018208
C       25.85330200      50.18386078      13.35585976
C       25.88914108      50.75825500      12.11201859
C       26.53801346      52.52287292      16.78434563
H       26.03553963      52.60396194      11.00446796
H       26.47510910      50.65087891      17.87361717
H       26.16290283      54.01964188      13.00561333
H       25.89700699      49.32108688      15.89388943
H       26.35624504      54.19970703      15.49359894
H       25.74774551      49.12065887      13.46413994
H       25.84924126      50.16099930      11.22011280
H       26.77017784      53.14542389      17.65510368
C       21.31853485       0.20582685      15.82179928
C       20.53693008      54.17649841      15.70666790
C       21.13577080      58.19645691      16.79152489
C       20.85298920      55.09743118      14.76125145
C       21.02694893      56.82772446      16.47739792
C       21.08019257      56.45138931      15.11523914
C       20.72653961      55.83977890      17.44683075
C       21.26466179      57.43346786      14.12403774
C       21.39114761      58.74600983      14.46632385
C       20.46726036      54.55166626      17.07459068
H       21.41923141       1.24263716      16.10692787
H       20.36442375      53.14937592      15.43561363
H       21.06699944      58.47438812      17.84495163
H       20.90649033      54.84657288      13.72170353
H       20.67201614      56.14759827      18.47206879
H       21.21931458      57.11981583      13.09162998
H       21.52684021       0.57333016      13.69882774
H       20.23375320      53.79248047      17.80304909
C       24.24072647      29.33177185       3.31948233
C       27.87949371      31.97150612       1.04389191
C       24.55328369      29.55591202       2.00764585
C       27.60722160      31.67998505       2.34319115
C       25.67183495      30.35635567       1.65322447
C       26.48732185      30.89150047       2.68510270
C       25.96607971      30.69528389       0.31082433
C       26.15095520      30.62023735       4.03707790
C       25.04612732      29.88318825       4.34454775
C       27.04057693      31.49116898       0.01204203
H       23.35789490      28.73315811       3.58302379
H       28.74752045      32.57788086       0.80105358
H       23.92123604      29.17269707       1.20251179
H       28.24915886      32.04985809       3.14691710
H        6.52713490      30.31539154      28.05884361
H       26.76895142      31.02648544       4.81698608
H       24.80780411      29.72078705       5.36755800
H        8.42910862      31.77485275      27.50061417
C       22.74685287      39.49107361      15.14610481
C       23.83431816      43.24005508      18.30394173
C       22.60926056      40.84358215      15.07671356
C       24.03263474      41.88338852      18.34825706
C       23.05856133      41.66508865      16.13136101
C       23.65701675      41.07335663      17.25936317
C       22.86621284      43.06949234      16.11133575
C       23.76720428      39.65417099      17.31513596
C       23.30473900      38.88908768      16.29525566
C       23.24583244      43.83733749      17.17069244
H       22.44661522      38.87168503      14.32363129
H       24.11742210      43.86255646      19.16168594
H       22.16373253      41.32178116      14.19942570
H       24.44930458      41.42358780      19.21302414
H       22.39785004      43.49640656      15.23936844
H       24.18307877      39.21862030      18.19806862
H       23.30091476      37.80828476      16.35041809
H       23.11130524      44.92294693      17.14016533
C       -4.87937832      37.71331406      20.91142082
C       -2.47438502      34.75111389      17.65431595
C       -4.85104322      36.36721039      20.73290825
C       -2.67511702      36.09912109      17.74085617
C       -4.13196802      35.78915405      19.66012764
C       -3.46856356      36.64870834      18.75652695
C       -3.96031070      34.39503098      19.51430893
C       -3.55114889      38.05330276      18.93673134
C       -4.21715593      38.56553650      20.00716591
C       -3.13155866      33.88540649      18.55154800
H       -5.38063955      38.13067627      21.77529907
H       -1.83402514      34.33499146      16.86475372
H       -5.33635807      35.70147705      21.47280121
H       -2.20976973      36.76495743      17.03940201
H       -4.43356419      33.72564316      20.23494911
H       -3.01196241      38.70159531      18.25586891
H       -4.24900198      39.62951279      20.17144012
H       -2.99074769      32.81738281      18.49774933
C       13.60610008      42.61379623      12.67833996
C       17.69068718      42.89897919      15.69787598
C       13.91263866      41.88268280      13.92810249
C       17.38963509      43.32841110      14.43457222
C       15.16504765      42.37020874      14.59532547
C       16.12746811      43.06810761      13.85740662
C       15.45431519      42.01699448      15.90500736
C       15.81306553      43.54244614      12.55923557
C       14.55110168      43.32292557      12.00608540
C       16.70498657      42.25288391      16.45233536
H       12.64930248      42.44132233      12.21301270
H       18.67372322      43.10168076      16.13506889
H       13.07191944      41.87656784      14.59465313
H       18.12160301      43.86283493      13.83996391
H       14.67702580      41.52751541      16.48291016
H       16.54437256      44.09227371      12.01309109
H       14.31995583      43.73849106      11.05366993
H       16.90666771      41.95299530      17.45980072
C       -9.33136463      50.47152328      24.87071037
C       -9.96133995      45.56536865      25.73440933
C       -8.48143959      49.43439484      25.13328934
C      -10.81784630      46.61195755      25.69455528
C       -8.98946190      48.13481140      25.30502319
C      -10.37303925      47.92338181      25.40085793
C       -8.11998749      47.02788162      25.27150536
C      -11.23476124      49.00749588      25.10375023
C      -10.72172165      50.23435211      24.79916763
C       -8.58596134      45.75598145      25.48672295
H       -8.93956089      51.45034027      24.62180901
H      -10.33486652      44.55708694      25.93070412
H       -7.41395998      49.59103394      25.11817741
H      -11.90029716      46.45219803      25.82634354
H       -7.10517406      47.22716904      24.98970985
H      -12.31767082      48.84649277      25.07421112
H      -11.37691116      51.05319977      24.51729965
H       -7.92945099      44.89830017      25.45026207
C        4.06153107      43.85203171      17.56030464
C        1.57049394      46.33017349      13.97524071
C        4.07221508      45.14944839      17.14048767
C        1.52155042      45.04990768      14.44224262
C        3.16768336      45.58422852      16.14717102
C        2.30671716      44.64197922      15.54553318
C        3.15584445      46.92383575      15.68869781
C        2.28646851      43.32629013      16.04326057
C        3.13487911      42.93901825      17.02831459
C        2.38222075      47.28677368      14.62149429
H        4.77950478      43.51164627      18.29987526
H        1.00096774      46.60397720      13.10702801
H        4.75615120      45.86407852      17.56939507
H        0.91624653      44.29787827      13.95528698
H        3.77070618      47.64708328      16.18883896
H        1.57102334      42.62263107      15.63282394
H        3.12302709      41.92869568      17.39797974
H        2.40280271      48.30816650      14.27090549
C        5.71512842      57.06418228      16.55507088
C        0.92160761      58.63729858      16.42653847
C        4.81318283      57.25821304      15.55240250
C        1.77536023      58.30093765      17.43769836
C        3.52723742      57.78709793      15.83008385
C        3.11592674      57.92542267      17.17618561
C        2.65767050      58.24768829      14.81453896
C        4.07996273      57.74116898      18.19680977
C        5.36010504      57.37891388      17.88648415
C        1.39233696      58.64987183      15.09656143
H        6.70954895      56.70875931      16.32578087
H       -0.10176949      58.90604782      16.64755440
H        5.06557798      57.07067871      14.51774025
H        1.42855537      58.31321716      18.46682167
H        3.02362680      58.25784302      13.79651928
H        3.82478905      57.94474030      19.22334862
H        6.09232521      57.33551407      18.67607880
H        0.75602829       0.03062995      14.29841328
C       16.96892929      42.51917267      25.34928322
C       21.82594109      41.26348495      25.64347458
C       18.11132240      43.23397064      25.55788040
C       20.69524956      40.59289551      25.26245880
C       19.39537811      42.63460159      25.40600586
C       19.45384789      41.26281357      25.11267853
C       20.60400009      43.33853912      25.62620354
C       18.25970459      40.58172607      24.75556946
C       17.04591942      41.18692017      24.89086342
C       21.79018974      42.67301941      25.77037048
H       15.99771786      42.98172379      25.52929688
H       22.75692368      40.73666763      25.78314209
H       18.04221725      44.25305939      25.86770630
H       20.74172783      39.54537582      25.07989311
H       20.57023239      44.42817688      25.71180344
H       18.31507492      39.54155350      24.40253067
H       16.14437103      40.64934540      24.68336678
H      -17.08410263      43.21682739      25.96106529
C       14.22224808      30.95736122      19.59651756
C       13.67830944      28.19609451      15.42206192
C       14.95004749      30.86049080      18.44371414
C       12.96347809      28.32787514      16.57192039
C       14.55826569      29.97715378      17.41004944
C       13.36527538      29.22677231      17.58727074
C       15.26621056      29.84194565      16.18718338
C       12.59633255      29.40174484      18.76321602
C       13.02517414      30.23485565      19.74774742
C       14.83050919      28.97360420      15.22155285
H       14.57078743      31.58941269      20.38600731
H       13.32769775      27.52016830      14.62687111
H       15.84861851      31.44557190      18.31398010
H       12.07765388      27.75895691      16.75807190
H       16.14971733      30.46127319      16.02844238
H       11.66974163      28.82599258      18.87114525
H       12.45728016      30.33383751      20.64871597
H       15.37357521      28.88190460      14.27366257
C      -17.07872391      51.47306442      26.28337669
C      -15.50579357      56.19132233      25.57322502
C      -16.39972496      52.09325027      25.26996422
C      -16.14359856      55.55323410      26.60169220
C      -15.98608971      53.44523621      25.40865326
C      -16.36822891      54.16469955      26.56218147
C      -15.23758411      54.10802078      24.40412140
C      -17.00651169      53.47421646      27.62240982
C      -17.32953644      52.15790176      27.49338913
C      -15.00586128      55.45249176      24.47411728
H       22.32861900      50.45700836      26.14947319
H      -15.40212822      57.26572800      25.60918427
H       23.59868622      51.55870819      24.36618805
H      -16.51538467      56.09454346      27.44005966
H      -14.86980820      53.53369904      23.55215645
H        1.57448530      54.01578140       0.01198272
H      -17.82167625      51.63463211      28.31502342
H      -14.44798851      55.94162750      23.70073128
C       -8.19455338      29.98162079      21.96923065
C       -5.04998636      30.37689018      18.08710670
C       -7.05653858      29.31306267      21.62776756
C       -6.33027935      30.80717278      18.30063057
C       -6.39598894      29.57329941      20.40384483
C       -7.02161789      30.42755318      19.47379112
C       -5.09939671      29.07908440      20.11455345
C       -8.30370617      30.93770218      19.78303719
C       -8.85140419      30.78050232      21.01479530
C       -4.43493223      29.49332047      18.99657249
H       -8.62928772      29.87191963      22.94930267
H       -4.52437782      30.68731308      17.20272064
H       -6.62691212      28.58962440      22.31742668
H       -6.83106899      31.44374084      17.59005356
H       -4.63746405      28.39660645      20.83344078
H       -8.82658100      31.48614502      19.02699661
H       -9.79441929      31.24132729      21.25363350
H       -3.44580388      29.10572624      18.78659630
C        3.71368837      46.91081238      11.77662659
C        3.28615475      47.54874039       6.82279444
C        3.75103068      46.05327988      10.72102356
C        3.27031302      48.41002274       7.87654924
C        3.63150883      46.54468536       9.39228249
C        3.45280004      47.92733383       9.19251728
C        3.67835426      45.68219376       8.27392483
C        3.37611699      48.79581070      10.31442165
C        3.51328325      48.30089951      11.57780075
C        3.50471497      46.17011642       7.00208330
H        3.81154919      46.51890564      12.77823257
H        3.14295006      47.93407822       5.80498219
H        3.88361216      44.98895264      10.86938190
H        3.07688093      49.47446823       7.73281860
H        3.82558441      44.61562347       8.43817806
H        3.18170500      49.86475754      10.17213440
H        3.43784690      48.97108459      12.44400501
H        3.51717687      45.49513245       6.16039467
C       -0.11566308      34.99818802      25.91000175
C        0.82027501      39.32410812      23.51722908
C        0.04246635      36.28429413      26.33789253
C        0.81681079      38.01171875      23.14399147
C        0.37603876      37.32009125      25.42116737
C        0.58699018      36.97544098      24.07427025
C        0.50067008      38.68453217      25.80820847
C        0.47865915      35.62501144      23.67395973
C        0.11588922      34.65378571      24.56250572
C        0.69957715      39.65713882      24.87364960
H       -0.41253027      34.22236252      26.61601067
H        0.94843459      40.08629990      22.77630997
H       -0.11670907      36.52727127      27.38167763
H        0.95152056      37.73908615      22.11131096
H        0.42869979      38.95463943      26.84354019
H        0.61418837      35.39202881      22.65483475
H       -0.01690157      33.62431717      24.23539162
H        0.76536071      40.70186615      25.19454765
C       32.05759048      38.01148224       2.12282062
C       28.17357826      41.15560913       1.73150015
C       30.73330879      37.83994293       1.83980024
C       29.51825714      41.34874725       1.83694839
C       29.85333443      38.94100189       1.75285769
C       30.39414597      40.24107361       1.86861289
C       28.44600677      38.77186584       1.64793861
C       31.79603767      40.39268875       1.99960244
C       32.61032486      39.31127548       2.16193271
C       27.63117981      39.85454559       1.66056478
H       32.68136978      37.15974045       2.32029700
H       27.52414894      42.02035904       1.69248223
H       30.31632233      36.84988022       1.75650251
H       29.95272446      42.35729980       1.89349413
H       28.02276421      37.78078079       1.58271146
H       32.19575500      41.39269638       1.99468505
H       33.66919327      39.43103027       2.30624938
H       26.53818130      39.72817612       1.60924685
C        8.94726467      55.25247574      25.48261833
C       13.11214256      54.46425629      28.15357780
C       10.25120354      54.98582459      25.14142227
C       11.76564026      54.31531906      28.45173645
C       11.19331360      54.62031174      26.09655380
C       10.78393173      54.51074600      27.44135857
C       12.63731480      54.42052078      25.72044373
C        9.42897129      54.75716782      27.77114868
C        8.53092384      55.15058517      26.81447792
C       13.53675556      54.67017364      26.86133385
H        8.25980854      55.63751221      24.75198364
H       32.63629532      54.50746918       0.43628681
H       10.57950115      55.12019348      24.08203506
H       30.21816635      54.26114655       0.95486403
H       12.87532806      55.08716583      24.87773514
H       27.94212341      54.70896149       0.28346777
H        7.51016712      55.43268967      27.08808899
H       14.57431221      54.90067291      26.65790367
C        2.21515775      58.36790085       2.22946548
C       -1.91473997      56.44130707       4.36848688
C        1.54071474      58.63005447       3.38498282
C       -1.20421350      56.11495209       3.24290276
C        0.40777439      57.86324692       3.74813700
C       -0.02863690      56.82590866       2.90014529
C       -0.34257436      58.17860031       4.91716242
C        0.69538450      56.56863403       1.70868516
C        1.79131186      57.31520081       1.39192784
C       -1.47622192      57.49044418       5.21338511
H        3.05449581       0.03650244       1.94235301
H       -2.79411602      55.87790680       4.63946867
H        1.85348868       0.53354132       4.02869368
H       -1.53126919      55.28328323       2.60573006
H       -0.02618244       0.06343634       5.52550793
H        0.35537177      55.75785065       1.03708124
H        2.36013269      57.11597824       0.47019163
H       -2.05407333      57.74507523       6.10256004
C       32.33897781      55.94963074       3.33584237
C       29.54237366      56.90979385       7.39882517
C       32.36749268      56.94225311       4.27765894
C       29.49963760      55.94686890       6.43406010
C       31.40127182      56.97919464       5.30853891
C       30.40623856      55.97903824       5.35005617
C       31.40394974      57.98155975       6.31203175
C       30.34128571      55.02031326       4.31321001
C       31.29757881      54.99316406       3.34153652
C       30.49267387      57.94855881       7.32581186
H       33.09514618      55.87195969       2.57544065
H       28.80729866      56.88304520       8.17103100
H       33.14216995      57.70070267       4.25758266
H       28.77141190      55.15274429       6.49390364
H       32.13633728      58.79763412       6.24106455
H       29.53575516      54.29970169       4.31208515
H       31.29498482      54.22415543       2.58504105
H       30.46516418      58.72695541       8.08553791
C       16.37865067      28.49263954      10.26414013
C       19.69869995      28.00410843       6.53340530
C       16.33232117      28.80774689       8.94096661
C       19.77335930      27.86471367       7.89015532
C       17.46126556      28.60409927       8.12074471
C       18.65504074      28.13241768       8.71168232
C       17.42141914      28.77012634       6.71921301
C       18.69435883      27.88560486      10.10090160
C       17.57839775      28.03479195      10.86127853
C       18.49986839      28.45693016       5.94805098
H       15.49126434      28.58984375      10.87205887
H       20.55320358      27.78698349       5.91796017
H       15.41911125      29.16085052       8.50349331
H       20.68130684      27.52617455       8.37052822
H       16.51641846      29.10840988       6.25756645
H       19.60923958      27.52440453      10.52270794
H       17.59544182      27.82562637      11.92141056
H       18.42169762      28.55268288       4.87165642
C        1.86783564      33.08678055      28.28269577
C       22.54432678      33.33339310       4.41616201
C       21.84694672      32.68606186       0.31423211
C       21.31697464      33.60069275       3.89338303
C       22.07252312      32.84090805       1.70628130
C       21.05188942      33.38500977       2.52223444
C       23.34186363      32.58472443       2.27515602
C       19.83353806      33.76075363       1.92020833
C       19.65563774      33.64318848       0.57347524
C       23.57121658      32.83950806       3.59444094
H        1.70762932      33.03926086      27.21859932
H       22.75445938      33.50045776       5.46713209
H        3.84234381      32.32009506      28.22013474
H       20.50978851      33.98084641       4.53893995
H       24.12082100      32.25775909       1.62095511
H       19.03379059      34.16844177       2.54226589
H       18.75780106      33.97926331       0.12018909
H       24.57108307      32.69484329       4.01395273
C       -5.82147646      44.41413879      18.67959785
C       -2.09799075      41.13532639      19.50922775
C       -5.18901443      43.97006226      19.79961777
C       -2.69678164      41.60146332      18.37897301
C       -4.13745213      43.02709961      19.70342255
C       -3.73171282      42.56274033      18.43522835
C       -3.46790242      42.56165695      20.85215569
C       -4.38709164      43.05790329      17.27919197
C       -5.41277266      43.95373535      17.40288353
C       -2.47172952      41.63833618      20.77040100
H       -6.63763618      45.09987259      18.75339699
H       -1.31665671      40.38761902      19.45285225
H       -5.48455524      44.33028793      20.78446388
H       -2.37086058      41.23936462      17.41374016
H       -3.71987557      43.03477097      21.77532768
H       -4.09227991      42.71029282      16.29165268
H       -5.93644667      44.30375290      16.51949883
H       -1.93777728      41.32383347      21.65813446
C       36.06715012      53.41081619       2.65954208
C       34.08298874      51.56705093       6.89201164
C       36.01062012      52.14995956       3.18629336
C       34.18431473      52.81489182       6.36109066
C       35.38428497      51.92221832       4.42742920
C       34.83609390      53.02665329       5.11844301
C       35.27311707      50.63450623       5.01324415
C       34.91492081      54.32300568       4.56770325
C       35.50646591      54.50420380       3.34490442
C       34.63670349      50.46648407       6.20385504
H       36.56918335      53.60247040       1.69853258
H       33.57848740      51.40315628       7.83660793
H       36.44587708      51.30379486       2.69099045
H       33.78899384      53.69073868       6.85518169
H       35.69405746      49.80320740       4.45842934
H       34.50952911      55.14474487       5.11491013
H       35.57562637      55.48416901       2.90287685
H       34.53187942      49.48329926       6.62881231
C       17.10133171      30.97121239      27.54387093
C       12.23126984      31.41037750      26.32174683
C       16.06808662      30.08025932      27.53628731
C       13.29508591      32.27772141      26.36115837
C       14.77079010      30.49626732      27.13401222
C       14.57295132      31.84436989      26.75409317
C       13.65958595      29.61423874      27.09761429
C       15.66696072      32.74796677      26.78256989
C       16.90844345      32.31607056      27.16569138
C       12.42537403      30.06795311      26.70720673
H       18.11354828      30.66396904      27.82617950
H       11.26191902      31.75638008      25.99442482
H       16.23247147      29.05073929      27.83623886
H       13.18652534      33.30591583      26.04460144
H       13.78744507      28.57599640      27.41954041
H       15.52210140      33.78557205      26.48444939
H       17.72871017      32.99604797      27.15581131
H       11.59092617      29.39106369      26.72589684
C        0.00857858      29.92687798       9.82900906
C       -0.38693136      31.11497498       4.94654131
C        0.73507160      29.60723114       8.72732925
C       -1.12159586      31.42849731       6.04878378
C        0.39303872      30.11931610       7.44810581
C       -0.73907810      30.95639992       7.33988905
C        1.12802505      29.80127716       6.28794765
C       -1.47866976      31.26686096       8.50537872
C       -1.12625468      30.76345634       9.71545410
C        0.76021999      30.29857445       5.06654167
H        0.27571651      29.50158310      10.79435730
H       -0.67932385      31.47084808       3.96924496
H        1.57352376      28.90646362       8.79308224
H       -2.00721145      32.05020523       5.97039032
H        1.98735726      29.12118340       6.37928534
H       -2.38272738      31.88601875       8.42392826
H       -1.75367963      30.96444321      10.57002640
H        1.30588138      30.01910019       4.18536139
C       16.21265221      35.37638474      10.27329350
C       16.31750679      33.03565216      14.69485474
C       15.34088707      34.52642441      10.90306473
C       17.12656784      33.96895218      14.12600422
C       15.63193989      34.05392456      12.19445419
C       16.81775856      34.48392868      12.84453583
C       14.79687500      33.11695099      12.83957100
C       17.65365028      35.40377045      12.18820667
C       17.39678955      35.79689026      10.92184734
C       15.15908623      32.58817291      14.03960705
H       15.98833942      35.77035522       9.29974175
H       16.52774239      32.67028809      15.68430519
H       14.42591000      34.18943405      10.41170979
H       17.99016762      34.38498688      14.63913345
H       13.87517452      32.82786942      12.36571026
H       18.53641891      35.76965714      12.70684052
H       18.10357666      36.42569733      10.39390945
H       14.55286026      31.83758736      14.51086426
C       -3.37975764      49.11856842      10.83399391
C       -4.91640902      45.20908737      13.56955147
C       -2.82342482      48.37908173      11.84110165
C       -5.44039488      45.83126450      12.46786690
C       -3.45621276      47.21200180      12.31033325
C       -4.71235514      46.83773041      11.78789330
C       -2.89572787      46.47190094      13.36318111
C       -5.21479845      47.55851746      10.67265892
C       -4.57165384      48.67549133      10.22154713
C       -3.59986663      45.48538208      13.99419022
H       -2.91023254      50.02198029      10.53181076
H       -5.51700163      44.49105072      14.11688137
H       -1.91453528      48.70024872      12.33961868
H       -6.43885899      45.60002899      12.14543724
H       -1.89686930      46.75632095      13.69657803
H       -6.14963436      47.23177338      10.20875645
H       -4.99046803      49.24840164       9.39519882
H       -3.20293808      44.94444656      14.83679771
C       22.28651810      43.37935638       7.19183874
C       23.33573151      39.49541855       4.19724417
C       21.62466049      42.22387695       6.88868380
C       23.99091911      40.65558624       4.48793077
C       22.17031097      41.32117844       5.95867348
C       23.41949272      41.59888840       5.36900902
C       21.47676086      40.14749146       5.58039665
C       24.07170868      42.81864548       5.69952822
C       23.52744865      43.67979431       6.60106659
C       22.04498672      39.25997925       4.71614981
H       21.85047722      44.07297897       7.88342190
H       23.77989197      38.76708984       3.53177810
H       20.66563606      41.98374176       7.33130550
H       24.98043633      40.85424423       4.07328749
H       20.46331596      39.99918747       5.96095133
H       25.00603867      43.03682709       5.20660925
H       24.04019356      44.59203339       6.87543201
H       21.49525261      38.35266876       4.45237160
C        7.93530893      53.58454895      16.65379333
C        4.09108162      52.25107956      19.61169624
C        6.58946371      53.62127686      16.48211670
C        5.44361925      52.26982498      19.77084351
C        5.72984886      53.15440369      17.51248741
C        6.28682327      52.68582916      18.71675682
C        4.33167601      53.10624695      17.35927010
C        7.69364023      52.61086273      18.84565353
C        8.49185848      53.05868149      17.83560181
C        3.54662180      52.64369583      18.36931610
H        8.62273598      53.92884445      15.87865829
H        3.45115709      51.97172165      20.42118835
H        6.12995672      53.97785950      15.56013680
H        5.90403843      52.00437164      20.72757912
H        3.87416744      53.44746399      16.41512299
H        8.07589054      52.18743134      19.77074242
H        9.56089592      53.01480103      17.91238976
H        2.48477459      52.58528137      18.22600746
C        3.71114707      41.81910324      13.67536163
C        7.26349926      43.46492004      16.83077049
C        4.33976030      43.02475357      13.81805611
C        6.99075842      42.16861725      16.20800400
C        5.29845095      43.21768188      14.83603287
C        5.63357687      42.10482788      15.64709949
C        5.93082285      44.43244171      15.08758163
C        4.92310095      40.92574692      15.56866550
C        3.96228838      40.78783035      14.58617783
C        6.80566072      44.55932999      16.19744110
H        3.01799750      41.66808701      12.86832237
H        7.93226862      43.53448105      17.69281578
H        4.11455250      43.84527206      13.12538719
H        7.20617247      41.31206894      16.85933304
H        5.69239521      45.27401352      14.48840141
H        5.19657469      40.08213043      16.19661331
H        3.45132971      39.84498215      14.49016476
H        7.10598803      45.56014252      16.51845169
C       14.41554165      45.37165451      17.81452560
C       17.67796707      42.69752502      20.53572083
C       14.29532719      44.66414642      18.97884750
C       17.79642487      43.52507401      19.45851517
C       15.44150543      44.11361694      19.58664131
C       16.69835091      44.26691437      18.96498871
C       15.34935570      43.28857040      20.72414398
C       16.79318047      45.08420181      17.82560349
C       15.68481445      45.63744354      17.26652908
C       16.43758202      42.61168671      21.20718575
H       13.53461838      45.74065399      17.31274796
H       18.50235367      42.12843704      20.88796997
H       13.32147694      44.47684860      19.42629623
H       18.73819733      43.60995865      18.91807365
H       14.37684727      43.15984344      21.16105270
H       17.77030754      45.21984863      17.34865379
H       15.78989697      46.26247787      16.38256645
H       16.33929253      41.95674515      22.05551910
C       34.39607620      34.72360229       0.93845659
C       18.27057838      38.17533112      26.98061180
C       35.71235657      34.81711960       0.58890450
C       16.94878387      38.08240891      27.32554436
C       17.37491798      35.88860321      28.33499908
C       16.46302414      36.93289185      27.99573326
C       18.72402954      36.00686264      27.93132973
C       15.10778332      36.81105804      28.36983681
C       33.48494720      35.71017075       0.52482915
C       19.14983368      37.11531830      27.26301002
H       34.04438019      33.89134598       1.51826012
H       18.65538025      39.09365463      26.55047226
H       36.41530609      34.04806900       0.88665634
H       16.26360893      38.90026474      27.13958740
H       19.42359734      35.23199081      28.22680473
H       14.42525291      37.59907150      28.12098885
H       32.45070648      35.61446381       0.79352891
H       20.19733429      37.21632004      27.00255013
C       22.86657715      46.47404099      21.07561111
C      -14.05375385      50.19234467      22.92944336
C       23.71194649      47.36993790      20.49388504
C      -14.99082565      49.36272812      23.47231865
C       24.39007568      48.32844543      21.28713417
C       24.12559319      48.38846207      22.67630386
C       25.37121201      49.19630051      20.74550438
C       23.27492523      47.42187881      23.25827789
C       22.68651962      46.47486114      22.47532845
C      -13.73308659      50.08245850      21.55409622
H       22.39376831      45.69565582      20.47964287
H      -13.55863667      50.94129181      23.54919815
H       23.90333366      47.29847336      19.44513512
H      -15.20694733      49.41203308      24.52654457
H       25.59757614      49.12379456      19.69858360
H       23.10194778      47.43453979      24.34658432
H       22.07067299      45.73735809      22.93532944
H      -12.96832657      50.71116638      21.15327644
C        8.75039768      48.68116379       5.56842709
C        6.81984186      51.68443680       9.07883644
C        7.49021196      48.90472031       6.02715492
C        8.09049606      51.46451569       8.63569069
C        7.25153923      49.90947723       6.98674774
C        8.34117126      50.59225464       7.55657196
C        5.93350935      50.21208954       7.39414406
C        9.64330482      50.35102081       7.04908848
C        9.83774090      49.43622208       6.05253696
C        5.72322321      51.07883072       8.43485451
H        8.91631699      47.90174103       4.82923031
H        6.64510918      52.27511215       9.97365761
H        6.65166569      48.32059097       5.67406750
H        8.93144894      51.91854095       9.15480614
H        5.10576582      49.75303268       6.86502266
H       10.47993374      50.87917328       7.49350357
H       10.81406879      49.25360489       5.65221882
H        4.70603228      51.29655075       8.74227524
C       -2.39685106      39.89831161      15.19235706
C       -0.12788284      41.79012680      11.13763523
C       -1.97537684      41.16186142      14.85648727
C       -0.77755994      40.61495590      11.37298393
C       -1.42883909      41.41277695      13.58232689
C       -1.40254176      40.37978363      12.61629772
C       -0.79414326      42.63809967      13.28239632
C       -1.85324299      39.09517288      12.99099064
C       -2.30416894      38.85593414      14.25807858
C       -0.10181797      42.80308533      12.12340832
H       -2.80141187      39.67644882      16.19721222
H        0.39080206      41.94071579      10.19499683
H       -1.95970523      41.97665405      15.56664085
H       -0.72953081      39.80099869      10.65162563
H       -0.83731401      43.41193390      14.01482773
H       -1.80819666      38.29015732      12.27365589
H       -2.59681344      37.83794022      14.55167484
H        0.44956544      43.72359085      11.91736221
C        7.45959663      45.24751282      23.02278519
C       12.32999325      44.59912109      24.48772430
C        8.28492451      44.14017487      23.18423462
C       11.35485268      45.79521942      24.49895668
C        9.59162045      44.27991486      23.59116173
C       10.11942768      45.56683350      23.68661690
C       10.47834682      43.07216644      23.87896919
C        9.32532883      46.65853500      23.38241577
C        7.97175026      46.52130127      23.13739967
C       11.56434250      43.36289597      24.93198013
H        6.40077448      45.10348129      22.86764336
H       13.10988045      44.80416489      25.19865799
H        7.88870192      43.15156937      23.03612518
H       11.86121082      46.69888306      24.19578362
H        9.85677242      42.25465393      24.22430801
H        9.77437687      47.63603973      23.42408371
H        7.33707285      47.38084030      23.07529068
H       12.26738262      42.50849915      24.93471909
C        1.58011901      34.54962921      10.26175308
C        3.74224472      30.81355286       7.72128391
C        1.93283403      33.28155899      10.61483955
C        3.14221263      31.97414017       7.34304285
C        2.46322584      32.39479065       9.64587879
C        2.51122093      32.80974579       8.29375935
C        3.06907010      31.17364311      10.01073551
C        2.06650805      34.10216141       7.95355272
C        1.65924430      34.97419739       8.92337322
C        3.71582294      30.41554642       9.08027172
H        1.26966071      35.25261688      11.03981876
H        4.24501562      30.19801903       6.99060249
H        1.87921953      32.97737885      11.65180397
H        3.13693476      32.28889465       6.30201578
H        3.04061913      30.85689735      11.04382420
H        2.09690118      34.40930557       6.91992998
H        1.37697744      35.99089432       8.67367935
H        4.20721674      29.49703026       9.38334179
C       18.71369362      31.43548965       4.05475426
C       21.22414970      30.93151665       8.38767719
C       19.97059059      31.01917648       4.36059141
C       19.91738510      31.14992905       8.08938122
C       20.41198730      30.97523689       5.71039104
C       19.50090027      31.24398994       6.74157953
C       21.76847076      30.72193336       6.04001570
C       18.19328308      31.68174362       6.39372969
C       17.82839394      31.82188988       5.08865881
C       22.16765594      30.75126076       7.34646749
H       18.38864899      31.51582718       3.01063919
H       21.56758118      30.91619110       9.41883564
H       20.69286346      30.75606155       3.56395817
H       19.19009018      31.28343010       8.89637661
H       22.47594833      30.57552910       5.25487375
H       17.49979019      31.90558434       7.18860054
H       16.88574600      32.21405411       4.82749367
H       23.22281075      30.61858940       7.58134985
C       30.21411324      36.12563324      11.53050137
C       31.89929199      32.93971252       8.01400471
C       30.26255608      34.76559830      11.44120789
C       31.93642426      34.29523468       8.14663029
C       30.84603310      34.12644196      10.32069588
C       31.37427521      34.91533661       9.28295898
C       30.85492325      32.71513367      10.17159081
C       31.29785538      36.32726669       9.38898754
C       30.74202538      36.91856384      10.48146915
C       31.34413719      32.14041901       9.04195786
H       29.72569275      36.56740189      12.37950134
H       32.30854797      32.46910858       7.11872005
H       29.82751274      34.12665176      12.21254826
H       32.39646149      34.90125656       7.39064074
H       30.41318130      32.09859085      10.94363308
H       31.69375992      36.93710709       8.57864285
H       30.68973541      37.98276520      10.53231144
H       31.34341431      31.05384636       8.92271900
C        2.12884784      52.36885834      26.25317001
C        6.12090111      49.69707870      27.74924088
C        2.64691114      51.16147614      25.87170410
C        5.55461025      50.85818481      28.18458939
C        3.81177306      50.63970947      26.49983215
C        4.38808107      51.36069870      27.56439781
C        4.46014261      49.48532486      26.02824020
C        3.82675982      52.60666275      27.94763756
C        2.73604536      53.11267853      27.29231071
C        5.57142496      48.99577332      26.64983177
H        1.24174583      52.75017929      25.73019028
H        7.03385115      49.35216522      28.20945930
H        2.20099926      50.60041046      25.06728554
H       24.79258347      51.41313553       0.46895167
H        4.08366776      49.00693130      25.13393593
H       23.09817505      53.17995453       0.21786736
H        2.33183217      54.08802414      27.58232117
H        6.05238104      48.09773254      26.27354813
C       11.73832417      41.75835419       7.87204266
C       10.83726788      38.41519928       4.21389055
C       11.72416687      40.39712524       7.81148434
C       10.80845261      39.77574158       4.25858355
C       11.48830986      39.72694397       6.59837627
C       11.14006996      40.47370529       5.45175266
C       11.62224197      38.31295395       6.48485517
C       11.15717506      41.88970184       5.54527521
C       11.46066666      42.51703644       6.71964025
C       11.27933693      37.66740036       5.33015013
H       11.96550751      42.25097275       8.82589817
H       10.51066875      37.88697815       3.32368493
H       11.94067764      39.81389999       8.69828129
H       10.51921177      40.31751633       3.37322116
H       11.99335289      37.76680374       7.34843636
H       10.92882538      42.47225571       4.66227198
H       11.49088192      43.62052917       6.75535822
H       11.31894302      36.59588623       5.27180290
C       15.11641026      32.88891220       7.33088922
C       11.84966850      32.62906647       3.53983879
C       14.95397758      32.01485825       6.29806280
C       12.14830494      33.60849380       4.43974829
C       14.02869225      32.29088211       5.25609684
C       13.24565792      33.46024704       5.33347654
C       13.78107929      31.35231781       4.22326660
C       13.49346066      34.38940811       6.37042475
C       14.40992928      34.10871506       7.35347509
C       12.68904972      31.49803162       3.42111588
H       15.77265072      32.64740753       8.15098190
H       10.95487595      32.72291565       2.92841768
H       15.49478340      31.10196114       6.27520514
H       11.50514889      34.46857452       4.53781271
H       14.41051579      30.48089790       4.12496376
H       12.91160107      35.30883789       6.40701151
H       14.55198574      34.81017685       8.15853500
H       12.45141029      30.74789429       2.67898560
C        9.67069244      36.08275604       7.98508263
C       10.97287750      33.32649231      11.99372196
C        9.60563564      34.74950027       8.26057243
C       11.26344490      34.60940170      11.60673428
C       10.10349846      34.23768234       9.48162556
C       10.79828930      35.10718536      10.35920906
C        9.84048367      32.91285324       9.89771080
C       10.89310455      36.48198700      10.02493286
C       10.28524780      36.96092606       8.90202713
C       10.24674320      32.47354507      11.12268925
H        9.21323776      36.47481918       7.08959675
H       11.29838657      32.96266937      12.94671154
H        9.10884380      34.05401230       7.58372116
H       11.82533741      35.26041031      12.26908493
H        9.27830696      32.27634811       9.25027561
H       11.42735100      37.15441895      10.70455360
H       10.28820038      38.03870392       8.72991753
H       10.01197433      31.46650696      11.43216228
C       13.71975231      35.23928070       0.88479084
C       -2.73831391      30.94044113      28.24453163
C       13.32424068      33.93156815       0.85959417
C       -2.33023810      32.23894882      28.32944679
C       14.24688816      32.91075516       0.54251164
C       15.59124947      33.25954056       0.24303070
C       13.85482216      31.55172920       0.43321568
C       15.96615028      34.61847305       0.32331637
C       15.06468582      35.58337402       0.63840497
C       14.74127388      30.58653259       0.05361607
H       12.99264336      36.02446747       1.10884130
H       -2.04595160      30.18531609      27.91174889
H       12.29447842      33.66778183       1.04979360
H       -1.33160818      32.51642227      28.00737000
H       12.80982685      31.30221176       0.65969533
H       16.98731422      34.89326859       0.10709487
H       15.36397266      36.62937927       0.69699609
H       -4.37271214      29.56238937      28.49989319
C        1.53965485      43.03131104       7.10601187
C        2.80777574      38.56331635       9.05454159
C        1.99124002      42.64636612       8.33558846
C        2.35314775      38.93586731       7.84120417
C        2.31864715      41.30761719       8.59034348
C        2.42679119      40.36627960       7.41234255
C        2.81390929      40.86519623       9.83181572
C        1.45925415      40.74626923       6.32594299
C        1.14515316      42.04269028       6.14819574
C        3.14877105      39.55071640      10.03625202
H        1.45156586      44.09069061       6.85870647
H        2.90516233      37.54207993       9.31919575
H        2.10457945      43.38333130       9.14433670
H        2.05255890      38.18224716       7.10562515
H        2.94246268      41.60492706      10.62566185
H        1.08437073      39.96857834       5.62761974
H        0.56361657      42.34251022       5.25991440
H        3.55069160      39.23940277      10.99229622
C       23.34935761      53.56707382      16.74755669
C       22.71681213      48.56631851      16.69599152
C       23.26737976      52.65112686      15.74636841
C       22.80815315      49.49705124      17.69103622
C       23.11071777      51.27272034      16.04158020
C       23.02295113      50.86627197      17.38735580
C       23.03688240      50.28413010      15.03363132
C       23.12502098      51.83854294      18.40172386
C       23.28067589      53.15494919      18.09345245
C       22.85089684      48.97264099      15.34306145
H       23.46048927      54.61745834      16.52484894
H       22.50704002      47.51822281      16.93747139
H       23.29721451      52.95515442      14.70167255
H       22.70663643      49.20618057      18.73798561
H       23.15033150      50.59390640      14.01803970
H       23.05841255      51.50582886      19.41242981
H       23.33815193      53.89857483      18.86337471
H       22.76394844      48.23462296      14.54708385
C       -4.41927671      45.24271011       7.28343344
C       -1.17451072      46.08840561       3.53559709
C       -3.69878125      44.42630768       6.47285938
C       -2.03010869      46.88479614       4.23056412
C       -2.87366605      44.94723511       5.44095325
C       -2.87695599      46.34165192       5.23206472
C       -1.98788035      44.14315796       4.68279409
C       -3.67467403      47.17380524       6.05587721
C       -4.41271639      46.63560104       7.06929445
C       -1.14562464      44.70060730       3.75756145
H       -4.99751759      44.82186127       8.08632469
H       -0.51299864      46.51184845       2.77705956
H       -3.71923852      43.34983444       6.64102697
H       -2.07393885      47.94969177       4.05248070
H       -1.90225887      43.09843063       4.88981009
H       -3.63466668      48.24729919       5.90923405
H       -4.97415495      47.29496002       7.73036242
H       -0.46453097      44.07771301       3.20733094
C       20.40107536      50.25743866       1.19252431
C       16.72749710      46.83684921       0.66843843
C       20.28712273      49.10286713       0.46890593
C       16.87028503      47.95432281       1.43735409
C       19.12522507      48.29203415       0.56853896
C       18.07410431      48.69271469       1.41883314
C        0.16512819      47.10731888      28.34225655
C       18.23903847      49.88296127       2.18254185
C       19.36215973      50.63602066       2.07234645
C       -1.00008309      46.39617920      28.38480568
H       21.26574516      50.87552261       1.07941139
H       15.80074692      46.26983643       0.68274671
H        2.28098798      48.81857300      28.36538506
H       16.05004311      48.29834747       2.06770992
H        0.95225835      46.76491547      27.70108414
H       17.41121674      50.16535950       2.83223987
H       19.46936226      51.56100082       2.64249444
H       -1.08739543      45.51536179      27.77290153
C        8.83140659      51.04765701      14.43445492
C        4.93844271      49.66850281      17.31894875
C        8.73159409      50.64134216      15.72860241
C        5.05140734      50.11996841      16.04253387
C        7.46984625      50.31997681      16.30020142
C        6.31050110      50.44102097      15.49736881
C        7.32476473      49.84099197      17.62012482
C        6.46386337      50.82318115      14.14144421
C        7.67845964      51.13093567      13.62351131
C        6.09345770      49.50657272      18.11131096
H        9.78187275      51.27828217      14.00223541
H        3.96321797      49.44294739      17.73322296
H        9.62133694      50.55219650      16.33647919
H        4.15360594      50.24036789      15.41047955
H        8.18801403      49.72092819      18.24302673
H        5.56669092      50.84053421      13.52855778
H        7.77776146      51.46682358      12.58380413
H        5.98792601      49.15684509      19.13483810
C        0.25636628      47.11839676      10.51731968
C       -1.45643854      43.25466156       7.84949398
C       -0.53885841      46.05573273      10.83642578
C       -0.80450404      44.40262604       7.52094460
C       -1.00306368      45.18614960       9.82392788
C       -0.53227019      45.36783218       8.49723434
C       -1.81856108      44.06858444      10.08990860
C        0.24450351      46.50341797       8.19481754
C        0.58566797      47.37182236       9.17103481
C       -2.00295591      43.10879517       9.13003349
H        0.69134355      47.76274109      11.29060459
H       -1.59167147      42.47002792       7.11222792
H       -0.81360030      45.83646774      11.86455059
H       -0.45793968      44.59715652       6.50029135
H       -2.21499777      43.94117355      11.08568096
H        0.58166927      46.64383316       7.16536045
H        1.14576757      48.24199677       8.93079281
H       -2.52286410      42.19804764       9.38345337
C      -13.74097347      30.75084877      20.95783424
C      -14.18243313      33.20348740      25.33307076
C      -13.73053455      32.07239151      21.29968834
C      -14.04857159      31.88700294      25.00837326
C      -13.81144142      32.47639847      22.65054512
C      -13.86250782      31.48913765      23.66045761
C      -13.93533993      33.83951187      23.01559639
C      -13.84925747      30.11964607      23.28066254
C      -13.80491447      29.76358986      21.96325684
C      -14.12975216      34.19762421      24.32238579
H       26.04136086      30.45011711      19.91098976
H      -14.36349773      33.49603653      26.35128784
H       26.09001732      32.84884262      20.54603577
H      -14.12396431      31.13230705      25.76914597
H      -13.89930153      34.59027100      22.23016930
H      -13.92371464      29.36367798      24.04616928
H      -13.81622696      28.70159912      21.68408394
H      -14.24757671      35.23554993      24.60631943
C       -6.06188059      49.32175827      27.85255623
C       -1.31438923      50.99211121      27.73913193
C       -5.46106720      50.42775345      28.37047768
C       -1.92211699      49.86027527      27.30747414
C       -4.05947208      50.61585999      28.22372246
C       -3.30667996      49.64818573      27.52896500
C       15.40136337      51.77280426       0.16982707
C       -3.94369221      48.48752594      27.03461838
C       -5.28430128      48.33783722      27.20080185
C       -2.07705760      51.95098495      28.45053864
H       -7.11593485      49.15941620      27.92173195
H       -0.25633714      51.15576553      27.57281494
H       12.74502277      51.17717361       0.35706681
H       -1.36770523      49.07661057      26.77098656
H       14.82641506      52.52952957       0.71750706
H       -3.36310315      47.75569916      26.48613739
H       -5.79204178      47.43075180      26.86996460
H       17.22648048      52.83147430       0.29396421
C       10.87526321      54.36628342       8.91107273
C        8.20202637      54.26152039      13.16790771
C        9.54133034      54.32308960       9.18898582
C        9.54410839      54.31496811      12.91495800
C        9.07500553      54.33863449      10.52064896
C       10.02279949      54.36485672      11.58074856
C        7.68922424      54.32963943      10.82054901
C       11.40130615      54.44375229      11.25994873
C       11.81478500      54.44549179       9.96033001
C        7.26418781      54.27650070      12.11668205
H       11.21271515      54.33407211       7.87401485
H        7.82606459      54.19547272      14.17205143
H        8.80581760      54.24712753       8.39992714
H       10.26942635      54.31569290      13.72681713
H        7.00225878      54.36577606       9.99904537
H       12.13377666      54.49673080      12.05707836
H       12.87805080      54.49274445       9.73779011
H        6.21420097      54.26253128      12.35659122
C       21.88836670      35.30186081       7.02379370
C       17.17996788      36.96708679       7.45698833
C       21.31711578      36.53276825       6.94953966
C       17.72193527      35.72136307       7.42193127
C       19.94071579      36.70227814       7.21991825
C       19.12366486      35.56500626       7.36232185
C       19.37096214      37.98198700       7.39912367
C       19.74741554      34.31046295       7.44680691
C       21.10175323      34.17100525       7.33892822
C       18.02289772      38.09698868       7.53072596
H       22.96756744      35.19749832       6.85306883
H       16.10658836      37.09512711       7.47210503
H       21.89495277      37.41749573       6.70976257
H       17.12641335      34.84128571       7.44937277
H       20.01256371      38.84183502       7.47654009
H       19.13480186      33.45722198       7.65624189
H       21.55080223      33.21150970       7.45084333
H       17.59128952      39.06723022       7.72878885
C       29.07177162      57.18013000      10.72914886
C       27.65870285      56.37910080      15.46578312
C       28.69816589      58.00725937      11.73891163
C       28.07029915      55.55997849      14.45706272
C       28.25742531      57.48172379      12.97976780
C       28.29962158      56.08340836      13.16431713
C       27.79637527      58.30507660      14.02851868
C       28.55853653      55.24786377      12.05009556
C       28.93196487      55.78057480      10.85597324
C       27.48170471      57.76044464      15.23876667
H       29.45092392      57.60595703       9.80462074
H       27.46603012      55.95044708      16.44753647
H       28.76490211       0.16259651      11.60573769
H       28.23954010      54.51337051      14.60876942
H       27.69131088       0.42698646      13.84121418
H       28.40625000      54.18061829      12.16870213
H       29.13206482      55.12678528      10.00293446
H       27.10039330      58.39416504      16.03306389
C       21.50216103      42.48191071      22.62631989
C       20.67518997      41.36200714      17.83422852
C       21.63888931      41.33625412      21.90689850
C       20.68399048      42.52920914      18.52384949
C       21.31648445      41.32559967      20.54300117
C       20.95528221      42.54667664      19.91722870
C       21.35470581      40.13228607      19.78847885
C       20.79429245      43.70613861      20.69834900
C       21.01473427      43.65678787      22.04250336
C       21.02788544      40.14761353      18.48217011
H       21.80614471      42.49407578      23.65519142
H       20.47217369      41.35813904      16.78113937
H       22.01390839      40.42893982      22.35566330
H       20.48912430      43.46596146      18.03159523
H       21.63887596      39.20193863      20.29183578
H       20.42798042      44.61642075      20.23598862
H       20.79363823      44.49058151      22.67938232
H       21.04092789      39.24503708      17.89452934
C       -1.79639244      42.15352631      24.67938805
C       -5.31105089      45.57497406      25.30667686
C       -2.98956084      42.37860107      24.05492592
C       -4.31809664      45.13686371      26.11906624
C       -3.88949943      43.33529282      24.54238319
C       -3.56777573      44.00545502      25.74736214
C       -5.06632662      43.69957352      23.84109116
C       -2.43660855      43.58906937      26.48745728
C       -1.54406178      42.72237778      25.93663025
C       -5.74554062      44.83179855      24.18763542
H       -1.08267081      41.45735550      24.21483040
H       -5.80589819      46.49662018      25.51482773
H       -3.27028847      41.81052017      23.18241882
H       -4.07111025      45.68923569      27.01626396
H       -5.40544939      43.10824966      22.99480820
H       -2.26408553      44.02130890      27.47822762
H       -0.64062136      42.47964096      26.47297478
H       -6.61215210      45.16265488      23.63675308
C       12.74368095      39.39824295      11.65337181
C       13.45425987      38.15395737      16.51946831
C       11.78219128      38.94683075      12.71580696
C       14.04216290      39.08813477      15.67404079
C       12.49140453      38.52120590      13.95850945
C       13.55463791      39.31267166      14.39316177
C       11.97319984      37.51874542      14.75261593
C       14.14729691      40.35295868      13.47280121
C       13.78841019      40.11407471      12.02042484
C       12.43515205      37.34839630      16.04961205
H       12.53333950      39.17074203      10.60142326
H       13.83483601      38.02476120      17.53035355
H       11.08473587      38.15856171      12.39680576
H       14.93316650      39.62417603      16.00695992
H       11.12808323      36.92406845      14.38219452
H       15.21956253      40.24795532      13.51952362
H       14.46070957      40.49713898      11.28958702
H       12.00405884      36.57673264      16.68062782
C        0.09373877      50.77010727      13.31417370
C        1.33931220      52.74314499       8.86348438
C        0.04419483      50.30487823      12.03512669
C        1.24760890      53.25339127      10.12393093
C        0.41308045      51.11565018      10.94212055
C        0.81646872      52.44495010      11.20353889
C        0.39398098      50.66998291       9.60876465
C        0.78102672      52.92997742      12.52546120
C        0.46575665      52.10968781      13.56732845
C        0.88164556      51.43819809       8.58846283
H       -0.16492373      50.12032700      14.14149189
H        1.69411981      53.38186646       8.05276585
H       -0.24940765      49.29414368      11.83834171
H        1.49619019      54.29279709      10.31608391
H       -0.06155828      49.71051407       9.39352036
H        1.01145649      53.97526932      12.67279243
H        0.49407434      52.48872375      14.56954861
H        0.88318229      51.09245300       7.58020067
C       -2.81184006      38.25984573      26.68172455
C       -7.44417906      39.77545547      25.52064896
C       -4.01291895      37.63251877      26.67482185
C       -6.25930500      40.42160797      25.65982628
C       -5.19341898      38.32765961      26.31767845
C       -5.10680056      39.70751953      26.06451416
C       -6.43242788      37.67858124      26.11631775
C       -3.85692358      40.35469055      26.16246223
C       -2.72624087      39.64226913      26.39841270
C       -7.53211021      38.38164520      25.72375870
H       -1.91644502      37.69570923      26.87574387
H       -8.35105419      40.32813263      25.26465225
H       -4.04497051      36.56188202      26.86995316
H       -6.18013239      41.48694229      25.50102615
H       -6.48031807      36.61231995      26.26647377
H       -3.84289360      41.42693710      26.04465866
H       -1.75946665      40.12904358      26.40695953
H       -8.47933388      37.89719391      25.57414436
C       -7.42037630      40.07705307      22.31341934
C       -6.98107862      38.50702286      17.57445335
C       -6.96151257      40.67240143      21.17432785
C       -7.54367208      37.96031952      18.68733788
C       -7.02275801      39.98070145      19.94101906
C       -7.57684755      38.67635345      19.90706444
C       -6.50707245      40.54491806      18.75906944
C       -8.07603645      38.10398102      21.10015297
C       -7.98651505      38.78226089      22.27925301
C       -6.46819830      39.82643127      17.60430717
H       -7.33934593      40.60308838      23.26491928
H       -6.94944715      37.94888306      16.67822456
H       -6.51752329      41.65576172      21.17253304
H       -7.94528008      36.95348358      18.67562103
H       -6.09913826      41.55798721      18.80079269
H       -8.48673439      37.10175705      21.06016159
H       -8.32872868      38.30126190      23.20442200
H       -6.02411985      40.25667953      16.72201920
C        5.72818565      42.73714447      10.44748878
C        8.71181870      43.26959991      14.51473045
C        6.05388021      41.89156723      11.49564171
C        8.52560520      43.96011353      13.39585972
C        6.96482611      42.28730774      12.49295616
C        7.55445576      43.54388046      12.38262749
C        7.28614283      41.36927795      13.64253044
C        7.21324062      44.39206696      11.33628368
C        6.30343580      44.00295258      10.36777973
C        7.97624254      42.02400589      14.85570240
H        5.01119184      42.43052292       9.68685818
H        9.41036129      43.63899231      15.25880337
H        5.59169149      40.90913010      11.58103275
H        9.06377792      44.88610077      13.23027611
H        6.33977079      40.98021317      13.95989418
H        7.69559002      45.33855820      11.26118088
H        6.08140087      44.66439056       9.53911018
H        8.74048805      41.36544037      15.26904869
C       28.41837120      37.38194275      16.36734009
C       27.84231949      32.40376663      15.78638077
C       28.40139771      36.54981995      15.28018475
C       27.82183456      33.23342896      16.86916351
C       28.20490646      35.15417480      15.42833900
C       28.02033615      34.62670136      16.72237968
C       28.19225693      34.28253937      14.32527828
C      -11.71435928      35.50192642      17.83433723
C      -11.51632977      36.83871841      17.66880798
C       28.03371239      32.93789673      14.49198532
H       28.56973457      38.45911026      16.24816322
H       27.70136642      31.35011673      15.91008282
H       28.51580238      36.96990967      14.27012062
H       27.67293930      32.81424332      17.87058258
H       28.27380753      34.71578598      13.32839394
H      -11.84495068      35.08821106      18.83096695
H      -11.49427891      37.50648499      18.52657509
H       28.04063606      32.27217484      13.61794281
C       24.13854980      55.29011917       1.38759756
C       23.49718857      52.27004242       5.38114548
C       25.00179672      54.63694763       2.22418547
C       22.63318634      52.86368942       4.50347185
C       24.51373672      53.83680725       3.29399514
C       23.11697769      53.67331696       3.45154309
C       25.38562393      53.22372818       4.21935606
C       22.24920654      54.36184311       2.56569648
C       22.74393082      55.16378021       1.57065558
C       24.88964272      52.47135544       5.25573635
H       24.52716064      55.90145493       0.59562683
H       23.11546516      51.63381577       6.16135406
H       26.06617737      54.74314880       2.09098077
H       21.56724167      52.72083282       4.61026096
H       26.45245934      53.31414413       4.09516668
H       21.17658234      54.24092484       2.67582154
H       22.06452942      55.68198776       0.88703078
H       25.58407974      51.97950745       5.93369913
C        7.21380043      31.94853401      15.63506317
C       12.17725372      31.40738869      15.43013000
C        8.04021263      31.39483833      14.70080757
C       11.34585857      32.17127991      16.20512199
C        9.44048500      31.47693253      14.85748863
C        9.95870590      32.19893646      15.95383739
C       10.34372711      30.76962662      14.02473450
C        9.07854080      32.85175705      16.84165382
C        7.73484945      32.69582367      16.71196747
C       11.66876888      30.70784378      14.32458115
H        6.13869333      31.80972862      15.55755806
H       13.20214176      31.31901169      15.70814037
H        7.64477968      30.84125900      13.88408470
H       11.72411823      32.70420074      17.06373405
H        9.96256256      30.24859238      13.18260670
H        9.49380779      33.45397186      17.64901352
H        7.04355001      33.16150284      17.39968491
H       12.33403683      30.10904503      13.72076416
C        3.79122448      46.45500946      25.37559700
C       -0.09083383      48.66437912      23.06703949
C        2.71762562      47.15795136      25.83149528
C        0.98418814      47.94289780      22.63158417
C        1.79045677      47.75066757      24.92916870
C        1.96975505      47.51668930      23.55496216
C        0.69900870      48.56198120      25.33815575
C        3.11886668      46.84017563      23.10383415
C        4.01894712      46.31637573      23.99067307
C       -0.20581716      49.01516724      24.42012787
H        4.50682116      46.01501846      26.03720284
H       -0.88674855      48.96006012      22.37671661
H        2.61086822      47.31653214      26.89933777
H        1.10086358      47.66392899      21.57833290
H        0.62215942      48.83468246      26.38074303
H        3.26787400      46.72795486      22.02821922
H        4.88453531      45.80187988      23.63520622
H       -1.04176295      49.67609024      24.73077583
C       21.42963409      38.65617752      12.14726162
C       23.83712578      39.71941376       7.89197207
C       22.08471298      39.75733566      11.70031261
C       23.27095985      38.58700180       8.38343048
C       22.65196609      39.76943207      10.41323090
C       22.56970406      38.60685730       9.61423492
C       23.26726723      40.92633820       9.89110756
C       21.85686684      37.48932648      10.09442520
C       21.30057716      37.51166534      11.33994770
C       23.75951004      40.92343903       8.62468529
H       20.95449829      38.69078445      13.10020733
H       24.38039970      39.71297455       6.94791555
H       22.14801407      40.65850830      12.31631184
H       23.37230682      37.64364624       7.85093498
H       23.31471062      41.81825638      10.48240089
H       21.81084824      36.59352493       9.49156666
H       20.75170898      36.65996933      11.71670437
H       24.14554214      41.82838440       8.17904377
C       22.71622849      46.89126587       6.20494795
C       24.75031471      50.28065109       3.12474966
C       23.99934578      47.27937317       5.96815252
C       23.47213554      49.91443253       3.38985991
C       24.26412201      48.32470703       5.05269814
C       23.19183540      48.93824005       4.36773157
C       25.59078598      48.74715042       4.78923368
C       21.86853790      48.52075958       4.64512491
C       21.64723587      47.52332306       5.55002642
C       25.82227898      49.70716476       3.84672356
H       22.50586510      46.08654404       6.91834784
H       24.96459579      51.04134369       2.39826369
H       24.83882332      46.80749512       6.45228577
H       22.65972900      50.37449646       2.85285234
H       26.37425613      48.29827499       5.35710907
H       21.05291176      48.99697495       4.12777376
H       20.65535355      47.19586182       5.76126814
H       26.83106613      50.05660248       3.62696195
C       11.32187843      34.12717438      24.34770584
C        9.17735100      32.60321045      20.07684326
C       11.81817436      33.62825394      23.18728065
C        8.70044804      33.12796021      21.24191475
C       10.94256401      33.22180176      22.15982056
C        9.54846478      33.40512848      22.32495880
C       11.42414570      32.67813492      20.94084740
C        9.06290627      33.88094330      23.56208229
C        9.92831898      34.21723175      24.55470276
C       10.56407070      32.34739685      19.94305229
H       11.98584843      34.52212143      25.09402275
H        8.52618313      32.35260773      19.27336884
H       12.88703728      33.59770584      23.02560997
H        7.63635969      33.27301025      21.36872482
H       12.48246956      32.57760620      20.82199287
H        7.99885750      33.99343872      23.71091461
H        9.56920528      34.59921646      25.49535942
H       10.96430302      31.91760445      19.01342392
C        4.70903301      51.26753998      23.50823402
C        9.24427414      49.92011642      21.82635307
C        5.12180233      50.34545898      22.59125519
C        8.81800556      50.82876205      22.74416924
C        6.51470423      50.13933945      22.37307739
C        7.44368124      50.92278671      23.08560371
C        6.98387003      49.18234253      21.44556427
C        6.97868395      51.77710724      24.12310791
C        5.64547491      51.92425156      24.33319855
C        8.31697941      49.07020569      21.18250084
H        3.64467382      51.44664001      23.65289307
H       10.30082703      49.82168579      21.59572411
H        4.41808987      49.80594254      21.98961067
H        9.53239822      51.46609116      23.25793076
H        6.27301788      48.51822281      20.97935104
H        7.70374966      52.33839416      24.71847153
H        5.28363228      52.57540131      25.12010574
H        8.67788410      48.30101776      20.52645874
C       19.86158943      48.41201019      19.89654922
C       19.10090446      46.20382309      24.34428978
C       19.15515900      47.32132339      20.29923821
C       19.82249451      47.28476334      23.96555138
C       19.14174271      46.92760468      21.65754127
C       19.85683632      47.69147873      22.60131264
C       18.39533806      45.80546188      22.08480072
C       20.56702232      48.83625793      22.16542435
C       20.57729149      49.17618561      20.84995842
C       18.37960815      45.44541168      23.39132881
H       19.86471748      48.69755936      18.86136818
H       19.02398682      45.97398376      25.38780403
H       18.55274773      46.74079895      19.61569405
H       20.34977722      47.88639069      24.71225739
H       17.85775185      45.23520660      21.35984230
H       21.12631226      49.43183136      22.89306068
H       21.13449669      50.03693771      20.49818611
H       17.78981781      44.58486176      23.69268990
C       12.87220764      52.91061401      25.11056328
C       17.60159874      53.18191528      23.40372467
C       13.49462414      52.96026230      23.77739143
C       17.04791641      53.13765335      24.62966537
C       14.82793713      52.81678772      23.59700775
C       15.65795422      52.75688171      24.79387093
C       15.48893833      52.74831009      22.30297089
C       15.11615562      52.43337250      25.98692322
C       13.66873169      52.10780716      26.11363983
C       16.82223511      52.86872101      22.23396873
H       11.86362553      52.49569702      24.98531532
H       18.66282082      53.40776825      23.28992653
H       12.86079311      53.16487885      22.91433716
H       17.60711479      53.34346771      25.50281334
H       14.88475800      52.63517761      21.41939735
H       15.74430466      52.42702866      26.87231255
H       13.36824226      52.42118454      27.10684967
H       17.32164192      52.79775620      21.28157616
C       28.83143044      51.80477142       1.72909677
C       29.26091766      46.87716675       0.73573893
C       27.92241478      50.80866623       1.51486194
C       30.15071106      47.91147232       0.83265388
C       28.34387970      49.49090958       1.22793257
C       29.72585678      49.23154449       1.09504616
C       27.43750954      48.40977097       1.09699261
C       30.64409447      50.28856277       1.28975773
C       30.21523285      51.53593063       1.63025439
C       27.87960052      47.14492035       0.82070142
H       28.48707199      52.80426788       1.94904196
H       29.60218811      45.87086487       0.60872293
H       26.86218071      51.02494812       1.52775025
H       31.20292282      47.72377777       0.77580208
H       26.38463974      48.59652328       1.23145068
H       31.71065521      50.09890366       1.18524599
H       30.92198372      52.31277084       1.79423666
H       27.16840935      46.34088898       0.71372402
C       -1.14459348      34.92642593       5.70396996
C       -1.92653322      39.06343842       8.45542240
C       -1.45368791      36.21865082       5.38732147
C       -1.65297592      37.76825714       8.77785969
C       -1.53808928      37.20734024       6.39835691
C       -1.43090916      36.81423569       7.75733185
C       -1.75688314      38.57437515       6.09743404
C       -1.11392248      35.47119522       8.03993702
C       -0.93492401      34.55516434       7.05049515
C       -1.93417215      39.47281647       7.10469580
H       -1.03256321      34.19579697       4.92083693
H       -2.13836074      39.77045059       9.22676849
H       -1.61586368      36.52442932       4.35023546
H       -1.65199494      37.44427490       9.81675148
H       -1.77854276      38.87779236       5.04225063
H       -0.99940240      35.17246246       9.08446980
H       -0.62750548      33.54252243       7.29031992
H       -2.13845849      40.52818680       6.86524010
C        3.88039565      52.60823441      13.40206146
C        2.97976828      56.48316574      10.36182785
C        3.47587729      53.89456558      13.63914299
C        3.62334228      55.29835510      10.20504856
C        3.37420702      54.80505371      12.56805134
C        3.81511688      54.42326355      11.29468632
C        2.68152523      56.02716064      12.70590878
C        4.26752710      53.09962845      11.08467770
C        4.26269102      52.19844818      12.10231400
C        2.48070288      56.84497452      11.62811470
H        3.86142874      51.89536667      14.19873905
H        2.79841709      57.13206863       9.50772095
H        3.10272050      54.18488312      14.61450291
H        3.93719482      54.94292450       9.22058010
H        2.25764680      56.25450134      13.67152023
H        4.55122995      52.81866455      10.07938290
H        4.51720953      51.16265488      11.90844440
H        1.93100417      57.78097916      11.75835991
C       10.90749741      57.68905640      12.63185883
C       10.68574810      58.48941422      17.58915710
C       11.49512005      57.08327484      13.70715332
C       10.00193310       0.07744423      16.53529739
C       11.20091057      57.51174545      15.02029705
C       10.28142071      58.56622696      15.21251011
C       11.86720371      56.96290970      16.13810730
C        9.69074821       0.24230537      14.08725643
C        9.99743462      58.75038910      12.81907940
C       11.65421677      57.47689056      17.38414383
H       11.16181374      57.34813309      11.63058758
H       10.48261833      58.83770370      18.59669876
H       12.21081543      56.30724716      13.58466530
H        9.25481224       0.85965204      16.69306374
H       12.57322502      56.18251801      15.97381210
H        9.00950241       1.06454527      14.24722195
H        9.52765751       0.30981949      11.98171520
H       12.22472000      57.11156082      18.22171021
C       -5.81141996      55.98371887      25.17129707
C       -9.48020840      52.87567520      26.59895897
C       -5.82477474      54.81612396      25.86336327
C       -9.46738529      54.02597427      25.87003899
C       -7.04741001      54.14033127      26.08270264
C       -8.25261116      54.70711517      25.60550880
C       -7.08740187      52.91648865      26.79001808
C       -8.19688034      55.92348480      24.87932777
C       -6.99944353      56.53483582      24.66615486
C       -8.27343750      52.30355835      27.05334854
H       -4.87940931      56.50396347      24.98296165
H      -10.40574551      52.36047363      26.76914215
H       -4.89944649      54.36284637      26.22920418
H      -10.38087845      54.45241547      25.47254181
H       -6.14634562      52.47111511      27.08395576
H       -9.11316109      56.34355545      24.48608971
H       -6.92347908      57.44515228      24.06943893
H       -8.28239059      51.33531570      27.56406593
C        2.60463333      44.03907776      27.59212494
C        6.99288654      41.71173096      28.16441536
C        3.87408352      44.48157120      27.80916405
C        5.73031473      41.27176666      27.88813210
C        4.95418644      43.57341766      27.82255745
C        4.68471003      42.19108582      27.66759300
C        6.28376055      43.99886322      28.06028938
C        3.37917137      41.78504562      27.32207489
C        2.35999203      42.69063568      27.27818298
C        7.27606964      43.08855057      28.24212837
H        1.77733517      44.72602081      27.69406319
H        7.78343010      40.98206329      28.24611473
H        4.05376244      45.54494095      28.08117485
H        5.51159811      40.21347427      27.81473351
H        6.49170160      45.06389999      28.12882233
H        3.16747546      40.73577118      27.13661575
H        1.34522092      42.35879517      27.09437942
H        8.28834820      43.40784454      28.44566917
C       14.65421295      40.64090729       8.56119537
C       18.85799408      40.73429489      11.27931213
C       15.47269249      39.68115234       9.03294086
C       17.97319794      41.69732666      10.90203571
C       16.60742760      40.03049469       9.80367756
C       16.85437775      41.39366150      10.10854340
C       17.54444313      39.06013107      10.18974876
C       15.97167778      42.37418747       9.59020042
C       14.89262581      41.99980927       8.85132885
C       18.66620255      39.40071487      10.86415672
H       13.86611366      40.37057114       7.87222958
H       19.73063278      40.99029541      11.86946106
H       15.30623150      38.63019943       8.80584145
H       18.12588120      42.72352219      11.18601704
H       17.33808327      38.04251862       9.91655254
H       16.20161057      43.40266800       9.77552414
H       14.20941067      42.75909424       8.47005177
H       19.37931061      38.63327026      11.10077477
C       22.72838593      28.72110558      14.62312889
C       21.44545364      31.73642540      18.44128799
C       22.29595566      28.48954391      15.89306164
C       21.77156830      31.97332954      17.13803291
C       21.95820236      29.56185532      16.75127983
C       22.06918716      30.88621712      16.26965904
C       21.55738449      29.35674286      18.09379959
C       22.53312492      31.09827042      14.94624901
C       22.85769844      30.04428673      14.13853073
C       21.32866859      30.42114639      18.92379189
H       22.97916985      27.88677788      13.98200989
H       21.24776077      32.57532501      19.11166191
H       22.18077469      27.47207260      16.25722694
H       21.84536171      32.99172592      16.74734116
H       21.44075775      28.34583282      18.45802116
H       22.64831924      32.12627029      14.57597923
H       23.22614861      30.22437286      13.12500191
H       21.04076386      30.25892067      19.96145439
C        0.44943589      38.27795410       0.95430696
C        1.97990859      34.04256821       3.21438837
C        0.94507790      37.09577560       0.49750987
C        1.42500103      35.19876862       3.67191935
C        1.27259147      36.04686356       1.38449609
C        1.05376244      36.23748779       2.77112770
C        1.85508990      34.83340454       0.93384981
C        0.55577224      37.47658157       3.22618532
C        0.26602083      38.47848129       2.34134102
C        2.20143127      33.85878372       1.82347023
H        0.19526483      39.07222366       0.24646743
H        2.24254084      33.26214981       3.91156363
H      -17.68845558      36.94185638      27.96213150
H        1.27699864      35.37282181       4.73020029
H      -16.75278282      34.71479416      28.39167595
H        0.44324571      37.63335037       4.28367949
H       -0.10089777      39.44446182       2.73624682
H        2.65299010      32.95510101       1.47300518
C        5.60276031      54.26831436       7.28925610
C        0.91754860      55.02291870       5.68984270
C        4.67686367      53.46916962       6.69496918
C        1.84770262      55.84284592       6.24454165
C        3.40598822      53.97445679       6.35064459
C        3.12498689      55.33400726       6.60816336
C        2.41476297      53.15491486       5.76829100
C        4.12782097      56.15840149       7.16973782
C        5.34097624      55.62372208       7.51966333
C        1.19269300      53.66902924       5.45624018
H        6.56314564      53.84630203       7.60413170
H       -0.04747341      55.41427612       5.42674828
H        4.88918447      52.44779968       6.46948242
H        1.62501156      56.90764999       6.41268063
H        2.62658358      52.12052155       5.59135628
H        3.90980196      57.18676376       7.35567713
H        6.08403683      56.24689484       8.02408218
H        0.42487785      53.04624176       5.02739573
C       10.80538559      47.22341156       3.55945230
C       15.40527821      48.98192596       4.58185816
C       11.49835205      48.33419037       3.16141295
C       14.70246983      47.90151596       5.02560568
C       12.80618191      48.57667541       3.64828253
C       13.38639832      47.65673447       4.56790447
C       13.54561424      49.70318604       3.23000574
C       12.62901211      46.52643585       4.95909214
C       11.36498833      46.31569290       4.48197174
C       14.82416153      49.89886093       3.67819095
H        9.84053707      47.01822281       3.15616560
H       16.44288063      49.14399719       4.92202854
H       11.06705093      49.03583527       2.47318149
H       15.14743710      47.19411087       5.71286201
H       13.10115433      50.38206482       2.52033949
H       13.06856346      45.80909729       5.64446402
H       10.79455566      45.42646790       4.78678989
H       15.37258816      50.75597000       3.34324813
C       18.11016083      57.49110031      11.79692745
C       17.98554039      57.41510010      16.80990219
C       18.16132736      58.47021484      12.74534225
C       17.96189308      56.44121552      15.85472584
C       18.03331375      58.14334106      14.12393856
C       17.97778130      56.77734756      14.49087524
C       17.99940491       0.20008902      15.12817669
C       17.90614700      55.78643417      13.48629665
C       17.92007637      56.14649582      12.17073822
C       17.96713066      58.77306366      16.44684601
H       18.21896553      57.71082306      10.72866631
H       18.04037285      57.11906433      17.82882500
H       18.29694366       0.57484794      12.48203659
H       17.97594452      55.40354156      16.14052010
H       18.03484535       1.23827446      14.86292458
H       17.79553413      54.74081039      13.78557014
H       17.76819420      55.38192368      11.40176201
H       17.98167038       0.61238295      17.19610977
C       -7.04832172      55.38212585      17.56421661
C      -11.37143993      56.18452835      19.98840332
C       -7.55475903      54.92372131      18.73685265
C      -10.93343925      56.48998642      18.73440933
C       -8.84004402      55.32872009      19.16663361
C       -9.64551830      56.08987045      18.29512596
C       -9.28972816      55.10131073      20.48258209
C       -9.11236763      56.49718857      17.04515457
C       -7.82457781      56.19487381      16.71334076
C      -10.52845097      55.50317001      20.88771820
H       -6.00535536      55.15438843      17.29939079
H      -12.36052990      56.48717117      20.31872749
H       -6.94918966      54.31628418      19.37451553
H      -11.54270267      57.07767487      18.07875633
H       -8.62489033      54.60765457      21.20192146
H       -9.74062920      57.06694412      16.39453125
H       -7.38963985      56.57510376      15.77646255
H      -10.86618519      55.30615234      21.89530945
C       -2.54889584      38.77736282      22.95227814
C       -1.24026620      34.28870773      21.08414078
C       -1.72770083      38.38044357      21.94038391
C       -2.13423634      34.67925644      22.04016876
C       -1.60209799      37.01477051      21.60876083
C       -2.32152891      36.04887009      22.34942818
C       -0.70646530      36.58015442      20.60946846
C       -3.23123002      36.49493790      23.34107399
C       -3.34044838      37.82621002      23.62398148
C       -0.50693929      35.25658417      20.36800957
H       -2.59398317      39.80833054      23.26819992
H       -1.10968423      33.24107361      20.86537361
H       -1.12567461      39.09982681      21.41473198
H       -2.74826503      33.94691467      22.56703949
H       -0.14773804      37.34486389      20.04754066
H       -3.84582210      35.76615143      23.84986496
H       -4.05638933      38.16555405      24.35594749
H        0.22771120      34.93291855      19.60435486
C        6.72175598      47.35337830      13.31345367
C       11.22778606      47.65944290      15.46798706
C        7.99464226      47.31248474      12.84357929
C        9.98553181      47.41516876      15.97723198
C        9.08794022      47.45483398      13.71522045
C        8.86449242      47.41973877      15.10383034
C       10.38946342      47.71356964      13.22304440
C        7.52612209      47.44506073      15.56948853
C        6.49218893      47.47397614      14.69142818
C       11.41902924      47.88668442      14.08963203
H        5.90919209      47.32538605      12.61486721
H       12.09867382      47.68358994      16.12053299
H        8.19683456      47.23115158      11.78059864
H        9.82744598      47.26864624      17.03628159
H       10.52576160      47.81069946      12.16002750
H        7.35082722      47.52092361      16.64279556
H        5.48313379      47.57198334      15.06972027
H       12.39305973      48.12427902      13.71623707
C      -13.42186546      45.29038620      24.01529503
C       -8.86618137      44.15775681      22.21419716
C      -12.71162891      44.12539291      23.90681267
C       -9.59900856      45.31092834      22.22687149
C      -11.46708870      44.11336517      23.23862457
C      -10.91761303      45.31324005      22.74983215
C      -10.71885014      42.91445160      23.11469269
C      -11.68023682      46.49535751      22.86473846
C      -12.91030216      46.48411560      23.46826935
C       -9.44238186      42.93785477      22.63633537
H      -14.38216400      45.29299164      24.49742889
H       -7.84541559      44.16522980      21.82703400
H      -13.10973930      43.19798279      24.28188324
H       -9.16508770      46.25729752      21.88366699
H      -11.18589211      41.99534225      23.40315437
H      -11.23699093      47.41853714      22.53758240
H      -13.47762966      47.39618301      23.57411194
H       -8.88102531      41.99940109      22.54396820
C       29.20815659      42.83373261       8.71998024
C       29.23015404      40.47974777      13.15595531
C       28.84892082      43.22197723       9.98371506
C       29.45053673      40.06848526      11.87712860
C       28.87923241      42.28277588      11.04974842
C       29.28943253      40.96287155      10.78775501
C       28.59428787      42.66557312      12.38062572
C       29.56027794      40.58025360       9.45184898
C       29.53826332      41.49494934       8.43882370
C       28.79359055      41.79333115      13.41824245
H       29.23708153      43.55574799       7.93296194
H       29.38214493      39.79395676      13.97523689
H       28.57767487      44.25332260      10.17918015
H       29.72357750      39.04566574      11.69205570
H       28.25147438      43.67860794      12.60188103
H       29.77355385      39.52058029       9.25211143
H       29.73674774      41.21132278       7.41739321
H       28.59613228      42.09967041      14.43494701
C       33.58596420      44.33835220       4.68464947
C       28.66259193      43.76938629       5.32767296
C       32.64016342      45.11438751       5.28056383
C       29.64593124      42.92092514       4.92230558
C       31.31422043      44.62231064       5.43245554
C       30.99748611      43.32986450       4.95295906
C       30.28405380      45.41953659       5.95967913
C       32.03553009      42.50669098       4.46188593
C       33.28962326      43.01025009       4.31355047
C       28.98692703      45.01863098       5.88676739
H       34.56218719      44.75463486       4.47508287
H       27.62375259      43.49301147       5.22108173
H       32.85314178      46.14500046       5.60024548
H       29.41730118      41.93852234       4.52374315
H       30.56153297      46.39945602       6.34514713
H       31.82080078      41.49074554       4.17682505
H       34.06347656      42.40007019       3.87084675
H       28.18767929      45.67547607       6.22896767
C       18.39649582      53.58420563       4.27034760
C       15.50320244      55.52336502       7.88813782
C       18.52220154      54.67262268       5.08826208
C       15.48309803      54.33750534       7.21393061
C       17.52699852      54.96660995       6.05078888
C       16.45750427      54.06369781       6.22636509
C       17.55112076      56.16027832       6.81163645
C       16.33868790      52.94570160       5.36402464
C       17.26415825      52.74340439       4.38291454
C       16.54062271      56.44994736       7.68761158
H       19.14274979      53.39049149       3.50202489
H       14.68502426      55.75970078       8.56370735
H       19.37715721      55.35749817       4.95950270
H       14.69806004      53.64059448       7.39017820
H       18.36651421      56.84043884       6.65557384
H       15.51205921      52.27151489       5.49181509
H       17.15008545      51.93696594       3.70351410
H       16.51515388      57.38881302       8.23409081
C        2.21125245      30.98678970      24.04804039
C       -0.59685647      30.40795708      19.91932678
C        2.51107860      30.76157570      22.73369026
C       -0.88693702      30.76614952      21.19752502
C        1.49348867      30.66308594      21.76504517
C        0.14712256      30.84578133      22.17112732
C        1.75955546      30.31235313      20.40239334
C       -0.13564783      31.06271553      23.53437996
C        0.86047286      31.10972786      24.45858002
C        0.73099995      30.16242599      19.52016830
H        2.99952078      31.05245590      24.79647255
H       -1.40139687      30.29951096      19.20646667
H        3.53640437      30.65897751      22.40472031
H       -1.90841663      30.98017883      21.49281883
H        2.78161097      30.12860680      20.11674500
H       -1.18569601      31.13997841      23.85569954
H        0.63758826      31.24893570      25.51829338
H        0.90186995      29.83572197      18.48921776
C       10.69305229      46.10517120      25.93900681
C       12.39539719      41.77210236      27.65968895
C       11.75909424      45.78756714      26.91750526
C       11.24973965      42.12685776      27.08011055
C       11.99129581      44.49345779      27.12984657
C       11.08856487      43.48483658      26.44293976
C       13.24240017      44.03253937      27.67007446
C        9.67045784      43.96641541      26.42379761
C        9.47189808      45.25277710      26.18265533
C       13.47772217      42.72775650      27.85071373
H       10.42623234      47.14318085      25.92707252
H       12.55694485      40.78466415      28.03304672
H       12.43273830      46.55292511      27.26946449
H       10.41252136      41.43850708      27.00234413
H       13.97979259      44.78934860      27.89134216
H        8.87874985      43.22289276      26.42802620
H        8.49932003      45.65517807      26.01269341
H       14.42958260      42.39191818      28.23674965
C       17.76140022       0.01149495       4.23753595
C       18.20248985      55.00675583       1.16461146
C       17.06839943      57.78121948       4.10108519
C       18.91857910      56.15079498       1.32392657
C       17.38705635      56.88026047       3.06503582
C       18.51882362      57.13502502       2.25935102
C       16.60757446      55.73503494       2.81137013
C       19.20156860      58.37504196       2.39627719
C       18.80439377       0.33483505       3.33665657
C       16.99144554      54.82830048       1.87139285
H       17.48730850       0.70775133       5.01400232
H       18.55437469      54.25641251       0.46990564
H       16.22373581      57.54262161       4.75700760
H       19.79727554      56.34452820       0.71028495
H       15.71589279      55.58388138       3.41494822
H       20.00687599      58.62451172       1.70852065
H       19.27931023       1.28968036       3.41171932
H       16.38939095      53.94071579       1.72053015
C       26.27333450      45.56076431      11.46612358
C       21.84462929      47.18801880       9.72906590
C       25.59278870      46.72858047      11.61717415
C       22.49113846      45.99454117       9.70710373
C       24.29259300      46.88144684      11.07476330
C       23.73045921      45.80681229      10.35147762
C       23.55557632      48.09511185      11.16090202
C       24.44645500      44.58190536      10.23036003
C       25.69076920      44.47145081      10.77875996
C       22.36745071      48.23872375      10.50550175
H       27.27729416      45.46343231      11.86690331
H       20.93862915      47.32405472       9.16883469
H       26.08748436      47.55297470      12.14478779
H       22.08231544      45.16550446       9.15793324
H       23.92876053      48.90821075      11.76256561
H       23.97167206      43.77027512       9.67927837
H       26.23230171      43.54246521      10.69190884
H       21.82242203      49.17204285      10.55131912
C       25.34123230      45.24832535      15.08339214
C       25.95439529      40.29386139      14.39399338
C       24.98313904      44.39068222      14.08622551
C       26.37987709      41.17281723      15.34657001
C       25.33647156      43.02228546      14.13074207
C       26.08878326      42.55599594      15.23466206
C       24.92685699      42.09370804      13.14886284
C       26.47081757      43.46664047      16.25121880
C       26.07115364      44.77225494      16.18770790
C       25.22056961      40.76639557      13.27665615
H       25.04026031      46.29822540      15.03926373
H       26.16249466      39.24102020      14.51037788
H       24.39445877      44.74096298      13.23840427
H       26.93051720      40.82834244      16.20718956
H       24.33453369      42.45216751      12.31308937
H       27.05272484      43.08737564      17.09723091
H       26.28683662      45.43663025      17.00321198
H       24.84849358      40.03519440      12.56161213
C        4.59005833      49.26043701       3.74074745
C        3.82533622      44.45432281       2.45902348
C        3.47920299      48.49218750       3.60093904
C        4.94582319      45.22825241       2.57126617
C        3.57596540      47.13529587       3.22236514
C        4.85218859      46.58140945       2.96785021
C        2.43198943      46.29716492       3.13315034
C        5.98632288      47.40922546       3.10635090
C        5.86075830      48.72080231       3.45063972
C        2.55979729      44.98780060       2.78074670
H        4.51994467      50.29521561       4.05907631
H        3.90403867      43.39698410       2.16663671
H        2.48943615      48.92171860       3.82546759
H        5.92500973      44.79904938       2.35900140
H        1.47368503      46.70648575       3.34743142
H        6.95480728      46.97520447       2.94215393
H        6.72910690      49.36352539       3.50616026
H        1.68548429      44.35087967       2.71372294
C       11.17797279      47.41963959       7.93982458
C        7.29073715      49.09151459      10.60776901
C        9.86762810      47.07542419       7.96176624
C        8.63209915      49.31449890      10.67752743
C        8.99287891      47.66445541       8.91728306
C        9.51360321      48.61326981       9.82244015
C        7.60018635      47.40303040       8.91293144
C       10.90288830      48.89072800       9.81970882
C       11.71830559      48.31461334       8.89097881
C        6.76965761      48.10724640       9.74357796
H       11.81834888      47.02600861       7.16323328
H        6.60895348      49.63130188      11.26218128
H        9.47100735      46.41666794       7.20556021
H        9.04471874      50.05014038      11.37464523
H        7.17018175      46.69755554       8.21549034
H       11.30059052      49.56541824      10.56290531
H       12.78350449      48.54448318       8.86296082
H        5.70329618      47.97264099       9.70019531
C      -10.75753880      56.54646301      27.84937859
C        8.79756546      58.63884354       3.83245802
C       -9.69602108      57.18676376      28.41450500
C        7.81591654      57.84382248       3.33179736
C        9.04704094      57.62926102       1.23645937
C        7.90114641      57.32883453       2.00592446
C       10.04779339      58.45811462       1.79138923
C        6.81065321      56.65648270       1.38984966
C        6.88515520      56.27725983       0.07910363
C        9.92800713       0.03727220       3.04643297
H      -10.73585796      56.25022888      26.80293465
H        8.72310448       0.12401459       4.81382036
H       -8.82381439      57.42531586      27.80989456
H        6.94289255      57.64336014       3.90484691
H       10.89360523      58.73025131       1.14767861
H        5.90455389      56.48389435       1.93239760
H      -12.75452995      55.79961777      28.13161469
H       10.68494701       0.70664442       3.44509339
C        8.81488228      48.96855164       0.53396630
C      -14.53315258      49.62672806      27.05928993
C      -10.58643818      50.01469421      28.42009926
C      -13.88535786      48.53051758      27.53587151
C      -11.90654373      49.89554596      27.94342422
C      -12.56446171      48.65237427      28.03609848
C      -12.60924053      51.00644302      27.41844368
C        6.87717009      47.59004593       0.17776774
C        8.11902809      47.76850510       0.71972960
C      -13.89380836      50.89359283      27.01473618
H        9.81009293      49.06931305       0.92677671
H      -15.56830502      49.53207779      26.73337173
H      -10.09352875      50.97012711      28.32085609
H      -14.37437630      47.55574036      27.57739258
H      -12.13169479      51.97498322      27.43554688
H        6.32799864      46.66372299       0.31632277
H        8.58532429      46.98433304       1.30774546
H      -14.44409657      51.77955627      26.72291374
C        3.45438743      34.74974823      13.06751251
C        3.82945490      33.65553284      17.97186089
C        3.15912938      35.41972733      14.21802235
C        4.24986172      33.02084732      16.84940147
C        3.42861176      34.85770798      15.48449039
C        4.01710939      33.59133911      15.57345581
C        3.08364940      35.54946136      16.66933441
C        4.28536797      32.90063095      14.36313248
C        3.99460793      33.45239639      13.15309906
C        3.21755433      34.92494583      17.87265396
H        3.29116845      35.21338654      12.09618092
H        3.93675351      33.19434738      18.94495010
H        2.72789884      36.41774368      14.17269135
H        4.73519325      32.05627441      16.93779182
H        2.67085147      36.56204605      16.61198807
H        4.69992447      31.91959572      14.39668083
H        4.17259359      32.89196014      12.24890423
H        2.87831783      35.41478729      18.74796486
C        7.48317194      33.84603500       5.34284544
C        7.73690748      33.49291992       0.32489187
C        7.99656773      32.91752625       4.48587990
C        7.32597303      34.48147583       1.17993200
C        7.89720488      33.07739258       3.08309913
C        7.35589027      34.28291702       2.58141756
C        8.26903820      32.05471802       2.18173003
C        6.86331511      35.25416946       3.48907614
C        6.90120792      35.03010178       4.84263229
C        8.18646240      32.24552536       0.82959908
H        7.49296236      33.65442276       6.41657400
H      -11.08299923      33.65618515      27.80074120
H        8.47280598      32.01880264       4.87176514
H        6.97634554      35.42966080       0.78526241
H        8.60153961      31.09802055       2.57574606
H        6.42484426      36.15491867       3.11800909
H        6.48629522      35.74325562       5.53928947
H        8.44524956      31.44932175       0.16059694
C       21.04050446      47.63928223      27.94773293
C        0.14805377      42.67755890       0.26662281
C       20.08761406      46.67009735      27.90599251
C        1.13641858      43.62558746       0.16753389
C       20.42470741      45.32089233      28.18083572
C      -17.98828697      44.96912384      28.39420319
C       19.43543625      44.30929565      28.24853516
C      -17.00592232      45.98705292      28.33125305
C      -17.36264610      47.29826736      28.15332413
C       38.56360626      43.01950455       0.03708566
H       20.75817871      48.68958282      27.81919861
H        0.40294784      41.65620422       0.47357634
H       19.05244064      46.93117905      27.71434402
H        2.16335154      43.34698105       0.29794699
H       18.39044762      44.57900238      28.03322983
H      -15.95328426      45.71372604      28.48511887
H      -16.60430527      48.07587814      28.18285561
H       37.80108261      42.23874664       0.02273713
C       -4.45367813      42.18754578      11.05555725
C       -5.64704180      38.18479919      13.82929707
C       -4.86782217      42.04212570      12.34366703
C       -4.88103485      38.34584808      12.71877670
C       -5.12318468      40.76055527      12.87895203
C       -4.72252989      39.62844467      12.13403988
C       -5.87802267      40.57413483      14.05456829
C       -4.27344608      39.79614639      10.81750202
C       -4.23238277      41.04051590      10.26308632
C       -6.21502256      39.30904007      14.45412827
H       -4.37888241      43.18139267      10.62193394
H       -5.82210350      37.17966080      14.22418880
H       -5.10386753      42.89377975      12.94033909
H       -4.41164255      37.48680496      12.22164917
H       -6.22561598      41.43299484      14.58636951
H       -4.04503298      38.92679596      10.21541500
H       -4.04079962      41.14580536       9.19119453
H       -6.89242506      39.16120148      15.27831936
C        8.57924175      35.65662766      15.25795078
C        4.67855263      37.99355316      13.11084175
C        8.33169937      36.11057663      13.99558640
C        4.94174051      37.58553314      14.38633156
C        7.09645844      36.72507858      13.68178272
C        6.12080956      36.86334229      14.69133663
C        6.82493448      37.24863815      12.40089035
C        6.39674520      36.38168716      15.99934101
C        7.59983063      35.80238724      16.26720047
C        5.61877584      37.79652023      12.08882523
H        9.53999710      35.21085739      15.49249172
H        3.72825384      38.48718643      12.88386059
H        9.08188438      36.01963043      13.21085262
H        4.21213007      37.77121735      15.18295383
H        7.63459587      37.26521683      11.69315815
H        5.64267635      36.49917984      16.77987289
H        7.81332827      35.45759583      17.25680733
H        5.41706657      38.16705322      11.08656406
C       32.70874023      40.92784882       7.47936773
C       31.83327866      43.66374969      11.55393887
C       32.70626450      42.26540756       7.70503998
C       32.02296066      42.33054352      11.36085892
C       32.51744080      42.75849915       9.01515961
C       32.36886215      41.83623505      10.07826424
C       32.36538315      44.14526367       9.25287342
C       32.50061798      40.45895767       9.81991100
C       32.64847183      40.01157379       8.53938961
C       32.00803757      44.58866119      10.49197674
H       32.76379776      40.59344482       6.45613718
H       31.50206184      44.01767349      12.52785301
H       32.81058884      42.95281982       6.87542295
H       -7.88141632      41.59291458      12.14994907
H       32.47536850      44.82924652       8.43305016
H       32.44530106      39.75541687      10.64240742
H       32.69837189      38.95026398       8.32890034
H       31.83212280      45.63133621      10.65727139
C       -5.17032051      29.68971634      23.97003937
C       -4.93250418      34.15327835      26.23263741
C       -4.23416424      30.67032242      24.01529121
C       -5.89443350      33.19125748      26.14819336
C       -4.45293427      31.86419487      24.73221588
C       -5.69625378      32.03313828      25.37998772
C       -3.45258427      32.86148453      24.86841202
C       -6.68629885      31.02350426      25.27125359
C       -6.41658878      29.86774635      24.60171127
C       -3.69260001      33.98468781      25.59079552
H       -4.93171644      28.77164078      23.46864510
H       -5.09700918      35.00892639      26.85009766
H       -3.27365828      30.52548790      23.51976585
H       -6.81471682      33.28957748      26.70951653
H       -2.49120831      32.72058105      24.38051033
H       -7.64775085      31.18584251      25.74388504
H       -7.17604399      29.07669830      24.55060959
H       -2.91236091      34.74885941      25.71206284
C       -6.60196829      54.04540253      14.55083656
C       33.09883499      53.71610260       9.55457115
C       -7.16463041      54.80555725      13.57367134
C       -6.04461336      52.98422241      10.53217888
C       -6.99285460      54.46103287      12.21786022
C       -6.21250534      53.33261871      11.88801193
C       32.18200684      55.22593308      11.17573071
C       -5.65608311      52.55366516      12.93244362
C       -5.85371113      52.89073563      14.23050308
C       32.33595657      54.85611725       9.87607002
H       -6.79332209      54.26364136      15.58684540
H       33.15297317      53.39629364       8.53668308
H       -7.77120638      55.66897202      13.81218624
H       -5.49061680      52.07487106      10.28594208
H       31.58087921      56.08711624      11.45433426
H       -5.11609745      51.63194656      12.67599297
H       -5.46710157      52.26391220      15.02824306
H       31.85241508      55.43101883       9.07364273
C      -15.11624908      38.67649460      26.22356224
C      -10.80018330      39.56961441      23.79949760
C      -14.57194805      38.19606781      25.05680466
C      -11.37917900      40.10202408      24.91226768
C      -13.33444786      38.69479370      24.57755089
C      -12.66106415      39.67937088      25.33542252
C      -12.72629547      38.19491196      23.39837456
C      -13.27148342      40.20285416      26.49948692
C      -14.46872997      39.70698166      26.94859695
C      -11.48304939      38.60557938      23.01721954
H      -16.06289101      38.25889969      26.61846352
H       -9.81775093      39.88307953      23.50226212
H      -15.06656933      37.40932083      24.50088501
H      -10.84732246      40.86754990      25.49016380
H      -13.28337574      37.43756104      22.81643486
H      -12.76094818      40.99357986      27.04785728
H      -14.89611912      40.07937241      27.84976959
H      -11.00225449      38.19294357      22.15362549
C       24.57683754      41.58819580      22.82466698
C      -12.61147404      44.24124527      19.41927910
C       24.58586884      42.90109253      22.47138786
C      -12.69988155      42.90913391      19.69130135
C       25.43042755      43.35451508      21.43187714
C      -13.52358818      42.43283463      20.73347092
C       25.52437592      44.72586441      21.11072350
C      -13.56101608      41.07435608      21.11596107
C      -14.37304020      40.66872406      22.13441467
C       26.38327026      45.16847992      20.14436722
H       23.92692375      41.24599838      23.62132454
H      -11.93633461      44.58380127      18.65360260
H       23.97483253      43.62345505      22.98283196
H      -12.12922287      42.18526077      19.10932732
H       24.94667625      45.42490387      21.68812752
H      -12.94794941      40.37210846      20.60253716
H      -14.37838078      39.63021088      22.42046547
H       26.44554710      46.22229004      19.95482254
C        5.26116419      42.56902695      23.11134529
C        9.16161060      39.40462494      23.79935455
C        5.93134928      41.69279861      22.28267670
C        8.27751255      40.09167480      24.77137375
C        7.02660036      40.94665909      22.76851463
C        7.39719534      41.11876297      24.12457657
C        7.76687336      40.06151962      21.94383430
C        6.76851130      42.07824707      24.89001274
C        5.69671774      42.80117416      24.40152550
C        8.87471008      39.39579391      22.46028328
H        4.38914824      43.08682251      22.76968765
H       10.05182934      38.88953400      24.16452408
H        5.63627052      41.53970718      21.23752403
H        8.88591957      40.54278564      25.59007072
H        7.47187090      39.95708847      20.90652847
H        7.08103466      42.21965408      25.92193604
H        5.18814564      43.51734543      25.03046227
H        9.50777531      38.82399750      21.79484367
C        3.87539005      39.68951035      24.03674698
C        8.05669117      36.95020676      24.66424561
C        4.92690706      39.74404907      24.91747093
C        7.09273148      36.94091797      23.75044632
C        6.01136541      38.88261795      24.80061913
C        5.95607090      37.84381866      23.86928558
C        7.26829147      39.09673691      25.57784081
C        4.84079313      37.73067093      23.05060196
C        3.84278798      38.68327332      23.08119583
C        7.93530846      37.77618408      25.90823746
H        3.09549856      40.43426514      24.08139992
H        8.94993210      36.34035492      24.53663635
H        4.95209312      40.52153015      25.65214729
H        7.14169836      36.31143570      22.84690666
H        7.03104019      39.65279007      26.49144745
H        4.78032160      36.89845657      22.38301277
H        3.03705716      38.61364746      22.36625099
H        8.94465351      37.97302628      26.30560112
C       17.77362251      41.28803253       0.67923230
C       21.85375977      38.37520599       0.74990106
C       19.08203697      41.52075958       0.97921723
C       20.52938461      38.11921310       0.54279411
C       20.00498962      40.44297028       1.02640843
C       19.56984329      39.14336014       0.68914682
C       21.36213303      40.64199829       1.35656798
C       18.18683052      38.92568588       0.47340494
C       17.30793190      39.97292328       0.48785400
C       22.26736641      39.62536621       1.22162044
H       17.04862404      42.10851669       0.60574222
H       22.58271790      37.60360336       0.56952471
H       19.43622971      42.52996445       1.18814921
H       20.21480370      37.12297440       0.23884930
H       21.70059967      41.61406326       1.64333272
H       17.82217216      37.91265488       0.31788862
H       16.25072289      39.78168106       0.35509893
H       23.31595802      39.78918457       1.44601321
C       18.86027527      30.46612740      21.74014664
C       18.42908478      32.35459518      17.12116241
C       18.87442970      31.74470329      21.24556351
C       18.27758598      31.10385895      17.63893127
C       18.56972504      31.98994637      19.88813782
C       18.30580711      30.88834190      19.04002380
C       18.58389282      33.29049301      19.33283615
C       18.18159485      29.60082054      19.60920715
C       18.44290543      29.39305496      20.93497086
C       18.50053978      33.47320557      17.97916985
H       19.13928986      30.29236031      22.76294708
H       18.48820686      32.50057220      16.05223656
H       19.16316223      32.56940460      21.87895393
H       18.19140053      30.24410820      16.98938370
H       18.68681335      34.14361572      20.01277542
H       17.90058708      28.74643898      18.99071884
H       18.35767174      28.39150238      21.33448601
H       18.52347565      34.47506714      17.55496597
C        0.38933113      44.99034119      25.12987518
C       -2.01818705      45.13232422      20.74035072
C       -0.74256378      45.61954498      24.70796013
C       -0.92430627      44.46265411      21.19750214
C       -1.22808933      45.42160797      23.40479851
C       -0.49916846      44.58159637      22.53087044
C       -2.40805483      46.04610825      22.93816185
C        0.64188462      43.89242554      23.01129723
C        1.08313262      44.09096909      24.28850937
C       -2.79952478      45.88831329      21.63578224
H        0.75972164      45.15864182      26.12268448
H       -2.33225417      45.00982666      19.72329330
H       -1.28007257      46.31958389      25.36862755
H       -0.36639676      43.81029129      20.52874565
H       -3.00441432      46.63436127      23.63636398
H        1.13330996      43.22362137      22.32862854
H        1.94672418      43.57509613      24.65550232
H       -3.71222782      46.31852341      21.29275322
C        4.81737566      39.03679657      19.01626396
C        4.40390778      34.52481461      21.20820999
C        3.76182246      38.33245850      19.51507187
C        5.44909382      35.20202255      20.65838814
C        3.96685648      37.06023407      20.10351753
C        5.26753616      36.49603271      20.10087013
C        2.90095258      36.32825851      20.69567299
C        6.34671593      37.26506424      19.60199165
C        6.12601757      38.50883484      19.08461571
C        3.10744190      35.08907318      21.22456932
H        4.66778374      40.01786804      18.55398369
H        4.54770136      33.52509308      21.63914108
H        2.77928877      38.72269058      19.46025467
H        6.43482924      34.76692200      20.65356255
H        1.90468061      36.74048996      20.65682793
H        7.33080006      36.87757111      19.65969658
H        6.96247911      39.10388184      18.71591377
H        2.27129340      34.51961136      21.62133598
C       27.00017357      40.68302536       6.09472036
C       26.99656105      38.58768082      10.67253685
C       27.23298836      39.41161346       6.53424835
C       26.54781723      39.78012466      10.18284321
C       27.17624664      39.10797501       7.92263937
C       26.70922470      40.09561920       8.81316662
C       27.66980362      37.88878632       8.46099091
C       26.49269295      41.39477539       8.32921505
C       26.66921806      41.70122147       7.01376581
C       27.61893463      37.66502762       9.80730724
H       27.11474037      40.90786743       5.03332901
H       26.90414238      38.34173965      11.71819305
H       27.47545433      38.62620544       5.83746958
H       26.12493706      40.53924561      10.83938217
H       28.15443611      37.17083359       7.79419994
H       26.21413803      42.16682434       9.02758980
H       26.53663063      42.70764160       6.71606493
H       28.03619003      36.76634598      10.20985603
C       -4.07062054      35.09954453       7.45296478
C       -5.97540140      35.12623215      12.08874130
C       -4.02405930      34.21973419       8.48804855
C       -5.90705061      36.06047821      11.10913086
C       -4.56600237      34.54158783       9.75842476
C       -5.19467831      35.79496384       9.91236401
C       -4.58999968      33.62154007      10.83140755
C       -5.12607098      36.73812866       8.85762215
C       -4.57816744      36.39183044       7.65841627
C       -5.30709076      33.89117432      11.95328331
H       -3.64714170      34.84007263       6.50911093
H       -6.52113342      35.32804489      12.99994564
H       -3.56962371      33.24810410       8.35408878
H       -6.39960527      37.01041031      11.22299385
H       -4.06931591      32.67303085      10.73004627
H       -5.52070045      37.75428009       9.04050541
H       -4.48986959      37.13074875       6.88076496
H       -5.37536764      33.18659210      12.74029636
C       17.77534103      43.03426361       6.86930704
C       14.02629280      40.33346176       4.95412731
C       17.63040352      41.70119095       6.59132528
C       14.21696568      41.66775894       5.13452673
C       16.41614723      41.22952271       6.05015516
C       15.38195705      42.14371109       5.78698111
C       16.19205856      39.85408020       5.81524038
C       15.54353619      43.49517441       6.13798475
C       16.71597672      43.93755341       6.67239285
C       14.99145317      39.41218567       5.40081692
H       18.73862839      43.39847183       7.19244051
H       13.14531040      39.96266937       4.45322275
H       18.44484520      41.00477219       6.74327803
H       13.48200798      42.39231491       4.79151630
H       16.99450874      39.15732574       5.96243286
H       14.73651791      44.18292999       5.96004963
H       16.84173584      44.98048401       6.89891767
H       14.78550911      38.35559082       5.34379911
C       22.75959969      52.48106766      21.54625130
C       23.02847672      57.44642639      20.73413086
C       21.81368256      53.45453262      21.39774323
C       23.95493889      56.44431686      20.75422287
C       22.19231033      54.79183197      21.13330078
C       23.57219696      55.10247040      20.98232079
C       21.25787926      55.83996582      21.04537964
C       24.52196312      54.05357742      21.06232452
C       24.12807846      52.78555298      21.34693718
C       21.65660477      57.13828659      20.89019394
H       22.46531487      51.46912766      21.78111076
H       23.33330917      58.47899246      20.59942627
H       20.75173950      53.23468018      21.46658134
H       24.99567986      56.67160416      20.60923576
H       20.19924545      55.59531784      21.16098022
H       25.58479500      54.27664948      20.89905167
H       24.84463501      52.00125122      21.40376472
H       20.94503975      57.93946457      20.88256645
C       -0.25290081      32.43133163      17.03187561
C       -0.71800125      28.98086548      13.40771103
C       -1.08073461      31.36848450      16.85036659
C       -0.00614177      30.13662148      13.50071049
C       -0.97448391      30.55552483      15.70041466
C       -0.08171566      30.94240952      14.66655827
C       -1.70595920      29.34857559      15.57371235
C        0.68193698      32.12417603      14.83547878
C        0.63675636      32.82362747      16.01046371
C       -1.55208743      28.56430626      14.46652317
H       -0.28298357      32.99650955      17.96239281
H       -0.63830185      28.34927750      12.52542114
H       -1.83173192      31.11835098      17.56561089
H        0.65304768      30.44698906      12.71943760
H       -2.34902573      29.05335236      16.36460495
H        1.34274042      32.45248795      14.04007339
H        1.28773618      33.69290543      16.16391182
H       -2.08126378      27.61330414      14.41003418
C       30.57486153      30.08428001       3.43308020
C       35.23073578      31.84562111       2.67472529
C       31.58498573      30.45438957       4.27153730
C       34.17382431      31.58162880       1.84913945
C       32.81194305      30.93723106       3.75133014
C       32.94433975      31.11205292       2.36121535
C       33.90470123      31.25057602       4.58694649
C       31.83982086      30.82595825       1.52341223
C       30.70362663      30.27739716       2.04244924
C       35.08798218      31.68661308       4.07684135
H       29.66827583      29.65852165       3.82628369
H       36.15402603      32.19235229       2.24738169
H       31.46769333      30.39892578       5.35905218
H       34.26532745      31.72914696       0.78241289
H       33.76533508      31.16490746       5.65817022
H       31.91279221      31.05372047       0.45497888
H       29.87734795      30.00454712       1.39581931
H       35.92375183      31.95328522       4.72059822
C        4.02149010      45.74078751      20.24170685
C        0.45934090      42.64937210      18.59517097
C        2.80719519      45.96466064      19.64880371
C        1.45931649      42.49078369      19.51157951
C        1.91230047      44.89544296      19.41343689
C        2.23887873      43.60640717      19.90821838
C        0.80458951      45.03749084      18.54329872
C        3.44986916      43.43383026      20.61511421
C        4.34033966      44.45876694      20.73777199
C        0.11645621      43.93794632      18.12513542
H        4.73722935      46.53100204      20.34066200
H       -0.04849796      41.79613876      18.19594192
H        2.55414176      46.94709396      19.26449394
H        1.73962986      41.51062393      19.86132622
H        0.55817813      46.02523041      18.16523933
H        3.69219756      42.44516373      20.97529411
H        5.29102802      44.30221558      21.18808746
H       -0.67255837      44.04615784      17.39664650
C       26.70007706      51.91498566       8.19475842
C       27.34965706      46.94709396       8.35806465
C       27.75082397      51.10529709       7.89459705
C       26.25351715      47.74473953       8.49772263
C       27.61448860      49.69677734       7.97128010
C       26.35576439      49.14751816       8.32421589
C       28.71235085      48.83437729       7.75903320
C       25.26666641      50.01974106       8.56770515
C       25.44347572      51.37195969       8.53138828
C       28.58605766      47.50175476       7.97408009
H       26.79936981      52.99083710       8.17696667
H       27.28895760      45.89441681       8.57285213
H       28.71943092      51.53416824       7.62299824
H       25.30566406      47.30997467       8.78211689
H       29.66500282      49.25906372       7.48551035
H       24.29428482      49.55771255       8.80812073
H       24.63827324      52.03815460       8.77600098
H       29.44688416      46.84447479       7.86239910
C       36.42072296      48.40914536       1.32215548
C       33.28654480      44.49740601       1.76826775
C       36.59230423      47.06421280       1.45240021
C       33.08988571      45.84270096       1.74907970
C       35.49621964      46.18864822       1.61590064
C       34.18744659      46.73023224       1.65288365
C       35.66444016      44.78126144       1.67856681
C       34.03696060      48.13672256       1.52688003
C       35.12046814      48.95073318       1.36601806
C       34.58181381      43.95448303       1.69801712
H       37.27550125      49.04442596       1.17663300
H       32.43348694      43.83946609       1.82737458
H       37.56554031      46.64267731       1.41329360
H       32.08258820      46.25493622       1.81135452
H       36.68028641      44.39808655       1.68202376
H       33.03952789      48.54832840       1.55572140
H       34.97276688      50.04350281       1.25886214
H       34.71504211      42.87495041       1.70249295
C        8.04851818      29.95484161       5.92917252
C        8.36247253      29.43448448      10.91321754
C        8.90415859      29.27566147       6.73806953
C        7.54368973      30.14693832      10.09295559
C        8.75919247      29.34810829       8.14290237
C        7.74263620      30.14434242       8.69289875
C        9.57990170      28.59234238       9.02125645
C        6.89906692      30.88316154       7.82367563
C        7.02371073      30.76366997       6.47358894
C        9.39331150      28.64681435      10.37261486
H        8.11550331      29.84834290       4.83791924
H        8.20709133      29.45944023      11.97946167
H        9.65731812      28.61124420       6.31928158
H        6.72224951      30.70821953      10.47859192
H       10.36299896      27.99044228       8.59696674
H        6.14397335      31.52855682       8.27046680
H        6.38261223      31.30791855       5.82009888
H       10.03375244      28.05993462      11.02346420
C       -6.76529837      29.68443108      11.99154091
C       -4.78585768      29.58095360       7.37189960
C       -6.33652067      30.64940834      11.13993073
C       -5.19535923      28.61251259       8.23302078
C       -5.81983328      30.30893898       9.87628078
C       -5.71486235      28.95048904       9.50988865
C       -5.42397451      31.29163933       8.93936348
C       -6.17091799      27.97375488      10.41788197
C       -6.71744823      28.33465004      11.60965157
C       -4.89131308      30.94405174       7.73405981
H       -7.11444569      29.95786476      12.98864651
H       35.37220001      29.31500435       6.39482880
H       -6.40141058      31.70154190      11.43146610
H       -5.15054655      27.56484795       7.95014620
H       -5.57773352      32.32944107       9.17892170
H       -6.09708166      26.94255638      10.13788891
H       -7.08055353      27.59426117      12.29382324
H       -4.58823347      31.71775627       7.03542614
C       -1.82764876      32.88775253      12.53447437
C       -5.04329634      34.70971298      15.93135071
C       -2.67760777      32.29258347      13.41938972
C       -4.09771061      35.27394867      15.13692284
C       -3.45992208      33.07859039      14.30475903
C       -3.30574250      34.48913574      14.27848625
C       -4.45502138      32.51214981      15.13682652
C       -2.41817427      35.07550812      13.34452820
C       -1.71749318      34.28929138      12.47416687
C       -5.24476290      33.31289673      15.91752720
H       -1.22431290      32.27685547      11.87036705
H       -5.61901045      35.32265091      16.62687874
H       -2.78421712      31.21375656      13.46219921
H       -3.91938901      36.35680771      15.19011879
H       -4.59441948      31.43344498      15.10982227
H       -2.33501816      36.15450668      13.29884911
H       -1.08391178      34.73487854      11.71861935
H       -6.01772547      32.88179398      16.53854942
C       -2.93709660      53.55311584      20.16365433
C       -1.96677291      56.57027054      16.30156517
C       -3.51050806      53.71717834      18.93083572
C       -1.48622620      56.50280380      17.56367683
C       -3.04225183      54.71355057      18.05118370
C       -2.00908351      55.56250381      18.48097038
C       -3.55939078      54.83116531      16.74033546
C       -1.45970488      55.40164566      19.76790237
C       -1.89326572      54.40106964      20.58502388
C       -3.05850744      55.76236343      15.88719654
H       -3.28684545      52.78202438      20.84608269
H       -1.50919044      57.24070740      15.58842659
H       -4.30229092      53.07493210      18.57909012
H       -0.66902977      57.12414169      17.87360382
H       -4.34505367      54.15441132      16.42748070
H       -0.65349048      56.05522537      20.08167076
H       -1.44501603      54.23976135      21.55681229
H       -3.45265245      55.85268784      14.88574982
C       -2.09422016      54.29548264      12.98510456
C       -0.35789573      56.21302795       8.66525173
C       -2.17659116      53.90995026      11.67997932
C       -0.33055568      56.65118790       9.95896435
C       -1.53013861      54.66363144      10.67321491
C       -0.88948649      55.87294006      11.00227737
C       -1.46812546      54.20644379       9.35327530
C       -0.77809525      56.22055817      12.36540890
C       -1.33000195      55.42597961      13.31807709
C       -0.91200525      54.95138168       8.35782433
H       -2.57544446      53.71995544      13.76066971
H        0.02816060      56.83545685       7.87393856
H       -2.71205616      53.01924133      11.38134670
H        0.07393785      57.63387680      10.20530891
H       -1.83025813      53.20198822       9.15649033
H       -0.20835115      57.09223938      12.64899063
H       -1.16799879      55.66430283      14.35866928
H       -0.86062610      54.57225418       7.34758711
C       31.43148804      34.20308685       3.20456505
C       31.16685295      38.25916672       6.16017342
C       30.46578979      35.14205170       3.42581367
C       32.05300903      37.23624420       6.07798529
C       30.64970970      36.17531967       4.38005066
C       31.84351349      36.18412781       5.14398098
C       29.75327301      37.26359177       4.50989628
C       32.82785416      35.19586945       4.89560318
C       32.63928986      34.24217224       3.94460583
C       30.03901863      38.30690765       5.33979893
H       31.28027344      33.42973709       2.46029663
H       31.29702759      39.06703186       6.87094402
H       29.55372238      35.12784576       2.83843160
H       32.94032669      37.19672775       6.68043280
H       28.88253593      37.30142212       3.86429882
H       33.73596573      35.20595932       5.47211170
H       33.42177582      33.52742767       3.72888780
H       29.40477562      39.18732452       5.36585426
C       17.65813065      52.72248077      18.75433922
C       19.74170113      50.88738251      14.56243896
C       17.33252144      52.82161331      17.43062782
C       19.98011780      50.70223236      15.89376163
C       18.08824539      52.12965393      16.45031548
C       19.18656731      51.34602356      16.86931801
C       17.80353546      52.23883820      15.07188797
C       19.49572754      51.25703049      18.25171089
C       18.74702454      51.92589188      19.18060112
C       18.62744522      51.65329742      14.15425491
H       17.06956863      53.28883362      19.47997475
H       20.38145065      50.39525223      13.83125019
H       16.51548958      53.43555450      17.10764313
H       20.78899574      50.03413010      16.23887634
H       16.98199654      52.83360291      14.76895428
H       20.36238670      50.68963623      18.55134392
H       18.98398018      51.85633087      20.22870255
H       18.41249466      51.75508499      13.09435940
C       21.04284287      31.43759727      27.82756805
C       22.32413483      33.02856445      23.21476555
C       21.75044060      30.87268448      26.80753136
C       21.71100616      33.62512970      24.27530861
C       22.00445747      31.60072708      25.61483955
C       21.51350212      32.92687225      25.48849869
C       22.71238708      31.03324890      24.52229691
C       20.79522896      33.48348999      26.57951355
C       20.55705643      32.75704956      27.71397400
C       22.83512688      31.71491814      23.34346581
H       -0.11918639      30.89808273       0.20316161
H       22.44709587      33.56038284      22.27759171
H      -17.62970352      29.83628845      26.88025665
H       21.32816505      34.65199661      24.17735672
H       23.12935829      30.04033852      24.62328720
H       20.40076828      34.48891449      26.47651672
H       38.82706070      33.18830490       0.01637339
H       23.36100769      31.26561737      22.51111031
C       12.98553753      55.08967972       0.92924863
C       12.77361202      55.13366318       5.94696808
C       12.94558239      54.10465240       1.87436879
C       13.01794052      56.09825897       5.02452946
C       12.92142677      54.41847229       3.25622678
C       13.02935505      55.77764511       3.64218426
C       12.68182182      53.43349457       4.24634933
C       13.05482960      56.78064728       2.64154053
C       13.01138020      56.45315933       1.32056975
C       12.56505680      53.79175949       5.55546713
H       -5.84789658      54.84712219      28.40362549
H       12.73913574      55.40651321       7.00228405
H       12.84314823      53.06486511       1.56714106
H       13.17897892      57.10072327       5.31586313
H       12.52234459      52.40655899       3.92574763
H       13.04963207      57.82691574       2.94808626
H       12.97061634      57.20716476       0.57808954
H       12.31951618      53.05940247       6.28624392
C       10.24695587      45.54866791      20.24619102
C       13.43620396      42.83622742      23.04815102
C       10.22783470      44.26152802      20.75440407
C       13.09378147      44.31137466      23.14111710
C       11.23041439      43.84112167      21.61755371
C       12.24309540      44.72130585      21.97466850
C       11.10513592      42.60515213      22.48282433
C       12.29041958      45.99670029      21.43112564
C       11.27232933      46.42152405      20.59457397
C       12.47278976      42.00365067      22.67232704
H        9.43268490      45.90490341      19.62584877
H       14.46160316      42.51917267      23.25838470
H        9.38840389      43.60311127      20.57871246
H       14.01506233      44.90549469      23.13398361
H       10.42044544      41.92209244      22.04532433
H       13.10038853      46.69708252      21.71863556
H       11.26325130      47.40945435      20.21257210
H       12.63039589      40.93181229      22.52657890
C       11.60769463      53.63116455      16.41387367
C       14.90887070      49.94951630      17.29812622
C       11.92654324      52.47788239      15.75690556
C       14.58915615      51.09461975      17.96855736
C       12.89640045      51.59479904      16.29028511
C       13.56445980      51.94352722      17.48530769
C       13.20908356      50.37038803      15.65452003
C       13.18874264      53.11924362      18.16641045
C       12.23448563      53.94013977      17.64438820
C       14.19995403      49.56849670      16.14717484
H       10.89717388      54.32794189      15.98176956
H       15.66394711      49.29439163      17.70121765
H       11.44272614      52.24372101      14.81909466
H       15.09175491      51.35032654      18.88785172
H       12.63480282      50.07599640      14.79302311
H       13.68392181      53.35205841      19.10422707
H       11.96270466      54.86073685      18.16048050
H       14.41212463      48.61670685      15.66051483
C       22.85768127      36.65489960      19.76562691
C       20.54825592      37.32904053      24.14347649
C       21.76510239      36.07175446      20.33307266
C       21.78263092      37.67058945      23.68937874
C       21.38346100      36.38529968      21.65249825
C       22.22179031      37.22924042      22.41673660
C       20.12716484      35.99267197      22.17483521
C       23.43202209      37.68893814      21.84747314
C       23.73264503      37.44678497      20.54554176
C       19.70862389      36.49260712      23.38397598
H       23.02845383      36.48791122      18.71681023
H       20.16107178      37.70785904      25.08048821
H       21.14427948      35.40660095      19.75520325
H       22.42934990      38.33499146      24.26069069
H       19.49554443      35.31919098      21.60798264
H       24.07787323      38.30906296      22.47574425
H       24.64047050      37.87132263      20.12254333
H       18.75146103      36.26423264      23.78107071
C       -8.40397167      35.31509018      16.19019699
C       -9.21898746      30.46894455      15.03114891
C       -8.32945442      34.58932495      15.03089046
C       -9.11882401      31.13663864      16.21561813
C       -8.52932930      33.18601608      15.02822590
C       -8.82076550      32.52485275      16.23970985
C       -8.57895088      32.45661926      13.82172203
C       -8.91823864      33.31451035      17.40974808
C       -8.69883156      34.65457535      17.40038109
C       -8.98430920      31.14605141      13.81742954
H       -8.33024979      36.38898468      16.20230675
H       -9.49640942      29.41005135      15.00194550
H       -8.20135975      35.07711792      14.08565521
H       -9.31370831      30.59440804      17.12184143
H       -8.35918999      32.97272873      12.89085388
H       -9.28320789      32.86588669      18.33987045
H       -8.86181259      35.22500229      18.28960228
H       30.64192772      30.62432098      12.87806797
C        9.02276897      50.33653641      26.08657646
C       13.99807930      49.76687622      25.17108727
C        9.76007175      49.57791901      25.21792221
C       13.30740166      50.56604385      26.19359589
C       11.16601181      49.68069077      25.17474747
C       11.81527805      50.44171906      26.16883087
C       11.94134426      49.09260178      24.13765526
C       11.04163551      51.23204041      27.00735855
C        9.66160965      51.22636795      26.94928360
C       13.33763504      49.12442398      24.17432022
H        7.93878365      50.28635788      26.06426048
H       15.08612728      49.74376678      25.22951698
H        9.25483894      48.93980789      24.50364685
H       13.68328476      50.26543808      27.18728065
H       11.46302223      48.60392761      23.31195641
H       11.51436329      51.90582657      27.69551849
H        9.10929012      51.91186523      27.56299973
H       13.90202808      48.59487915      23.40339851
C       14.81855011      50.36899567      12.57972622
C       14.08803654      50.81471252       7.60741758
C       15.51978207      49.94861221      11.49042034
C       13.37589359      51.23045731       8.70310020
C       15.04576397      50.21804428      10.17711067
C       13.84005737      50.94367599      10.01234436
C       15.76073265      49.81079864       9.02598667
C       13.13340092      51.36019897      11.16721725
C       13.61121178      51.08391571      12.41266727
C       15.29850292      50.11225128       7.77810621
H       15.21354580      50.18031311      13.56863499
H       13.70964909      51.00771332       6.58260632
H       16.45671844      49.44569016      11.58915520
H       12.44180584      51.76383591       8.57669353
H       16.68824577      49.27995682       9.17031670
H       12.21868992      51.94171143      11.05658245
H       13.09815025      51.45715714      13.26932526
H       15.88749599      49.80510330       6.91019821
C       -2.32422709      51.42272186      17.12311935
C       -5.54044962      48.10834503      15.14244366
C       -3.09225178      50.43429184      17.65313148
C       -4.75851011      49.08842850      14.60244751
C       -3.87520552      49.60409546      16.81417656
C       -3.88343620      49.84044647      15.42398167
C       -4.67189264      48.55666351      17.33792114
C       -3.02791739      50.85360718      14.89774227
C       -2.27393675      51.61279297      15.73222542
C       -5.46831226      47.80626678      16.52208138
H       -1.78491747      52.06918335      17.76666451
H       -6.19666815      47.52960587      14.53035069
H       -3.15198112      50.27461624      18.72589302
H       -4.80039072      49.29148865      13.55084801
H       -4.61482334      48.35522461      18.39473724
H       -2.99451637      50.99691010      13.83591461
H       -1.62955868      52.39233780      15.33395863
H       -6.04665709      46.97815704      16.92247200
C       -2.65694833      52.54683685       7.11647844
C        0.07984892      48.85181427       5.14691496
C       -1.97990000      52.42255402       5.94633055
C       -0.65104103      48.97957230       6.29222584
C       -1.36359787      51.20517731       5.60974121
C       -1.39603734      50.14236450       6.54392433
C       -0.69000834      50.99528503       4.37782764
C       -2.14718032      50.28460693       7.74143314
C       -2.75829768      51.46086121       8.01940918
C        0.02625746      49.84826660       4.15729475
H       -3.12744904      53.48646927       7.37497473
H        0.65111101      47.95702744       4.99476337
H       -1.95797062      53.27596664       5.23987913
H       -0.68976092      48.20669174       7.01319408
H       -0.75530183      51.75048447       3.61190319
H       -2.20402956      49.43214798       8.42619991
H       -3.31714439      51.58357239       8.93751621
H        0.53006393      49.71695709       3.20771503
C        6.44418383      41.26724625       6.53426600
C        6.91739082      39.65009689       1.70085168
C        6.16080999      39.85700989       5.94466925
C        6.25075006      40.73546219       2.26593113
C        6.47524118      39.77288437       4.45612717
C        6.05417776      40.81281281       3.63130355
C        7.15588427      38.70130920       3.90139627
C        5.33442450      41.95365143       4.24727058
C        5.55016899      42.20892334       5.76475954
C        7.39717007      38.64897537       2.53404689
H        6.15037107      41.27302170       7.57144308
H        7.08964729      39.59941483       0.62785667
H        6.77737808      39.10565948       6.45064735
H        5.89874506      41.54478836       1.63761783
H        7.52220869      37.91096497       4.56093788
H        5.47958565      42.86390305       3.66063094
H        5.77984095      43.22884369       6.00826836
H        7.94048119      37.81481934       2.11840081
C        0.19493119      37.09142303      16.98200035
C        1.44309700      39.54762268      12.79158878
C        0.23214714      36.72926331      15.67020321
C        1.23674536      39.92943573      14.07843971
C        0.61606389      37.66152954      14.67384338
C        0.89321524      38.99034500      15.07199669
C        0.75776088      37.30237579      13.31041336
C        0.84521019      39.34701538      16.44188118
C        0.51387107      38.40690994      17.37891579
C        1.20639503      38.21330643      12.39714813
H       -0.08226482      36.36378479      17.74498749
H        1.75742161      40.25508499      12.04963779
H       -0.00701637      35.71855545      15.35934925
H        1.36095881      40.96940613      14.37156582
H        0.55830270      36.28546524      13.02388477
H        1.08876526      40.34371567      16.71820641
H        0.49953222      38.67263412      18.44024086
H        1.35945165      37.94912720      11.36488342
C       -8.66628265      34.19016266      22.41642761
C      -10.74225235      36.40972519      26.45005226
C       -8.25704765      34.36154175      23.70732117
C      -11.19550991      36.13841629      25.19040489
C       -9.09617138      35.01512527      24.64960098
C      -10.36892033      35.46776962      24.24927330
C       -8.68722439      35.25419998      25.98633766
C      -10.76671219      35.27235031      22.89582443
C       -9.93776035      34.65736008      22.00867653
C       -9.47220230      35.95516968      26.85654449
H       -8.01621342      33.69913864      21.69585609
H      -11.35002995      36.99611282      27.12162018
H       -7.30063057      34.01031876      24.02488518
H      -12.17388916      36.45376968      24.90713310
H       -7.70358515      34.93368149      26.29642296
H      -11.75060368      35.63448715      22.57082176
H      -10.25680161      34.52058792      20.97880363
H       -9.12424374      36.18353271      27.86114120
C       20.91727257      55.53792572      24.35802460
C       18.73116684      52.82592773      27.98234558
C       20.74696541      54.19986343      24.56129837
C       18.96002197      54.16001129      27.83052063
C       20.08876228      53.71650696      25.71606064
C       19.65199471      54.63990402      26.69192123
C       19.83891678      52.33196259      25.91169357
C       19.87305832      56.02460861      26.47348976
C       20.45806503      56.45875549      25.32296562
C       19.18353271      51.90011597      27.01677704
H       21.40092278      55.90101242      23.47011948
H       36.96993637      52.44245529       0.30495885
H       21.12789726      53.47224808      23.83426476
H       37.39137650      54.86464691       0.01525049
H       20.14675522      51.62650681      25.13014793
H       19.52703285      56.73531723      27.20857620
H       20.57266045      57.52518845      25.12061119
H       18.99280167      50.85683060      27.17210388
C       14.91705132      55.32124710      16.32817650
C       14.96535015      55.76909637      11.32747269
C       14.88093281      54.41534805      15.30326271
C       14.89733696      56.66993713      12.34256840
C       14.90875244      54.84523773      13.95429993
C       14.90026951      56.22975540      13.68373680
C       15.02886391      53.94008255      12.87209320
C       14.97464561      57.13487625      14.77056408
C       14.99048519      56.70280457      16.05520821
C       15.06289768      54.38683319      11.57865906
H       14.91079712      54.98299789      17.34814644
H       15.04005814      56.11510849      10.31006527
H       14.82737541      53.35414505      15.51207638
H       14.93831158      57.73949432      12.14073849
H       15.12668896      52.89036560      13.09018135
H       15.08627510      58.18089294      14.55301762
H       15.07596016      57.41546631      16.86246681
H       15.18243504      53.68484879      10.75741577
C        0.11063500      56.18825912      25.04627609
C       -4.20659733      57.89461899      26.95804787
C       -0.72055620      57.21564484      24.71512222
C       -3.44646525      56.78771973      27.22522354
C       -1.94927907      57.40977097      25.39389801
C       -2.30699635      56.51570892      26.43122482
C       -2.81039023      58.48995590      25.09234428
C       -1.45644081      55.41697693      26.69996452
C       -0.26649183      55.27065277      26.04748344
C       -3.90199232      58.73427200      25.86582565
H        1.05917132      56.07818985      24.54269218
H       -5.07461500      58.12466812      27.56872940
H       -0.42893034      57.92739868      23.94410324
H       -3.66990900      56.14723206      28.02863312
H       -2.55962634       0.20869197      24.23665810
H       -1.74841452      54.73157501      27.46911430
H        0.38303345      54.46667099      26.32519341
H       -4.56094742       0.63363355      25.64019966
C        6.27422428      32.97677994      11.09990978
C        6.11859369      37.17447281       8.38728333
C        5.62832737      33.32468033       9.95565891
C        6.98310089      36.72328186       9.33751297
C        5.88143873      34.56136322       9.32110882
C        6.86424446      35.41689682       9.86879063
C        5.10193920      35.00978470       8.23291969
C        7.61016512      34.94832611      10.97192574
C        7.28979063      33.79503632      11.61809540
C        5.17442799      36.30081940       7.80707359
H        6.01595354      32.08930969      11.62479877
H        6.17340851      38.20980072       8.09062290
H        4.87041283      32.67680740       9.53781033
H        7.75281954      37.38562012       9.74773788
H        4.40462875      34.32104492       7.77298260
H        8.42828178      35.53316116      11.32378197
H        7.82858467      33.50273895      12.49883366
H        4.49637604      36.64530945       7.04459810
C        0.47592425      53.74068069      17.73180962
C        2.04573917      54.05791855      22.51387215
C        0.34203467      52.93882751      18.82142067
C        2.18224311      54.86909103      21.42245483
C        0.93564862      53.28635025      20.05975723
C        1.65016603      54.49760437      20.16363907
C        0.81884497      52.46311188      21.19687462
C        1.82469535      55.28411484      19.00026131
C        1.24783373      54.92576599      17.82068825
C        1.35842383      52.82461548      22.39538765
H        0.01817293      53.47826386      16.78551102
H        2.46829295      54.34277344      23.46918869
H       -0.17740068      51.99931717      18.78488350
H        2.74077225      55.80232239      21.50635147
H        0.28967854      51.52084732      21.08573914
H        2.42192721      56.17758942      19.07243919
H        1.40100157      55.56444931      16.93479156
H        1.26321435      52.18611908      23.24931908
C       11.92400360      57.27390671      27.70684814
C       16.61134720      57.01666260      26.05441284
C       12.49132156      57.31990814      26.47401428
C       16.09991646      57.30876541      27.28621101
C       13.87756729      57.43054199      26.30106544
C       14.69885635      57.46334076      27.44942474
C       14.45530128      57.32291794      25.02362251
C       32.89467621      57.43319702       0.19331634
C       31.54277039      57.30895996       0.32398677
C       15.78123665      57.04536438      24.90505028
H       10.85113525      57.11527252      27.81582451
H       17.64928246      56.80022812      25.91610718
H       11.89073372      57.18442917      25.59999084
H       16.75139427      57.35806274      28.14430809
H       13.83801651      57.39195251      24.13854218
H       33.50734711      57.44456482       1.08462346
H       31.08418465      57.17159653       1.30770302
H       16.22525978      56.88700104      23.93006897
C        6.86745501      30.44583511      20.27313423
C        8.92396164      30.34548759      24.86905098
C        8.00346756      29.87487030      20.78926277
C        7.75929880      30.85815239      24.37629127
C        8.32694435      30.01808548      22.15883446
C        7.44269180      30.73762512      22.99612236
C        9.52421665      29.48979378      22.69987297
C        6.28642750      31.32555962      22.43727303
C        6.00978470      31.18888855      21.10521126
C        9.82725048      29.67271996      24.02257156
H        6.63784695      30.34425545      19.21560478
H        9.17162895      30.44771576      25.92863846
H        8.67778492      29.30421638      20.15011978
H        7.06150675      31.39301300      25.02162170
H       10.19974136      28.97469330      22.03563690
H        5.62174940      31.91834259      23.09193993
H        5.13436556      31.66694260      20.67152405
H       10.76250935      29.29845810      24.42095566
C       15.25018215      36.93207169      24.33765030
C       11.27889919      38.68250656      26.85960960
C       14.32517910      36.33027267      25.13603401
C       12.09646797      39.20818710      25.90429306
C       13.25556946      37.07035446      25.68422699
C       13.12640667      38.43618393      25.32547569
C       12.34888172      36.53423309      26.63796997
C       14.07859993      39.02359772      24.45762444
C       15.13468266      38.29220963      23.98868942
C       11.40852833      37.32294464      27.22077560
H       16.08221436      36.35363007      23.97908401
H       10.54906845      39.28913498      27.35551834
H       14.40461159      35.28274536      25.37444115
H       12.02453232      40.25645447      25.61681557
H       12.44493389      35.51725769      26.93674088
H       13.96895218      40.08795166      24.20368385
H       15.88875771      38.73857498      23.34143448
H       10.76011372      36.93202972      27.99889374
C       17.58651924      30.51232338      13.14756298
C       20.36942863      34.14076233      11.08319283
C       18.75658798      31.09379768      13.52215481
C       19.34100533      33.37057114      10.63512993
C       19.32733345      32.10017395      12.70751286
C       18.76901436      32.37444305      11.44170284
C       20.34400940      32.95294952      13.18497658
C       17.54958916      31.73994827      11.07904911
C       16.94687843      30.88433838      11.94646358
C       20.83162880      33.96013641      12.41171074
H       17.10230446      29.79040909      13.79054642
H       20.78040504      34.92143250      10.45773888
H       19.21948051      30.84508514      14.45905018
H       18.89822388      33.59067535       9.68473148
H       20.68312836      32.80635452      14.20553493
H       17.06283760      32.02579498      10.14680481
H       15.96837902      30.49631882      11.71258163
H       21.56938744      34.61952972      12.82315350
C       -2.77390671      58.15519714       8.78438187
C       -5.21318674      57.64577484      13.15371323
C       -2.89623499       0.01498018       9.88103962
C       -4.88460064      56.78216171      12.14658737
C       -3.68040776      58.53548050      10.98070621
C       -4.19858456      57.23166656      10.99393463
C       -4.03467131       0.48809344      12.03417301
C       -4.06999779      56.42003250       9.83070087
C       -3.41561699      56.89633942       8.73362064
C       -4.81964636       0.07278759      13.06299496
H       -2.18551922      58.50679398       7.94546938
H       -5.76307058      57.27820969      14.00864792
H       -2.42577147       0.99687552       9.89902020
H       -5.16790962      55.77089691      12.22191334
H       -3.69264698       1.50642896      11.99099159
H       -4.51752949      55.43427658       9.83562469
H       -3.35070038      56.27519608       7.82993793
H       -5.13851833       0.76999563      13.83563042
C       11.43531036      36.71901321      22.24963951
C       13.23776722      34.01083755      18.47316742
C       12.70035076      36.35336685      21.89654350
C       12.08106995      34.70603943      18.62397003
C       12.94445992      35.69858170      20.67399979
C       11.87586498      35.51435852      19.76586914
C       14.19849777      35.09814072      20.38675499
C       10.58322334      35.97333527      20.12441826
C       10.36300659      36.51177597      21.35563278
C       14.32658195      34.23191834      19.34218407
H       11.25194168      37.12693787      23.24063301
H       13.33827019      33.25760269      17.69120979
H       13.53544712      36.46852875      22.60575294
H       11.25012493      34.57343674      17.92160606
H       15.05501366      35.28404236      21.03536415
H        9.74213123      35.81155777      19.43292809
H        9.35998344      36.76105881      21.68738365
H       15.26464176      33.72151947      19.15678406
C        8.32614708      57.80671692       7.50924397
C        5.43732119      58.22362518      11.60767746
C        8.50341988      57.47690964       8.82237434
C        5.27396441      58.60120392      10.30656052
C        7.49267292      57.73798752       9.78082848
C        6.30048656      58.36525345       9.35912132
C        7.63494110      57.37639999      11.14823246
C        6.13671303      58.67402267       7.98632717
C        7.11263847      58.39566803       7.08406925
C        6.63420630      57.60712433      12.03864861
H        9.10037708      57.62915802       6.78393126
H        4.64377880      58.38909912      12.31587887
H        9.41888714      57.00456619       9.15907478
H        4.34883261       0.12841198       9.97653866
H        8.56443787      56.89894485      11.47734070
H        5.19900942       0.17029206       7.67126894
H        6.94677305      58.59157181       6.03402376
H        6.77619743      57.33172989      13.08063602
C       -8.00187206      49.66068649      22.19775581
C       -9.87858963      47.25264359      18.24686432
C       -9.25578880      49.21143341      21.90464973
C       -8.62385941      47.65011215      18.59312630
C       -9.49710941      48.55498505      20.67153740
C       -8.40164375      48.29926300      19.82287979
C      -10.80110455      48.18341064      20.25533867
C       -7.11542320      48.74701309      20.17473602
C       -6.94100618      49.44944763      21.31637001
C      -10.98123455      47.52713013      19.07514000
H       -7.82536697      50.26311493      23.06296158
H      -10.02157497      46.73001099      17.32025719
H      -10.08024216      49.41894913      22.56816864
H       -7.78273535      47.48894501      17.92429543
H      -11.65802479      48.41854858      20.87379646
H       -6.29963446      48.59352112      19.44321442
H       -5.98403597      49.89900970      21.53912544
H      -11.97255898      47.21615219      18.76276398
C       -3.29396653      55.27881241      23.25045204
C       -5.60255671      57.60607147      19.47157860
C       -2.97564554      56.36275864      22.49837494
C       -6.03582239      56.75237656      20.43542862
C       -3.84620118      56.82541275      21.48833847
C       -5.12307549      56.24342346      21.39528084
C       -3.44330621      57.77571487      20.52287292
C       -5.43053198      55.10854721      22.17885399
C       -4.51206779      54.58405304      23.03254509
C       -4.28557873      58.10310364      19.49954796
H       -2.61441898      54.91540146      23.99901199
H       -6.29419708      57.92374039      18.67688942
H       -2.00535393      56.84914017      22.61500359
H       -7.04690218      56.41583633      20.45385170
H       -2.45242596      58.18492889      20.56263542
H       -6.39038372      54.64504242      22.05682373
H       -4.73629618      53.67615509      23.60537910
H       -3.94987988      58.78997803      18.75246239
C        3.53034878      35.01766205      25.94881058
C        8.13705635      36.01795578      27.66963577
C        4.72787857      34.34719086      25.87170601
C        7.18671942      36.99586105      27.09219170
C        5.93462515      34.94986725      26.29906464
C        5.90842438      36.30970383      26.69817734
C        7.11469460      34.18749619      26.46334648
C        4.68320847      36.96232224      26.76358795
C        3.50117183      36.32939529      26.42889786
C        8.14995766      34.72068405      27.25921059
H        2.60156345      34.51531982      25.69047356
H        8.85932636      36.36469269      28.39708519
H        4.73344707      33.31255341      25.55284882
H        6.94264364      37.78338242      27.84096718
H        7.16510630      33.16223145      26.10024834
H        4.64708567      37.98815918      27.09950638
H        2.55488992      36.84653473      26.55059814
H        8.93999386      34.04272079      27.59887314
C       20.26566505      44.32872391       4.77285385
C       15.59606934      43.91262436       2.94641948
C       19.21665192      45.19313049       4.65120268
C       16.60921097      43.01726532       3.13507938
C       18.01152420      44.77673721       4.05163050
C       17.84159660      43.42438126       3.66674709
C       16.95063591      45.67587280       3.86498237
C       18.93672752      42.54307175       3.84436655
C       20.12200546      42.99478912       4.32803726
C       15.77478313      45.25806808       3.31703639
H       21.21412277      44.67632294       5.17886353
H       14.65011406      43.56987381       2.52995205
H       19.30260468      46.23036194       4.94916058
H       16.44725418      41.96260071       2.90553999
H       17.10266685      46.72674179       4.14042139
H       18.82804489      41.49328232       3.57299328
H       20.97575569      42.33205795       4.36373615
H       14.97549343      45.97642517       3.19160509
C       -1.83193028      52.55513000      23.99940109
C       -4.60695982      48.53988266      22.83109665
C       -1.97430146      51.79991150      22.87027359
C       -4.59462595      49.37804031      23.90132332
C       -2.94453454      50.78764343      22.79081345
C       -3.76605511      50.53329468      23.90748596
C       -3.08373904      49.97254562      21.63724136
C       -3.70223856      51.42255020      25.01076317
C       -2.74492836      52.39894485      25.06324577
C       -3.89018393      48.87896729      21.65759659
H       -1.05233717      53.29016495      24.04574585
H       -5.22768211      47.65783691      22.84548569
H       -1.34420931      51.97375870      22.02103043
H       -5.19183016      49.16468048      24.78759575
H       -2.49627161      50.22372437      20.74946976
H       -4.41421366      51.28316116      25.81646538
H       -2.66175890      53.03925705      25.91244888
H       -4.00279522      48.29262924      20.76362610
C       -9.92750931      41.16433716      19.51884460
C       -8.45788765      43.78665161      15.48923969
C       -9.58175182      42.46181870      19.31291771
C       -8.79095745      42.48007202      15.67645836
C       -9.25946522      42.93507385      18.02032471
C       -9.25083160      42.02893829      16.94191933
C       -8.94099140      44.29556656      17.79066277
C       -9.67508888      40.69500351      17.16448975
C      -10.01694393      40.28030014      18.42150116
C       -8.56478786      44.71499252      16.55706978
H      -10.14340878      40.81090546      20.51531982
H       -8.10543537      44.14597702      14.52482986
H       -9.56443214      43.16837692      20.12015152
H       -8.73831367      41.78926849      14.86557770
H       -8.99783897      44.97230530      18.63211441
H       -9.71423626      40.00506210      16.32726860
H      -10.31321716      39.25257874      18.60455322
H       -8.32905865      45.74297714      16.37778473
C       17.26191711      34.16442108      23.42747498
C       15.77725601      29.45635605      24.33254814
C       16.13086700      33.46714401      23.12569618
C       16.97261429      30.09082413      24.44942474
C       16.01096535      32.12039566      23.49962044
C       17.09941864      31.46275902      24.10859680
C       14.77754021      31.43044662      23.37383270
C       18.25396538      32.21013641      24.42801857
C       18.31650162      33.54410934      24.12477493
C       14.65328789      30.16859436      23.85692024
H       17.33603096      35.19315720      23.12207794
H       15.66103554      28.43463516      24.65742111
H       15.28918266      33.95111084      22.63695908
H       17.83216095      29.58261871      24.86858368
H       13.92574692      31.93180275      22.98006439
H       19.06886292      31.73096275      24.94071770
H       19.18030739      34.14813995      24.41650581
H       13.67794323      29.74468613      23.90937042
C        3.31030869      30.00090218      17.08209229
C        6.29087639      28.33050346      13.39054108
C        3.32076716      30.17415428      15.72109222
C        6.28348064      28.15169144      14.73978329
C        4.31166935      29.57043266      14.92972374
C        5.29475737      28.77316856      15.54862118
C        4.36593151      29.76807022      13.52760410
C        5.26952600      28.59954262      16.95138168
C        4.28628302      29.19549179      17.70223618
C        5.34040642      29.17517471      12.77090740
H        2.56410170      30.51096725      17.65765572
H        7.02524900      27.80262756      12.77826309
H        2.57487988      30.79372406      15.25112247
H        7.04221725      27.53411674      15.22671509
H        3.61091065      30.39905548      13.06155682
H        6.00528526      27.99581909      17.42888832
H        4.25257826      29.06299973      18.78956795
H        5.36493444      29.33193207      11.69537544
C       23.20942116      55.42824554       6.45006609
C       22.17512703      57.61222839      10.86392212
C       23.43923378      55.07445526       7.74886608
C       21.84586143      57.90689468       9.57130337
C       22.96006393      55.86280060       8.82543087
C       22.23869133      57.03229904       8.52273846
C       23.21177673      55.55265808      10.17681217
C       21.96872711      57.34926605       7.16952896
C       22.44050407      56.56792831       6.15673876
C       22.84320068      56.40878677      11.17693520
H       23.65421295      54.85493469       5.64189672
H       21.90808105      58.31389236      11.65427208
H       24.01727676      54.20289612       7.97953796
H       21.30535126      58.83916855       9.32601547
H       23.73170662      54.61176300      10.43228054
H       21.43536568      58.27116394       6.95380402
H       22.26123619      56.86103058       5.12307644
H       23.06531525      56.16037369      12.19839859
C       26.66232872      36.13467026       5.06674767
C       23.40326881      35.49441147       1.30565131
C       25.38540840      36.55278778       4.86795378
C       24.73001862      35.20816422       1.44553697
C       24.69820404      36.15607452       3.68411660
C       25.39318275      35.49149323       2.65938187
C       23.30271149      36.37540436       3.53781843
C       26.71586609      35.04079056       2.92162156
C       27.30348206      35.30424881       4.13028431
C       22.67172432      36.03255081       2.38779664
H       27.21124077      36.38933182       5.99200821
H       22.90046883      35.27482986       0.37662470
H       24.85124588      37.12492752       5.60016966
H       25.26200294      34.70635223       0.64152467
H       22.73522186      36.75809479       4.40433836
H       27.21628380      34.46010208       2.16586256
H       28.26751328      34.90235138       4.38853359
H       21.60980034      36.18005371       2.29380417
C      -10.68974972      52.02061081      20.90910912
C       -6.29996252      51.49472046      18.51014900
C       -9.39555168      52.23416519      21.26873589
C       -7.59399652      51.28767776      18.14427567
C       -8.34947205      52.03149796      20.33912659
C       -8.65419292      51.54999924      19.04894257
C       -6.99485302      52.22756195      20.69417381
C      -10.01218700      51.32737350      18.70204544
C      -11.00372410      51.57353210      19.61118317
C       -6.00384474      51.95909500      19.80914688
H      -11.48440170      52.19934464      21.61252594
H       -5.49183559      51.27074051      17.81539345
H       -9.12493706      52.56123734      22.26585197
H       -7.82372427      50.87421036      17.16719818
H       -6.74083281      52.57403946      21.69816017
H      -10.25330544      50.94235229      17.72285843
H      -12.03136635      51.40185928      19.35836029
H       -4.97620440      52.07326126      20.11714554
C       21.07841873      35.78157806      15.70750332
C       18.22046089      39.24064636      18.01520729
C       20.60062790      35.90478134      16.98283196
C       18.76762199      39.14810562      16.77834320
C       19.78384209      37.00446701      17.35897446
C       19.52618408      38.01458359      16.40060043
C       19.17771149      37.12482071      18.63644600
C       19.98010445      37.82830811      15.07688713
C       20.73269653      36.73544312      14.74061108
C       18.41166496      38.20594788      18.95145416
H       21.69415283      34.94679260      15.43907356
H       17.65322113      40.11154938      18.28804398
H       20.84800529      35.11197662      17.71649933
H       18.65051270      39.94512939      16.05802727
H       19.32581520      36.32952881      19.35367775
H       19.68897438      38.57767487      14.34850502
H       21.08492661      36.60943222      13.71604919
H       17.95431519      38.26974869      19.93190384
C       10.15129662      55.71700668      19.91940308
C        5.62439871      54.85189056      21.91921997
C        9.72998142      55.22109222      21.11531258
C        6.02640390      55.21435547      20.66630554
C        8.35786152      54.98342896      21.35951614
C        7.41351891      55.31683350      20.36675453
C        7.90325403      54.48952103      22.59589577
C        7.89013767      55.72788620      19.10590744
C        9.21634388      55.92871475      18.88223076
C        6.57523823      54.49854279      22.89620590
H       11.19512558      55.93129349      19.77502441
H        4.57043839      54.77263260      22.14677811
H       10.44316292      55.01250076      21.92085457
H        5.30626774      55.40578842      19.88176155
H        8.63130283      54.15846634      23.33784103
H        7.20368910      55.80477524      18.26957321
H        9.54890251      56.21610641      17.90449905
H        6.23101330      54.23706818      23.87384796
C       20.64649010      43.44219589      11.87027168
C       17.51660728      46.38150406       9.23769760
C       19.78806305      44.43793869      12.21897316
C       18.47431183      45.48203278       8.89040279
C       18.99912643      45.10627747      11.24269104
C       19.19351196      44.76791000       9.88939571
C       17.99807549      46.05582809      11.57848263
C       20.04545975      43.69334793       9.56470299
C       20.74711800      43.03222275      10.52910137
C       17.25406837      46.64455032      10.59665203
H       21.22820091      42.92574692      12.64010620
H       16.95241165      46.91992569       8.46875191
H       19.68354225      44.73516083      13.25111008
H       18.69670105      45.28905869       7.85476732
H       17.80944443      46.26745605      12.61784744
H       20.07359505      43.36810303       8.54143620
H       21.31666374      42.13221359      10.26216221
H       16.47658920      47.35731125      10.84931469
C       25.51824379      58.00941467       4.79205084
C       26.07138062      56.36284637       9.51821804
C       25.10990524      58.49497223       6.01117325
C       26.39720917      55.85763550       8.30335331
C       25.37720489      57.76828384       7.19438982
C       26.06835747      56.54111099       7.11080551
C       25.01848602      58.26062012       8.47011852
C       26.37922668      56.02310944       5.83133030
C       26.13396072      56.74264145       4.70409679
C       25.37520409      57.59677887       9.60707092
H       25.37048149      58.58405685       3.88876414
H       26.31607437      55.81794739      10.42292023
H       24.58727646       0.51354373       6.07301950
H       26.91595268      54.89512253       8.20802689
H       24.46606636       0.25505376       8.53814983
H       26.80396652      55.04375076       5.75472355
H       26.40289879      56.36644745       3.74330807
H       25.09197998      57.95601273      10.57149696
C       14.40035915      36.04386902       3.68737221
C       18.88967514      38.26750565       3.66619992
C       15.65701866      35.59656525       3.97693586
C       17.63919067      38.66703415       3.31316924
C       16.76596069      36.44642639       3.78841662
C       16.56117630      37.75518417       3.29866624
C       18.08208656      36.04762650       4.12732077
C       15.26120853      38.15020752       2.91293836
C       14.19362926      37.32662201       3.13308549
C       19.12639236      36.92376328       4.03041601
H       13.54354382      35.41426849       3.81982803
H       19.69001579      38.97865677       3.63710976
H       15.80087280      34.58029556       4.37560987
H       17.45064545      39.69921875       3.03247261
H       18.24270439      35.03698349       4.48586130
H       15.10776711      39.15229416       2.54401636
H       13.17578983      37.64409256       2.93372464
H       20.12717628      36.59737396       4.29761076
C       19.69893074      55.26306534       9.36468220
C       22.73404121      51.41618347      10.40992641
C       20.08320999      54.65123367      10.52725697
C       22.27261543      51.94979858       9.23579407
C       20.90638351      53.50714111      10.49831200
C       21.34489441      53.01228714       9.25529957
C       21.28947830      52.85526657      11.68712807
C       20.90982819      53.64337158       8.06315613
C       20.11428452      54.74245453       8.12362194
C       22.19208336      51.83185959      11.64016533
H       19.10380554      56.16158295       9.38866806
H       23.49452400      50.65811539      10.39374065
H       19.80397034      55.07644272      11.49300766
H       22.63837051      51.57785416       8.28486347
H       20.85852814      53.16970825      12.63891506
H       21.26648140      53.28017807       7.11160851
H       19.86888123      55.25877380       7.22207355
H       22.49824905      51.33215714      12.54318142
C       26.30758095      44.97748566       2.87431741
C       21.34090614      45.14777756       2.12625504
C       25.43168831      45.99471664       2.60257792
C       22.23246765      44.13365936       2.31351805
C       24.06756592      45.72525024       2.36592960
C       23.60821724      44.39313507       2.43248868
C       23.13294411      46.75108719       2.12232971
C       24.54845428      43.35166550       2.62614107
C       25.85651779      43.63940811       2.87825084
C       21.79833603      46.47648621       2.02724552
H       27.35852051      45.18548584       3.04970908
H       20.27982330      44.94003677       2.08366442
H       25.77245903      47.02491760       2.57623243
H       21.88715935      43.12580490       2.40590835
H       23.49081039      47.77178574       2.06105590
H       24.19004822      42.34153366       2.58641028
H       26.54585838      42.85339737       3.10389423
H       21.07170868      47.27130508       1.92511547
C       -1.25272381      46.69478989      16.05682945
C        0.64354467      49.43983841      19.72317505
C       -0.36709648      47.73949432      16.04627609
C       -0.48449868      48.68692780      19.62517166
C       -0.11101256      48.46297455      17.22688866
C       -0.87609309      48.16417694      18.37109184
C        0.98954684      49.34299469      17.34202385
C       -1.94618881      47.23879623      18.27406502
C       -2.09897470      46.47386551      17.15959167
C        1.38593817      49.78972626      18.57328033
H       -1.26186264      46.00751114      15.22394657
H        0.99869019      49.74392700      20.70068169
H        0.21503887      47.94771194      15.17611504
H       -1.05446446      48.39047241      20.49858856
H        1.54333532      49.56330872      16.46395493
H       -2.57773089      47.09913635      19.13583183
H       -2.85579038      45.69678879      17.12498093
H        2.25922251      50.42529678      18.68030739
C       32.26458359      51.48999786       4.21677160
C       28.92131233      47.78583145       4.21827841
C       32.35752487      50.16693115       3.92182708
C       28.90922737      49.05515289       4.71405935
C       31.25894737      49.31066513       4.16864491
C       30.06678963      49.86120224       4.67708015
C       31.27954102      47.94731903       3.79511142
C       30.04873657      51.20714569       5.10311174
C       31.14542580      51.99900436       4.90384912
C       30.12847710      47.22171783       3.77198648
H       33.05142593      52.16447067       3.96066689
H       28.00625801      47.18955994       4.20393467
H       33.23199463      49.77019119       3.43944955
H       28.00690269      49.48749161       5.15107965
H       32.21427536      47.50438309       3.46038532
H       29.14387131      51.61375427       5.53923273
H       31.16465759      53.02435684       5.22431326
H       30.12631798      46.17884064       3.41467953
C       21.27915955      46.69796371      13.34792042
C       17.84273338      48.15374756      16.70198441
C       20.17642784      47.48778915      13.26871109
C       18.88526154      47.28050613      16.74124527
C       19.29075241      47.62421036      14.36603832
C       19.62234497      46.97635269      15.57341480
C       18.12776184      48.43587494      14.32875061
C       20.72201538      46.08287048      15.60825062
C       21.54622650      45.95654297      14.52302933
C       17.42298508      48.70602798      15.47368622
H       21.94048309      46.60065079      12.49479866
H       17.33882141      48.42442703      17.63423157
H       19.96187019      48.01276016      12.36008358
H       19.20370293      46.85116959      17.67980576
H       17.84003448      48.90480041      13.37841511
H       20.90236282      45.52381897      16.53575516
H       22.41167831      45.30233002      14.57425976
H       16.58126068      49.39789581      15.43221474
C        8.79682541      42.75114059       1.35582054
C       12.14385891      46.40761185       0.73409593
C       10.01528931      43.00371933       1.89539874
C       10.88105774      46.22381210       0.25964531
C       10.71671200      44.18981934       1.59791720
C       10.12197971      45.10191727       0.69160956
C       12.02165318      44.40886307       2.07455301
C        8.82570457      44.84964752       0.21127346
C        8.16008568      43.69902802       0.53610069
C       12.72824478      45.48136520       1.63295674
H        8.29383373      41.81684113       1.56004751
H       12.71716022      47.26227570       0.46900603
H       10.51464558      42.30016708       2.52006316
H       -8.37128639      46.90740204      28.07069588
H       12.46188068      43.70241928       2.75925493
H      -10.41753578      45.55798721      28.08303452
H        7.16746807      43.51717377       0.15597047
H       13.75716496      45.65996552       1.96263134
C       18.94852829      50.12300873      10.81437302
C       18.84350014      50.39990234       5.80038166
C       19.16204834      49.19592667       9.83488178
C       18.77064514      51.32317734       6.80265808
C       19.05440521      49.56108856       8.46739483
C       18.79289818      50.91456985       8.14919186
C       19.11334610      48.62700653       7.40957260
C       18.52443886      51.83710480       9.18170357
C       18.58234024      51.44767380      10.48581886
C       18.96041870      49.03541946       6.10672426
H       19.04008865      49.82522202      11.86176968
H       18.82517242      50.69352722       4.77938223
H       19.37623024      48.15985489      10.09760857
H       18.67067337      52.37149429       6.59311342
H       19.28975868      47.57525635       7.63070822
H       18.31861496      52.85802841       8.91361904
H       18.39346695      52.16789246      11.27284527
H       18.95491600      48.31488037       5.28791475
C       35.21762466      40.66957855       5.74460602
C       37.02262878      38.44312668       1.66113305
C       35.89134979      41.12603378       4.66051435
C       36.23555374      38.00524521       2.67986560
C       36.19224930      40.26935196       3.57640648
C       35.79070663      38.91727066       3.65510964
C       36.93291473      40.70965958       2.45202184
C       34.99397659      38.49140549       4.74958563
C       34.74272919      39.34775543       5.77800608
C       37.32810974      39.81508636       1.50975633
H       35.01106644      41.34086609       6.57009745
H       37.44242096      37.73689270       0.98180950
H       36.17701721      42.16855621       4.58755350
H       35.99312592      36.94308472       2.76382470
H       37.19627380      41.76325607       2.37667036
H       34.60800934      37.47106171       4.75960112
H       34.17832565      39.01650238       6.63760614
H       37.91498947      40.13072968       0.63838738
C       11.03647137      38.46739197       0.77313441
C       -6.58169556      43.09702683      27.71619797
C       12.16940212      39.22974777       0.84054065
C       -7.72939205      42.36224365      27.69476318
C       12.19308281      40.55186081       0.34796384
C       -7.77694559      41.07224655      28.27960587
C       13.37027931      41.34507370       0.38645887
C       -8.95089626      40.28256989      28.25912094
C        9.85934830      39.01045990       0.22486058
C       -5.42272043      42.58518600      28.33915901
H       11.03964615      37.46175766       1.12354553
H       -6.56920862      44.09930420      27.29838181
H       13.10018349      38.81838989       1.24255538
H       -8.64343262      42.76533890      27.24666786
H       14.26698017      40.94326401       0.85328507
H       -9.86618710      40.71107483      27.82600594
H        8.95941639      38.42153549       0.18136269
H       -4.54241991      43.19104385      28.37284279
C        3.93289113      40.63530731       6.91480541
C        3.33106375      38.66095352       2.25469375
C        4.62815046      39.48318481       6.20586777
C        3.18413424      39.93954468       2.77399158
C        3.94530320      39.15740204       4.90643311
C        3.52839518      40.20397568       4.09187698
C        3.96146894      37.85244370       4.41117144
C        3.82091975      41.61048508       4.52662897
C        4.07411385      41.85520554       6.03830576
C        3.69922471      37.61321640       3.07656765
H        4.43994904      40.79745483       7.86243153
H        3.12114024      38.49330902       1.21524572
H        4.61129189      38.60945511       6.84404039
H        2.89133096      40.75329590       2.13058114
H        4.29485083      37.05267715       5.04033613
H        3.13178039      42.31412125       4.07592010
H        3.52725744      42.70848084       6.42677116
H        3.77798295      36.60959244       2.68188930
C       25.32550049      34.07420731       7.10186434
C       23.64830971      35.38071442      11.64613247
C       25.32964134      35.23243332       7.81627512
C       23.58102989      34.22343445      10.92673779
C       24.75896072      35.29262924       9.10229397
C       24.14483070      34.14540482       9.63686371
C       24.83675575      36.46468735       9.87617302
C       24.14557457      32.94783783       8.87628555
C       24.72675133      32.91543198       7.64290476
C       24.32813644      36.49989319      11.13596916
H       25.79897499      34.02087021       6.12053299
H       23.24383926      35.45378876      12.62691402
H       25.77990723      36.15100861       7.42964077
H       23.09298897      33.34706879      11.34950542
H       25.25503731      37.34272003       9.42063141
H       23.68625069      32.06084824       9.28670502
H       24.73886108      32.00769043       7.05523634
H       24.34566879      37.42263412      11.71548748
7200
Lattice="39.763004303 0.0 0.0 0.0 58.9316482544 0.0 -18.8008785248 0.0 28.526468277" Properties=species:S:1:pos:R:3 step=1000 time_fs=500.0 pbc="T T T"
C       32.15884018      24.07979202       3.29855561
C       32.80574799      27.22298050       5.20077705
C       -3.17162681       1.93894422       5.31123304
C       36.25759506      27.50168800       3.24174905
C       32.82862854      24.94882584       2.51788211
C       31.94156456      28.08761215       5.92812014
C       35.76777649       1.08406091       6.06100082
C       36.38834763      26.58809090       2.23854327
C       33.06300354      24.65530586       1.15552127
C       31.68914604      27.86602974       7.28663254
C       -4.40471601       1.46422529       7.39203501
C       37.31252670      26.78743172       1.21064782
C       28.99546051      25.59949303       7.56222582
C       37.82092285      28.96496010       1.99582577
C       38.69787216       0.14395361       0.95419753
C       32.86482620      25.78691864       7.07213306
C       -1.27755702       0.65200901       2.17527938
C       33.27534866      26.03074837       5.80222797
C       29.43681335      25.23345375       6.31949663
C       36.99077606      28.72124100       3.07027507
H       31.99223328      24.42771721       4.28062677
H       33.01815414      27.54567528       4.14243698
H       -2.82357097       1.65231621       4.36845541
H       35.57291794      27.44120789       4.07198000
H       33.07922745      25.88011360       2.98147750
H       31.59507561      28.92809486       5.46994781
H       35.51323318       0.06151222       5.67374659
H       35.91227341      25.61586571       2.25292087
H       29.39983940      26.55980110       7.92866802
H       38.38146591      29.80774498       1.79587293
H       38.13330460      58.22566223       0.53751069
H       33.17000198      24.80427170       7.42230463
H       -1.91039169       0.19938183       2.95498228
H       33.95924759      25.34121895       5.35456753
H       30.04187202      25.85818672       5.71654654
H       36.81818390      29.43864822       3.80938268
C       27.27572250      24.17409706      10.47651100
C       28.34486008      27.51228333      12.63086414
C       -7.31415606       1.53543592      12.81948376
C       30.89226151      27.10046577       9.88436890
C       27.93907356      25.12607574       9.67086124
C       27.67099571      28.46328163      13.29909992
C       -7.68218279       0.57952297      13.72297382
C       31.73810959      26.23456383       9.23063850
C       28.34505653      24.71397591       8.41185951
C       27.30511856      28.28807449      14.70261669
C       -8.02863121       0.90675497      15.10482979
C       32.12578201      26.66827011       7.94358206
C       24.62878609      25.20332527      14.56054688
C       30.94598579      28.73102760       8.06544495
C       -5.27092600       0.70913815       8.17614651
C       28.20377731      25.94388008      14.48917103
C       -5.42985439       0.93090713       9.48331738
C       28.59549141      26.19622993      13.20381069
C       24.93345261      24.83970833      13.27574825
C       30.58483505      28.43058777       9.34271336
H       26.99174690      24.31610870      11.54341888
H       28.79525566      27.66863060      11.65553284
H       -6.89418983       1.22260416      11.85433006
H       30.50769615      26.77515221      10.86109734
H       28.21197128      26.09943962      10.10497856
H       27.54715919      29.42448616      12.83065701
H       -7.69937849      58.50492477      13.39032745
H       32.03452301      25.23544884       9.56490135
H       24.93971634      26.18633270      14.90775013
H       30.57908440      29.64265823       7.63479233
H       34.02846909      58.71140671       7.81866217
H       28.22045326      24.95720291      14.97390270
H       -5.99843502       0.27702990      10.10499668
H       28.99680328      25.38385201      12.63843536
H       25.46272850      25.57355690      12.59527588
H       29.94925690      29.10167122       9.83771610
C       22.59877396      23.92975426      17.38282013
C       24.04231262      26.93417358      19.75277328
C      -11.44228268       1.49487019      19.44172478
C       26.81503105      27.72908783      17.37529945
C       23.45303917      24.63401222      16.58379936
C       23.41807175      27.86784554      20.53975105
C      -12.23795700       0.55966848      20.04890442
C       27.38223839      26.72211456      16.61828995
C       23.79194832      24.30587196      15.30069542
C       22.92903900      27.57161140      21.81034279
C      -12.94629955       0.88505328      21.24399185
C       27.60924721      27.02956200      15.29198456
C       19.92697144      25.61891747      21.66425514
C       26.64477348      29.19111824      15.48496819
C       -8.43808746      58.82585144      15.99193287
C       23.88113785      25.35144424      21.58929825
C       -8.62352562       0.27513710      17.28179359
C       24.11296272      25.60560989      20.25726891
C       20.08258438      25.28366470      20.38299561
C       26.35072899      28.86333084      16.78357506
H       22.40837860      24.45705605      18.32365799
H       24.51533890      27.12228584      18.79459000
H      -10.91416836       1.18566298      18.62659454
H       26.57551002      27.55094337      18.43124771
H       24.00210571      25.43746758      17.03906059
H       23.15893936      28.89295387      20.18694305
H      -12.05823326      58.50812531      19.58013344
H       27.46683884      25.71552277      16.94711494
H       20.25671387      26.52095032      22.19836235
H       26.41442871      30.21244049      15.12090302
H       -8.59982300      57.80709076      15.60420036
H       24.01680756      24.35541344      21.93647194
H       -8.83753872      58.39503860      17.96247101
H       24.69278717      24.92030907      19.62846375
H       20.62742043      25.96578598      19.69539070
H       25.83341980      29.46629143      17.53045082
C       18.28366089      24.17046738      24.69168472
C       20.32342529      27.10432243      27.62880707
C       22.03222275       0.93572766      26.38080025
C       22.07477188      27.02524185      24.40290260
C       19.17280769      24.92766190      23.93126869
C       38.99665451      28.05424309       0.06673405
C       21.03705788       0.39242077      27.19895172
C       22.82762718      26.10300636      23.72966576
C       19.33491898      24.65573311      22.59772873
C       38.04024887      27.91789055       1.08598673
C       39.60311890       0.75422204       0.01647400
C       23.21789360      26.29554367      22.38600540
C       33.78453064      25.44759750       0.30931127
C       22.24257851      28.50903320      22.56750679
C      -13.85158730       0.01394268      21.89042091
C       37.45673370      25.79557800       0.19651720
C      -14.60675144       0.40594926      22.94209671
C       19.49217606      25.99129486      27.64350700
C       15.41236973      25.05552864      27.60143471
C       21.79681778      28.23903656      23.79424477
H       18.12742615      24.44006729      25.76283264
H       20.85230255      27.46605682      26.82253075
H       22.11427116       0.59109688      25.38581467
H       21.65152359      26.74183273      25.32972336
H       19.42638016      25.94811630      24.30744553
H       20.69227219      29.03382874      28.45173073
H       20.27078819      58.68783951      26.79391670
H       23.21122742      25.19140625      24.15536308
H       34.19395447      26.42475128       0.54545230
H       22.09169960      29.47660828      22.22498322
H      -14.04443836      57.97103119      21.47730446
H       36.89205933      24.88886070       0.18585896
H      -15.21461487      58.51670074      23.42041397
H       19.59152222      25.20273209      26.95341873
H       16.15728951      25.70498085      27.11756516
H       21.25968361      28.90388870      24.45417404
C       31.77629852       1.61319423       3.24956203
C       32.31366348       4.85077429       5.61361122
C       -2.91687155       7.24832249       5.19222546
C       35.75186920       4.63350201       3.16113806
C       32.70363998       2.43565917       2.70504665
C       31.60706329       5.76480389       6.36526823
C       -3.69088578       6.49415588       6.03631926
C       36.60509491       3.87834716       2.42656946
C       32.84766769       2.35538363       1.25903511
C       31.51437569       5.47140169       7.71362114
C       -3.86755681       6.83202839       7.41055441
C       36.88477707       4.21732473       1.03196359
C       29.12421799       3.48957133       6.22572088
C       35.59521484       6.26472807       1.36568236
C        0.06397403       5.68098545       0.83056360
C       32.71735382       3.30089092       7.46929693
C       -0.34874725       6.00797749       2.09604931
C       32.80990219       3.65508294       6.14019489
C       29.06314468       2.92358637       4.99442434
C       35.28654099       5.81150913       2.63468218
H       31.79743195       1.52196479       4.42859840
H       32.72399139       5.13742924       4.60507917
H       36.89078522       7.00640774       4.14059830
H       35.37799835       4.20124674       4.17068005
H       33.35570526       3.17070532       3.22785020
H       31.16220474       6.62170458       5.97446251
H       35.58272934       5.59454441       5.69770479
H       36.87722015       2.85833001       2.78034687
H       29.55634499       4.50020266       6.19629240
H       35.35444641       7.23699713       1.07812858
H       -0.03587507       4.68403244       0.35894921
H       32.97282791       2.38708377       7.88966560
H       -0.95670301       5.41853523       2.78571773
H       33.18693161       2.98488522       5.42143536
H       29.50996399       3.54218078       4.25455189
H       34.59489441       6.41278505       3.11264229
C       28.12029839       2.70656133       9.72318077
C       28.00940895       4.69857788      12.48998070
C       -7.71011591       7.36936426      12.91633892
C       31.45337677       5.00229120      10.51463795
C       28.69478607       3.42929339       8.64143181
C       27.10756302       5.44678354      13.25074196
C       -8.51435375       6.56000233      13.60779095
C       32.02606201       4.11363077       9.69725418
C       28.70930862       2.80995035       7.39342928
C       26.76572990       5.04971027      14.58315945
C       -9.00027370       7.04441309      14.83731365
C       32.05329895       4.28835440       8.27801704
C       24.43471336       2.75828004      14.49309921
C       30.91823006       6.49020195       8.59847450
C       -4.60765696       6.04896593       8.32018185
C       28.56797028       3.42701936      14.42788887
C       -4.96213913       6.49026871       9.54738808
C       28.77503777       3.76427078      13.13340473
C       24.40147781       2.79303503      13.13067627
C       30.97043800       6.24049330       9.95084000
H       28.01669693       3.11422658      10.66699314
H       28.09704018       5.00767040      11.43542099
H       -7.43724632       7.08977079      11.88337994
H       31.34692383       4.70152616      11.57720757
H       29.27668381       4.36477566       8.89110947
H       26.59523201       6.28298664      12.85757732
H       30.95769882       5.60659552      13.23540592
H       32.39429092       3.12142515      10.05769253
H       24.52423668       3.69725609      14.94224930
H       30.55097771       7.45846748       8.23606968
H       -5.18767786       5.07107592       7.91418982
H       29.23703575       2.77299047      15.02403450
H       -5.74562120       5.99291325      10.11026001
H       29.57898903       3.19905472      12.70590878
H       24.51230240       3.75089598      12.63759995
H       30.55926895       6.98794270      10.55561447
C       24.77559662       0.36141342      17.22393990
C       23.49298477       4.79781628      19.53123665
C      -12.27762032       7.55618906      19.58796692
C       26.37286186       4.37145615      17.29815102
C       24.58773232       1.52518797      16.52270317
C       22.82577515       5.55934858      20.43173409
C      -12.97266960       6.59258175      20.33333397
C       27.26561546       3.73889756      16.51319885
C       24.54916954       1.51107872      15.17803478
C       22.41044235       5.11253262      21.73201942
C      -13.39039803       6.86089563      21.63012886
C       27.45447350       3.98266959      15.16878510
C       19.59849739       3.41645384      21.57312584
C       25.91035080       5.85097694      15.41538620
C       -9.76874065       6.09449816      15.72136879
C       23.49030304       3.05126643      21.20047951
C       -9.80527496       6.32291317      17.06165314
C       23.88921738       3.51831484      20.00295830
C       20.05006409       3.17274618      20.27187729
C       25.75087929       5.55930996      16.74907112
H       24.89039040       0.39249238      18.23058510
H       23.78244591       5.01893520      18.48224831
H      -11.97439384       7.39271116      18.59391785
H       26.37055016       4.33333588      18.41864967
H       24.50153160       2.51107740      17.03225517
H       22.49621582       6.60381603      20.25410652
H       26.58438873       5.72601843      19.78437996
H       27.99301910       3.09933901      17.03607750
H       19.93994904       4.26090002      22.06774330
H       25.54031372       6.75580978      15.01287556
H       29.62651253       5.15366507      15.29026413
H       23.60572815       1.95693898      21.51804352
H      -10.28365803       5.56832838      17.66507721
H       24.45981216       2.83757734      19.40462303
H       20.63094330       3.87569427      19.75843811
H       25.16567993       6.24388170      17.30393791
C       17.52600670       1.63946700      24.26199532
C       18.47497749       4.82389545      26.92138672
C      -16.93267632       7.15048456      26.62008667
C       21.50691986       4.13791800      24.18924332
C       18.32412529       2.57827878      23.66512299
C       17.93977165       5.77636051      27.70616722
C      -17.52133751       6.24622059      27.38645172
C       22.23283386       3.31381059      23.34153557
C       18.88035965       2.47958517      22.31687164
C       36.41030502       5.45093822       0.56097358
C        0.79980862       6.62174034       0.12083922
C       22.74203873       3.79948401      22.12952232
C       33.75531387       3.19309759       0.62552351
C       21.70801544       5.94018841      22.61101723
C      -14.19249439       5.96607828      22.39777184
C       37.45497131       3.24350524       0.12720329
C      -14.61804295       6.20010185      23.63691521
C       18.79243088       3.58816743      27.37022781
C       15.19939709       2.99195075      27.82879639
C       21.29739380       5.51267862      23.89702225
H       17.03864288       1.75741649      25.15741158
H       18.60353661       5.14073467      25.87520409
H      -16.61460304       6.80381727      25.65835190
H       21.35570717       3.82787728      25.24613762
H       18.46811676       3.53113532      24.18591499
H       17.69210434       6.81116295      27.38634300
H      -17.81194115       5.20672941      27.06443214
H       22.38073540       2.25504327      23.58800888
H       34.26094055       3.96999097       1.20881772
H       21.28464317       6.81560230      22.10460472
H       25.33204079       5.09674120      21.77280045
H       37.58864212       2.16144729       0.47971457
H      -15.26419353       5.54109573      24.20405197
H       19.20394516       2.83151770      26.75062752
H       15.82202244       3.63384938      27.17183685
H       20.81689835       6.15232611      24.65943336
C       31.96538544       7.35603857       2.97380447
C       32.71851349      10.75360489       5.54746199
C       -3.34148979      12.79809093       5.34451246
C       35.76469040       9.97782707       3.25633550
C       32.68171692       8.20358181       2.17619777
C       31.97753525      11.51528645       6.43165350
C       -3.96604156      11.89001942       6.18436861
C       36.65875244       9.32002449       2.50433540
C       32.91868591       8.02448654       0.79233611
C       31.73338699      11.03933144       7.72004747
C       -4.13001204      12.22607517       7.58236742
C       36.89318085       9.58808422       1.17311716
C       28.96546936       8.73771191       7.13229132
C       35.44083405      11.48998737       1.47017610
C        0.02212923      11.44737720       1.35053158
C       32.82148743       8.92794514       7.14977217
C       -0.27821070      11.92605591       2.59625530
C       33.08297729       9.44924450       5.92842960
C       29.13955116       8.62012291       5.76167965
C       35.13697052      11.15912819       2.75201893
H       31.55790520       7.77021265       3.91478062
H       33.00268555      11.05939865       4.54606533
H       36.63798904      12.46249104       4.36153936
H       35.66255951       9.69550610       4.30765057
H       32.94548798       9.13860607       2.58590937
H       31.65196037      12.49604321       6.21445465
H       35.48672104      10.90686893       5.78433657
H       37.33450699       8.54265690       2.92160034
H       29.41949081       9.57915401       7.60332823
H       34.96700287      12.24647999       0.96698576
H       -0.33133513      10.39473343       1.01108766
H       33.04624176       7.95477533       7.46516085
H       -0.90766037      11.37526989       3.27350879
H       33.67539978       8.72360516       5.32587671
H       29.84415817       9.29968548       5.43258858
H       34.57188034      11.80332947       3.43126440
C       26.98091698       7.18087339       9.96144962
C       28.26702309      10.14281178      12.15566540
C       -7.64044523      12.70194912      12.73878002
C       31.40563393      10.05184078      10.35646915
C       27.87525749       8.06560326       9.34888554
C       27.61494446      11.03608894      12.89933968
C       -8.53179264      12.02957439      13.43345261
C       32.08203125       9.34691620       9.43493462
C       28.08292007       7.93865061       7.88797712
C       27.09768677      10.66383362      14.13412189
C       -8.95749664      12.45162487      14.77423382
C       32.26224518       9.80292606       8.11987305
C       24.14571953       8.86798191      14.35924530
C       30.95524216      11.66487885       8.73097897
C       -4.84816217      11.39461040       8.55111408
C       28.03719711       8.44185925      13.78628063
C       -5.16130638      11.78410339       9.82433510
C       28.43343163       8.79128456      12.56355953
C       24.41646004       8.71916008      13.06666374
C       30.75563049      11.21743107      10.01070309
H       26.72566795       7.33578348      11.01292515
H       28.73055077      10.42453003      11.25333691
H       -7.29243183      12.29186344      11.78494930
H       31.39120293       9.65327358      11.37874985
H       28.33813286       8.92967319       9.84969425
H       27.83165169      12.03524017      12.57774448
H       30.75695229      11.08927345      13.11784267
H       32.57267380       8.43710899       9.65175819
H       24.36721992       9.80543995      14.77486420
H       30.49740219      12.65383434       8.51346874
H       -5.13208199      10.39612198       8.31912422
H       28.26871109       7.46714544      14.04637146
H       -5.83120918      11.16194057      10.45285034
H       28.98996735       8.09183884      11.94550419
H       24.84043503       9.67197800      12.50925255
H       29.94713974      11.87423229      10.57510567
C       22.71252251       6.78007174      17.17292786
C       23.18885612       9.83378792      20.14170837
C      -12.29777145      12.90322781      19.73797798
C       26.44264221       9.89603519      16.77303696
C       23.24015427       7.92677116      16.45350266
C       22.61001396      10.84921169      20.88204765
C      -13.26760674      12.22313213      20.52469635
C       27.17546082       9.00886154      15.98561573
C       23.46875954       7.80973625      15.07063293
C       22.27375984      10.63037300      22.26972961
C      -13.41456413      12.50981331      21.91316414
C       27.34902382       9.33983612      14.61722851
C       19.48401451       8.90267563      21.42004395
C       26.34945107      11.55865955      14.98355198
C       -9.82980061      11.67022705      15.47031975
C       23.44306183       8.44674397      22.12619972
C      -10.09399414      11.95234203      16.79400063
C       23.58112717       8.64678574      20.79734802
C       19.78506470       8.54300690      20.13743210
C       26.00281525      11.14288235      16.26753426
H       22.62285042       6.88471365      18.21716690
H       23.54047966      10.03466129      19.11030388
H      -12.02837563      12.64245701      18.73797417
H       26.42897415       9.70116425      17.84231949
H       23.53824615       8.87163639      16.93225288
H       22.15102386      11.74834251      20.44737053
H       26.03268242      11.37428570      20.01782608
H       27.42028618       8.01588535      16.21114922
H       19.59722519       9.92492867      21.64222336
H       26.12392044      12.62666416      14.73200321
H       29.36486053      10.82685280      15.03649807
H       23.47642136       7.43211174      22.50945282
H      -10.80644131      11.29380035      17.21263886
H       24.06793404       7.98979568      20.11640739
H       20.11544800       9.34125423      19.49098778
H       25.59135437      11.86367893      16.99496651
C       17.60735130       7.71060324      24.35109520
C       18.54765892      10.26187134      26.98620605
C      -17.06577873      12.55222607      26.74198532
C       21.34493828      10.01530552      24.80394936
C       18.42296410       8.46404839      23.59779167
C       17.71062660      11.04353905      27.82504845
C      -17.95856094      11.83216286      27.55992317
C       22.21895218       9.13491631      24.17735481
C       18.77013588       8.05380726      22.28586197
C       36.19313812      10.68703270       0.58823806
C        0.58273590      12.35639668       0.31054604
C       22.67834854       9.42872524      22.85962868
C       33.67155838       8.90368176       0.04448001
C       21.45037460      11.57673645      22.92325783
C      -14.05680370      11.59173012      22.75064659
C       37.69030762       8.75492477       0.32133174
C      -14.37703800      11.98021603      24.01988983
C       19.05498695       9.06056499      27.54566956
C       15.16573715       8.76128292      27.28734779
C       21.01052666      11.28877735      24.22765923
H       17.30814171       7.85403109      25.33252335
H       18.91377068      10.76784325      26.06885719
H      -16.72675133      12.28825378      25.74848366
H       20.70410919       9.64098549      25.63449478
H       18.74053574       9.39111519      24.03792763
H       17.15504074      11.87897205      27.33161545
H       21.46587944      10.88377762      27.30424118
H       22.34623146       8.15362072      24.56785011
H       33.84541702       9.83275032       0.61478603
H       21.17786217      12.46077824      22.31412888
H      -14.59557056      10.77334881      22.31255531
H       37.97732162       7.80458450       0.82317960
H      -15.05114841      11.43046570      24.64197540
H       19.63239098       8.42873001      26.89211082
H       15.58515263       9.50929832      26.65663147
H       20.39617729      11.94214058      24.77139091
C       32.07547760      12.91541100       3.05519629
C       32.85604477      16.10689735       5.45777893
C       -3.17764688      18.19088936       5.55457973
C       35.57831192      15.69652176       3.18907833
C       32.79212952      13.75470924       2.24059320
C       32.06243896      16.83496857       6.25199509
C       -4.05364323      17.47947693       6.36876822
C       36.56417465      14.95737934       2.54173517
C       33.01395798      13.50419998       0.85342103
C       31.77530861      16.41088104       7.60161161
C       -4.27309608      17.83913994       7.69098663
C       36.80260468      15.22158337       1.15088415
C       29.02889061      14.44360828       7.31135273
C       35.44678879      17.17420197       1.25316751
C       -0.20567475      16.78864479       1.12627304
C       33.10254288      14.32158089       7.18890572
C       -0.52175587      17.11738777       2.40937686
C       33.28311539      14.84587193       5.90065479
C       29.34550285      14.06449604       6.04050827
C       35.08768845      16.82067108       2.50677800
H       31.75871468      13.13130569       4.08234978
H       33.13993835      16.41398621       4.51065874
H       -2.97519612      17.85242844       4.55206966
H       35.35743713      15.47813988       4.25607681
H       33.11528397      14.71003342       2.62371659
H       31.62684631      17.76507759       5.83073568
H       35.21006012      16.58694839       5.93627930
H       37.03488922      14.09966755       3.07830477
H       29.13719749      15.46946526       7.53364849
H       35.07192993      18.05574417       0.78762412
H       -0.49968421      15.78738022       0.82205433
H       33.32782364      13.28681755       7.58596039
H       -1.19379628      16.58846664       3.04884958
H       33.87327957      14.30987740       5.20499134
H       29.99152374      14.75375366       5.52370977
H       34.36370850      17.43983841       3.09268117
C       27.02823257      13.35324764      10.21662903
C       28.04903412      15.88857651      12.61021709
C       -7.92354250      18.31589699      12.54972744
C       31.03492737      15.42295742      10.09678650
C       27.65170670      14.16855240       9.37779331
C       27.35708427      16.76135445      13.40745640
C       -8.56235218      17.44829750      13.37481308
C       31.77897453      14.67436409       9.30267620
C       28.17788315      13.71093273       8.09281540
C       27.13948250      16.36464882      14.77388191
C       -8.83097553      17.75329399      14.70004177
C       32.25604630      15.14150143       8.03057384
C       24.44877243      14.39674759      14.45482540
C       30.93933296      17.18997383       8.43297863
C       -5.09562349      17.04819298       8.53126335
C       28.03510857      14.17566586      14.28079319
C       -5.38037062      17.45955086       9.81012440
C       28.27331734      14.55903816      13.00434017
C       24.76912498      14.08892822      13.16640282
C       30.72435761      16.81704712       9.78810692
H       26.60429955      13.74566269      11.18800068
H       28.38750267      16.30674553      11.64365005
H       -7.60902119      17.91411400      11.58850956
H       30.65488434      15.07286167      11.05836201
H       27.88112259      15.22523975       9.65388966
H       27.21547699      17.77674103      13.09656334
H       30.91047478      16.46184921      12.98660278
H       31.96435928      13.69120407       9.59904861
H       24.75728416      15.27146721      15.03267574
H       30.76375008      18.27957726       8.23657417
H       -5.32245350      15.98714542       8.33195782
H       28.39605141      13.13592434      14.59310818
H       -6.03917789      16.86204338      10.45967770
H       28.75498772      13.87821865      12.38903809
H       25.39521599      14.72516632      12.58596230
H       30.16708755      17.46129417      10.51220036
C       22.55001831      12.99281788      17.25332642
C       23.50320435      15.96562386      19.68066978
C      -12.29801464      18.32611275      19.94891357
C       26.79401207      15.67923450      17.45164871
C       23.23415947      13.91277218      16.56747818
C       22.75278473      16.79996109      20.53558922
C      -13.20330811      17.60715675      20.73169708
C       27.30856323      14.77305794      16.60337067
C       23.59852219      13.55404091      15.18600273
C       22.44331932      16.34028816      21.78440475
C      -13.53388119      17.97377014      22.09158897
C       27.51284790      15.11565590      15.22084522
C       19.70204163      14.31190014      21.69941521
C       26.52337837      17.29286385      15.70829201
C       -9.60434246      16.84530258      15.53971100
C       23.51408958      14.14738083      21.26136589
C       -9.87947178      17.20096588      16.83077621
C       23.74676895      14.59633732      20.05303192
C       19.97931862      13.85245132      20.37535095
C       26.38451004      16.97468758      17.05496597
H       22.33928490      13.23174572      18.32451248
H       23.74186897      16.38871193      18.68712616
H      -12.01127625      17.94745827      19.03711891
H       26.70970154      15.43286610      18.51028633
H       23.51987457      14.82574463      17.05327988
H       22.46627617      17.82770348      20.35214043
H       26.21429634      16.67818451      20.37598038
H       27.53726006      13.79256248      16.94142914
H       20.23675346      15.24489975      22.11874962
H       26.13184357      18.17891502      15.20141602
H       -9.90625763      15.88366222      15.18993568
H       23.64044571      13.09238052      21.50262833
H      -10.42759800      16.57399178      17.50179482
H       24.17128372      13.93508339      19.27010918
H       20.73091125      14.36439323      19.79920387
H       25.89179993      17.59563637      17.79650879
C       18.05924416      13.00900650      24.73153114
C       18.77035904      15.93893147      26.95003510
C      -16.89975739      18.23175240      26.70998955
C       21.78272820      15.23724937      24.30936241
C       18.92825890      13.74565411      23.93995476
C       17.89335060      16.72847748      27.68082237
C      -17.77786446      17.37460899      27.43174171
C       22.56105042      14.52762890      23.52208138
C       18.91344643      13.50181198      22.57813835
C       36.36346436      16.43495178       0.47585759
C        0.67465091      17.57950211       0.31820440
C       22.82266426      15.05803299      22.19207191
C       33.84137344      14.35014534       0.09470370
C       21.67563629      17.07608795      22.66020584
C      -14.22969246      17.05064201      22.91664696
C       37.52711487      14.35880566       0.31814119
C      -14.54947472      17.51865578      24.13944817
C       19.04067612      14.64496326      27.57422066
C       15.35591984      13.96472931      27.32174683
C       21.32152939      16.51144409      23.84580803
H       17.90568542      13.28598404      25.79132652
H       19.13208389      16.24831200      25.90005302
H      -16.53508568      17.80820465      25.79374504
H       21.47639275      14.94195938      25.29748344
H       19.28218842      14.64445305      24.43686485
H       17.64949989      17.72684669      27.25771713
H       21.65858459      16.54994202      26.75337028
H       22.79736137      13.53744984      23.75737762
H       34.11336136      15.22447205       0.61678940
H       21.19349670      18.05672646      22.50859261
H      -14.53020859      16.10240746      22.59051323
H       37.82561493      13.30448818       0.59964323
H      -15.00379658      16.77394104      24.79109001
H       19.58273315      13.97071457      26.92412758
H       16.09710121      14.63045883      26.79944038
H       20.72186089      17.02373314      24.51449203
C       31.88414955      18.57591248       3.27077675
C       32.85720825      21.10326767       5.78489065
C       -3.43516803      23.50532150       5.55095339
C       35.91498947      20.96286011       3.30017686
C       32.68139648      19.43334579       2.57322812
C       32.16816711      22.08699036       6.40748835
C       -4.10045433      22.69677734       6.46073246
C       36.65084457      20.19274139       2.41392183
C       32.94357681      19.18651962       1.19180202
C       31.69177246      21.87440681       7.74490118
C       -4.45699644      23.21733093       7.74055672
C       36.85775757      20.55617142       1.09462345
C       29.12414932      19.76596260       7.03052282
C       35.72500229      22.65291977       1.48942292
C       -0.26959276      22.56010818       1.20390332
C       32.71015167      19.62718964       7.60346746
C       -0.68545049      23.02302361       2.35382986
C       33.10118103      19.79288101       6.31353521
C       29.34834099      19.41269684       5.74806786
C       35.42016602      22.23098564       2.69827843
H       31.63784599      18.69709969       4.41743660
H       33.09011459      21.31183052       4.73070145
H       36.57850266      23.17245674       4.54575634
H       35.66355133      20.79463387       4.32972240
H       33.14689636      20.23813248       2.97962165
H       32.24987793      23.08657455       6.03546143
H       35.17408371      21.78146553       6.10128164
H       37.13689804      19.32985306       2.75812578
H       29.41362762      20.80858612       7.31647396
H       35.30862427      23.55558395       1.11316669
H       -0.51214921      21.58027267       0.84854442
H       32.93455887      18.66209984       8.09555912
H       -1.31576145      22.53756332       3.04879165
H       33.47825623      19.09864235       5.57295370
H       29.91691971      20.08380890       5.12036562
H       34.78265762      22.97419548       3.21643043
C       27.29925728      18.64578438      10.12674332
C       28.19261360      21.54069710      12.99766445
C       -7.72955656      23.99015999      12.87250710
C       30.78452873      21.42565537      10.31654549
C       28.04042816      19.41316414       9.26094055
C       27.60574150      22.37764168      13.90576363
C       -8.50905895      23.16499519      13.69999218
C       31.40277100      20.41344070       9.66850281
C       28.31488800      18.97953606       7.96133757
C       27.27861404      22.02253151      15.24888134
C       -9.01905441      23.69563866      14.92606258
C       31.85468292      20.56307220       8.32421875
C       24.33237267      20.00322151      14.76000690
C       31.04388618      22.94836044       8.49756622
C       -5.11076355      22.42131233       8.68598080
C       28.30209732      19.90542030      14.83155441
C       -5.29788828      22.78450012       9.96650314
C       28.60238457      20.25922012      13.54007149
C       24.74879074      19.66226578      13.53702450
C       30.56355095      22.70661926       9.70002174
H       27.17445564      18.91506577      11.19609070
H       28.46272659      21.93935013      11.95772457
H       -7.21851778      23.61000824      11.98797226
H       30.43704605      21.30218315      11.29912090
H       28.32678986      20.37764931       9.57892799
H       27.27227211      23.40161514      13.62494659
H       -8.83121872      22.13683128      13.62287998
H       31.49083328      19.44233513      10.21879387
H       24.57836723      21.06587601      15.08737755
H       31.05354881      23.90568733       7.95255470
H       -5.35961533      21.37751198       8.46750450
H       28.57788467      18.90528297      15.24754715
H       -5.66348028      21.98640060      10.66009808
H       29.19096756      19.54968071      12.99807453
H       25.49445152      20.31942177      13.02294827
H       30.24198723      23.52863121      10.26606083
C       22.40175247      18.40865707      17.58580780
C       23.45724106      21.17967796      19.76403046
C      -12.48657036      24.12197495      19.61522102
C       26.31292915      21.09819222      17.74562263
C       23.18932915      19.28562927      16.88746834
C       22.86676216      22.16549110      20.54835510
C      -13.16619015      23.27370453      20.45034790
C       27.05073738      20.26096535      16.95226097
C       23.58323669      19.03390503      15.53521538
C       22.60871315      21.85093498      21.90894508
C      -13.44347858      23.53759384      21.82890892
C       27.59886169      20.78143311      15.75895977
C       19.79156685      20.01230431      21.71767426
C       26.52879333      22.85059738      16.03983879
C       -9.64917469      22.87017250      15.84916401
C       23.56512642      19.70203781      21.65528107
C       -9.92729759      23.32099915      17.04567337
C       23.84438324      20.00405693      20.36606979
C       20.09123802      19.66673851      20.42066765
C       26.08344650      22.46057892      17.22902298
H       22.04475594      18.68304253      18.60397339
H       23.80382919      21.44065857      18.69367599
H       27.39876366      23.97067070      18.57607269
H       25.70931244      20.77340698      18.59645844
H       23.37351799      20.28753471      17.33333778
H       22.63117981      23.20435905      20.34123993
H       26.16661644      22.34907722      20.04234886
H       27.22964287      19.25872421      17.12964630
H       20.26302719      20.93704414      22.08874702
H       26.37418938      23.85308647      15.66599846
H       -9.68437004      21.84699631      15.69795036
H       23.84804344      18.66296387      22.07153130
H      -10.44795036      22.70711136      17.80243874
H       24.54053307      19.36293602      19.81594086
H       20.65976906      20.30262184      19.83250618
H       25.48033524      23.17194176      17.82643890
C       18.03084946      18.60385132      24.79098701
C       18.85887337      21.43817711      27.02915955
C      -16.90168762      23.87258148      26.87400246
C       21.93453979      21.26324463      24.54388428
C       18.80363464      19.46717072      24.07344818
C       18.14244270      22.24970818      27.85594177
C      -17.76417160      23.07300949      27.62682915
C       22.57975388      20.37803459      23.79213333
C       19.09966469      19.15457726      22.64623451
C       36.49759674      21.85588264       0.64716291
C        0.57317668      23.36665153       0.37848556
C       22.90164375      20.63016891      22.48457909
C       33.87000656      20.01717377       0.57194209
C       22.11414528      22.92415619      22.78435898
C      -14.10054970      22.61223984      22.60782623
C       37.66189194      19.72691536       0.25812536
C      -14.50357914      22.96592140      23.88651085
C       19.33308411      20.19706345      27.52737045
C       15.46505260      19.76002502      27.81991768
C       21.68951607      22.55948067      24.00091934
H       17.67268181      18.86252785      25.80702591
H       19.18773842      21.75424004      26.06410027
H      -16.64603996      23.46948433      25.92838097
H       21.71621323      20.79546165      25.52378082
H       19.32733154      20.31192780      24.53998947
H       17.91144180      23.17093086      27.36640549
H       21.59677887      22.20633125      27.20260429
H       22.71309280      19.38907051      24.24351120
H       34.25081635      20.74273300       1.26119387
H       21.79694939      23.92082596      22.43708420
H      -14.45046234      21.68214798      22.30448532
H       38.01718140      18.75194931       0.60200948
H      -15.28727341      22.30513763      24.31352234
H       19.91771889      19.56434822      26.86469460
H       16.25848579      20.37339592      27.30846596
H       21.30661011      23.42219543      24.58620262
C       -0.32502455      24.37977791       2.76923561
C        0.35007393      26.33631325       5.39049578
C        4.03992796       1.37550461       5.15714741
C        3.40180445      26.88246727       2.58339763
C        0.45821351      25.17595863       2.05690289
C       -0.50309515      27.24110222       5.97979021
C        3.25097466       0.62398273       6.02353048
C        4.26165533      25.96875763       2.03014493
C        1.00707841      24.67092133       0.82842666
C       -0.74000549      26.92722702       7.33810091
C        3.06971169       1.07275832       7.34653187
C        4.94350719      26.32629013       0.82191581
C       -3.42225218      25.30482483       7.16405821
C        3.95783591      28.60822678       1.00878894
C        6.63621521       1.19260025       0.89154226
C        0.58329821      24.95189667       7.30526638
C        6.42173338       1.52333784       2.18880868
C        0.97940129      25.25435066       6.07972050
C       -3.05290937      24.75897408       5.96672010
C        3.22715616      28.23675537       2.11818552
H       -0.71196812      24.75172997       3.76053905
H        0.56238943      26.55144501       4.36711216
H        4.16057730       1.03594923       4.16764688
H        2.89509463      26.66010666       3.51110029
H        0.71433926      26.16594696       2.42955852
H       -0.92859352      28.01354408       5.33605433
H        2.77057242      58.53386307       5.83364630
H        4.21599674      24.96069527       2.35589933
H       -3.14250541      26.30874252       7.25821638
H        3.79441786      29.63797379       0.61747533
H        6.02411366       0.39772603       0.37915412
H        0.94625610      24.08724022       7.87911177
H        5.50654173       1.15476274       2.67361593
H        1.64993334      24.62798691       5.60259438
H       -2.52867103      25.51748657       5.33727980
H        2.72458696      28.95256615       2.73936820
C       -4.94603014      24.11941910      10.43132496
C       -3.66270399      26.72413063      12.85601807
C        0.01418647       2.03231192      12.27839470
C       -1.30415380      26.52940750      10.06298256
C       -4.36717796      24.84215927       9.48156071
C       -4.37028646      27.68179321      13.57985020
C       -0.92046124       1.30948544      12.99254990
C       -0.60039616      25.64063454       9.40978432
C       -4.06880474      24.48406410       8.11797428
C       -4.91262341      27.37463951      14.83351994
C       -1.04550409       1.59995925      14.38829327
C       -0.28030980      25.83539772       7.97000170
C       -7.86463833      25.87239647      14.28681564
C       -1.56263304      27.76977348       8.09551430
C        2.24013233       0.40653926       8.22441292
C       -3.92428136      25.04481888      14.63148212
C        2.05492139       0.87734926       9.49912071
C       -3.47145939      25.41786957      13.36707687
C       -7.53278923      25.36352539      13.08303738
C       -1.92521572      27.59915161       9.36732292
H       -5.17551708      24.57378006      11.36808681
H       -3.29759598      27.08911896      11.85636330
H        0.08552132       1.78324723      11.27456474
H       -1.32493079      26.47645378      11.17402649
H       -4.01179743      25.92477798       9.68071079
H       -4.44952869      28.71432495      13.20761871
H       -1.41801608       0.46963784      12.55971527
H       -0.22279474      24.69476509       9.82917976
H       -7.74875212      26.84872818      14.68731499
H       -1.91779685      28.64363098       7.54199219
H        1.78751051      58.34081650       7.95005369
H       -3.77405167      24.05858421      14.98919487
H        1.31062782       0.41424924      10.14055252
H       -2.86082816      24.74919319      12.87738419
H       -7.02687120      25.95309067      12.29061890
H       -2.59952092      28.28690910       9.83884621
C       -9.64307117      24.63695335      17.37059402
C       -8.81817436      27.36852455      19.54636002
C       -5.47868824       1.60353029      19.44177055
C       -5.79810810      26.60088158      17.41457748
C       -8.98122025      25.43165779      16.53332329
C       -9.61110973      28.26346207      20.31777000
C       -6.24810791       0.76708221      20.23499107
C       -4.99862671      25.77297020      16.71826172
C       -8.69178772      25.03178597      15.18999290
C       -9.88460922      27.93872261      21.71691132
C       -6.26039505       1.04958630      21.68972206
C       -4.68983078      26.05596733      15.32093716
C      -12.32328510      25.61664581      21.47605896
C       -5.75198603      28.25497055      15.64827633
C       -1.84403563       0.66959512      15.11187458
C       -8.62498665      25.79809189      21.44350052
C       -2.15171885       0.88167942      16.42956352
C       -8.35895729      26.18538284      20.12685966
C      -11.99808788      25.32242775      20.16376305
C       -6.23556328      27.90164948      16.89306450
H      -10.01439095      25.02301407      18.34504509
H       -8.60036373      27.51428795      18.43490982
H       -5.41779327       1.36399651      18.34161377
H       -5.96723223      26.45388603      18.43320465
H       -8.73259068      26.48889160      16.72170067
H       -9.92005730      29.21417046      19.88401031
H       -6.86824894      58.84979630      19.98395348
H       -4.85936832      24.71223640      17.09948921
H      -12.06849670      26.62388992      21.91986084
H       -6.09118891      29.24526215      15.26372051
H       -2.08231091      58.70087814      14.53247166
H       -8.30355930      24.80545044      21.79833603
H       -2.63248634       0.10666118      17.09232330
H       -7.83823013      25.36090851      19.56516266
H      -11.40843105      26.06765366      19.66022301
H       -6.91561747      28.57012558      17.40589142
C      -14.34840488      24.28347397      24.35403442
C      -12.66744423      27.04478645      26.95103455
C       -9.39145660       1.46561825      26.87456703
C      -10.33304119      27.20911026      24.41283226
C      -13.46391106      25.12625694      23.68348122
C      -13.33250713      27.97631073      27.70438576
C      -10.40765858       0.93836033      27.53355408
C       -9.65809536      26.39161110      23.64165497
C      -13.05163383      24.80176544      22.36915016
C        4.78858233      27.62701416       0.30135599
C        7.81587744       1.53546727       0.20147605
C       -9.38199043      26.67001724      22.24636459
C        1.85816920      25.56612778       0.04186765
C      -10.63035202      28.78547859      22.59034920
C       -7.02774477       0.24629925      22.58520699
C        5.76805067      25.42398643       0.06865276
C       -7.19324255       0.71158290      23.85343742
C      -12.53020573      25.73935890      27.38509560
C      -16.47587585      25.14838791      27.38795471
C      -10.83778667      28.46288109      23.94538879
H      -14.74386883      24.64386940      25.28365135
H      -12.43525219      27.23079491      25.87981796
H       -9.07394028       1.06688392      25.96028137
H      -10.62592125      26.89730072      25.35768318
H      -13.27014923      26.04252434      24.16327095
H      -13.48313808      28.87198067      27.15840149
H      -10.93185902       0.13161696      27.04597473
H       -9.36731052      25.31814384      23.97183990
H        2.18791318      26.61913872       0.21987788
H      -11.00299168      29.72346306      22.19139099
H       -7.56807232      58.35380554      22.17315102
H        5.90604401      24.44830704       0.44846350
H       -7.88460112       0.10660981      24.45234299
H      -11.97031498      24.99020004      26.93751526
H      -15.98746109      25.92927551      26.81396294
H      -11.43996811      29.14117432      24.53436279
C       -0.50205433       1.72096193       2.67581272
C        0.81107992       4.70010281       5.27778244
C        4.79744482       7.09796000       5.56891680
C        3.40531588       4.08413744       2.63081145
C        0.40082794       2.32734036       1.90477145
C        0.15659671       5.51796293       6.11791372
C        3.95663047       6.23343706       6.13123941
C        3.85155082       3.24251437       1.64292800
C        0.62329859       1.88753092       0.48091495
C       -0.30771452       5.13011742       7.38064957
C        3.65381670       6.52528381       7.51563025
C        4.35885525       3.75126719       0.41950735
C       -3.07324123       3.45641232       7.18474817
C        3.89954352       6.06334543       1.34666777
C        7.36482906       6.02141666       1.35080671
C        0.54213029       2.92751813       6.89644003
C        7.05406761       6.38620806       2.63110280
C        1.02706742       3.35400748       5.67658901
C       -2.76096368       3.19329882       5.85690069
C        3.40014386       5.44341755       2.45703626
H       -0.56984508       2.02584553       3.72750711
H        1.10948098       5.13184977       4.31567144
H        5.05478859       7.01594305       4.52761459
H        2.95670485       3.72704148       3.55117559
H        0.98950773       3.13195443       2.28310561
H       -0.13347059       6.54087067       5.75283670
H        3.56904316       5.36021709       5.67188454
H        3.70367193       2.13686442       1.74495089
H       -2.64305639       4.36627913       7.67510414
H        3.94769168       7.15790892       1.28018141
H        6.86651564       5.19473600       0.85755432
H        0.46836641       1.82972836       7.12475920
H        6.43352842       5.68662930       3.24583960
H        1.59343147       2.68916655       5.09594536
H       -2.14990211       3.85326147       5.35927677
H        3.06930351       6.04516077       3.28688192
C       -4.90572500       2.06844974      10.14411068
C       -3.92269516       5.05491114      12.57223415
C        0.22380206       7.50905371      12.53492069
C       -1.19615817       4.23796749       9.97145081
C       -4.13991499       2.91525173       9.38442707
C       -4.61382580       5.89421511      13.29712868
C       -0.50603044       6.60099220      13.28417110
C       -0.49266073       3.39672732       9.16060352
C       -3.92046714       2.65305114       7.97088575
C       -4.97669935       5.50135279      14.62571812
C       -0.74000633       6.79830885      14.73536301
C       -0.09868499       3.77162123       7.85118294
C       -7.51458788       3.22184324      14.57014656
C       -0.89705414       5.99916697       8.27372074
C        2.72660017       5.67246056       8.23635578
C       -3.83352208       3.46801066      14.35433006
C        2.36900377       5.96602774       9.49175262
C       -3.36712933       3.83716679      13.12101746
C       -7.16740131       2.85449457      13.23033047
C       -1.35150397       5.62491655       9.47827148
H       -5.04263353       2.21550846      11.18732834
H       -3.67863178       5.22471952      11.53317356
H        0.30897626       7.25882483      11.50040627
H       -1.54685652       3.95534420      10.98775101
H       -3.62207365       3.73945427       9.79881477
H       -5.14500189       6.76548719      12.79352856
H       -0.90431839       5.71925402      12.73462105
H       -0.28449118       2.42530131       9.32852173
H       -7.46360779       4.20369864      15.02662945
H       -0.82026428       7.01623106       8.01943398
H        2.33178306       4.77050066       7.70167589
H       -3.48771930       2.48098254      14.66113567
H        1.73683190       5.30062151      10.07164574
H       -2.84448695       3.16264224      12.49835873
H       -6.77660608       3.65297794      12.62460899
H       -1.78474641       6.40364170      10.05998993
C       -8.57617950       1.61460197      17.74499702
C       -8.38200951       4.97904205      19.96615982
C       -4.51414680       7.33523560      19.84788513
C       -5.80026197       4.78647518      17.25124741
C       -8.11618137       2.60144997      16.87443733
C       -9.04635906       5.84279156      20.78160286
C       -5.24960899       6.50135183      20.56026840
C       -5.10769892       3.92029262      16.48590660
C       -7.90041924       2.24993825      15.49464798
C       -9.56453896       5.47693777      22.04980659
C       -5.60187721       6.82645845      21.90440941
C       -4.56879807       4.26663160      15.18612003
C      -12.26367188       3.20310712      20.91752434
C       -5.63221931       6.42949772      15.43723679
C       -1.55466282       5.88890553      15.40280437
C       -8.55342197       3.23419452      21.58646393
C       -1.98395729       6.18456984      16.63760757
C       -8.08923626       3.61457682      20.36112976
C      -11.59087563       2.86370230      19.71853256
C       -6.01154280       6.05928612      16.77043724
H       -8.68805504       1.81503618      18.84142685
H       -7.77043295       5.25921535      19.10173035
H       -4.27523279       6.99497223      18.78773117
H       -6.15347481       4.42017365      18.17814636
H       -7.99111843       3.57147861      17.12146950
H       -9.12842083       6.87870598      20.42998886
H       -5.60915613       5.57666159      20.09917831
H       -4.87995911       2.93751669      16.85657501
H      -12.32174873       4.18246508      21.25436783
H       -5.84276962       7.38634682      15.04519463
H       -1.87257481       5.00887299      14.95436764
H       -8.26481628       2.27369547      22.08903503
H       -2.63397932       5.51466179      17.11565971
H       -7.57297754       2.95535493      19.70125008
H      -11.05518723       3.63189411      19.21931839
H       -6.42284393       6.76001453      17.50090408
C      -14.30569649       1.66325092      23.53694344
C      -13.31596088       4.95881224      26.65267372
C       -9.21092796       7.34246731      27.06626701
C      -10.50020981       4.50278759      24.52760315
C      -13.50994682       2.57784200      22.88296127
C      -13.88879490       5.69072294      27.59385300
C      -10.12232304       6.56848288      27.73500824
C       -9.63180351       3.70634580      23.72517586
C      -12.92670441       2.24528480      21.64665413
C        4.38185406       5.22182608       0.29034469
C        8.20754910       6.89276075       0.54817706
C       -9.24272346       4.14323759      22.43744087
C      -17.22061539       2.48781991      28.10620117
C      -10.14821625       6.36567736      22.92989159
C       -6.32520342       5.89397955      22.63620567
C      -13.97131729       2.96514702      27.90836906
C       -6.66543198       6.18520737      23.96878624
C      -13.46540165       3.52592444      26.79125595
C      -16.81341362       1.90030587      26.90305519
C      -10.62327194       5.87854767      24.13392830
H      -14.77987862       1.93289840      24.52449226
H      -12.88744831       5.40230083      25.74292564
H       -9.00158405       7.23650265      26.06342125
H      -10.81318569       4.20449734      25.55241013
H      -13.38384438       3.55394745      23.29836273
H      -13.80392838       6.80539751      27.39209747
H      -10.66269016       5.67006159      27.28235054
H       -9.47788334       2.61829400      23.93301582
H      -16.81979752       3.48911715      28.34790421
H      -10.37650776       7.37279034      22.64970207
H       -6.58465004       4.98257446      22.19370079
H      -13.99512672       1.84924662      27.87832069
H       -7.23412514       5.43356514      24.61316490
H      -12.80022907       2.96341848      26.13144112
H      -16.05230713       2.22966671      26.23493958
H      -11.07437706       6.61898375      24.87303925
C       -0.02275480       7.33093691       2.67065525
C        0.98831350      10.03657150       5.20785046
C        5.02496099      12.98694897       5.52002096
C        3.82463408      10.07768536       3.12137389
C        0.70563251       8.21430683       1.98318565
C        0.27116933      11.02197742       5.90914106
C        4.28129292      12.01162052       6.08602619
C        4.69564819       9.24056244       2.42892575
C        1.02393258       7.87917376       0.66858053
C       -0.09711862      10.82902336       7.30418587
C        4.05670214      12.22309303       7.46796894
C        5.09414577       9.67242432       1.12128615
C       -2.56815481       8.85262775       6.99761152
C        3.77212667      11.66443062       1.33796072
C        7.87301493      11.40871525       1.41384447
C        1.08012342       8.55053711       7.17338753
C        7.53917027      11.80187893       2.71985388
C        1.31869376       8.75405884       5.78628159
C       -2.25646734       8.46366692       5.72122383
C        3.35332990      11.27213097       2.61143637
H       -0.38503999       7.66189575       3.66353297
H        1.20578933      10.28655148       4.19575787
H        5.27499866      12.81126595       4.48491764
H        3.36094117       9.69705391       4.02036667
H        0.86961669       9.21805573       2.36917472
H        0.00153747      11.92878532       5.37060833
H        3.87167001      11.11007500       5.58525801
H        4.86940813       8.20786095       2.69585013
H       -2.22955847       9.76156521       7.41801977
H        3.31719112      12.55856419       1.08213866
H        7.48315334      10.54410648       0.93132526
H        1.47432995       7.70710373       7.66944122
H        6.83065176      11.03007317       3.09878182
H        1.88937032       7.99585056       5.35413456
H       -1.48076725       9.03027439       5.20299435
H        2.60772157      11.82597542       3.16616440
C       -4.45001125       7.69689941       9.99447536
C       -3.93518138      10.14839935      12.71476936
C        0.17879894      12.57516575      12.43732643
C       -0.52056330      10.21632767       9.98714161
C       -3.62231159       8.50051594       9.18272400
C       -4.60378504      11.02226543      13.49064255
C       -0.45960310      11.74568367      13.33559132
C        0.13976794       9.32527161       9.23189735
C       -3.37856174       8.07037640       7.89901781
C       -4.88730574      10.85027695      14.87548161
C       -0.74653083      12.13538265      14.64018917
C        0.29963773       9.55394459       7.85884047
C       -7.64746761       9.02976704      14.62357616
C       -0.70627850      11.77699852       8.14820194
C        3.35465312      11.28517246       8.24323463
C       -3.61216283       8.72700977      14.64651108
C        3.06076598      11.43286705       9.58212376
C       -3.39238977       8.99588585      13.35537434
C       -7.20551014       8.59257984      13.39589405
C       -0.96230572      11.45554829       9.46321201
H       -4.77953959       8.08799171      10.96777534
H       -3.75095201      10.33719730      11.61270237
H        0.55909622      12.09651470      11.51948452
H       -0.89084381       9.97392941      10.93478870
H       -3.37724686       9.46761799       9.50288296
H       -4.84154415      11.99040794      13.11101723
H       -0.71550500      10.80073929      12.96599674
H        0.20585184       8.29611397       9.65846825
H       -7.46320677       9.96353149      15.01572037
H       -1.06934822      12.73187828       7.89850092
H        3.04976249      10.27601528       7.81791258
H       -3.05320001       7.89158440      15.09599495
H        2.44510984      10.65629005      10.06687546
H       -2.67225313       8.34077263      12.76623058
H       -6.56710625       9.14888859      12.76127720
H       -1.47622526      12.15216923      10.15954018
C       -9.41928577       7.58304834      17.59568977
C       -8.35132599      10.58380985      19.97476768
C       -4.61427879      13.10597324      19.74454689
C       -5.35696840      10.14019012      17.60638618
C       -8.83622646       8.54313374      16.74327660
C       -9.08107471      11.34492397      20.84036255
C       -5.40624285      12.35510731      20.53988075
C       -4.46425390       9.39171600      16.85172653
C       -8.50324535       8.21627331      15.41023636
C       -9.36217117      10.91297340      22.18022537
C       -5.59824753      12.57130909      21.95615005
C       -4.30446959       9.68346119      15.45566177
C      -12.12659073       8.99017239      21.53562927
C       -5.58962727      11.71386433      15.64927959
C       -1.37437892      11.30873871      15.59801292
C       -8.10910606       8.93232536      21.63024330
C       -1.76337850      11.77344322      16.81034851
C       -7.87825918       9.29845142      20.33551216
C      -11.84143639       8.68250370      20.24067497
C       -5.85977840      11.35199070      17.00939560
H       -9.74867630       7.98468399      18.51446533
H       -8.27935982      11.01327705      19.02474976
H       -4.31220102      12.86322594      18.71737099
H       -5.64347219       9.94442558      18.61719322
H       -8.53799725       9.58326435      17.10331917
H       -9.52538204      12.20827389      20.43348503
H       -5.88470030      11.48160172      20.05072784
H       -4.04778910       8.42549133      17.20450783
H      -11.84574032       9.93921280      21.96549225
H       -6.04957962      12.64402390      15.30603409
H       -1.76403320      10.41132355      15.14208508
H       -7.86749315       7.91478014      21.95061874
H       -2.23717499      11.18002319      17.52788353
H       -7.59879446       8.68027306      19.53588676
H      -11.35726547       9.45032787      19.70149422
H       -6.49172926      12.03428841      17.55146790
C      -14.24001503       7.45821476      24.25103951
C      -13.06024647      10.55981159      27.03849220
C       -8.92730427      12.74256897      26.99974442
C       -9.74533939       9.90481758      24.72017288
C      -13.40566158       8.32472324      23.53782082
C      -13.88381863      11.28352451      27.81568909
C       -9.57774925      11.84462738      27.79830360
C       -8.87959766       9.31101418      23.90807915
C      -12.97148514       8.03201389      22.24080467
C        4.69430971      10.91848660       0.65208220
C        8.72222424      12.21294022       0.55435860
C       -8.74554634       9.76137352      22.56883240
C      -16.96031380       8.79883575      28.42568779
C      -10.32204819      11.62861443      23.07563782
C       -6.39737844      11.70312977      22.74120903
C        5.85409594       8.91923428       0.23853365
C       -6.60990715      12.03960037      24.06233788
C      -12.54839230       9.37165928      27.56516266
C      -16.67012024       8.52657413      27.17395401
C      -10.43849468      11.08234787      24.36858749
H      -14.56479454       7.79331493      25.25973701
H      -12.80127621      10.77506542      26.03582573
H       -8.67279816      12.52829075      26.01609802
H      -10.03474522       9.48528481      25.70352173
H      -13.13237000       9.22930336      23.99120331
H      -14.47255993      12.08481598      27.34293747
H       -9.72465420      10.77779293      27.41399384
H       -8.53258419       8.33309078      24.19045258
H        2.10332036       9.76185131       0.39439690
H      -10.69705391      12.53129292      22.64438629
H       -6.68355179      10.75179863      22.37906456
H        6.24503565       7.98689795       0.77918631
H       -7.15526581      11.38059235      24.79962540
H      -12.05454445       8.62306309      26.89436913
H      -16.01458549       9.23174763      26.70768738
H      -11.06168175      11.60883522      25.09311676
C        0.28271601      13.22954369       2.98940110
C        1.06842327      15.43889046       5.51204014
C        4.91734409      18.13173676       5.37633133
C        4.00819016      15.63705158       2.83913374
C        0.94255543      13.98368549       2.04485774
C        0.20185299      16.34870529       6.10771322
C        4.32853270      17.26251984       6.23451757
C        4.89067650      14.83444691       2.12868667
C        1.11274159      13.60021496       0.71726573
C       -0.00363933      16.25061989       7.47628450
C        4.03620386      17.70193100       7.50126457
C        5.14135027      15.11960506       0.81061596
C       -2.84879947      14.24094868       7.20912075
C        3.73448825      17.12808228       0.92538226
C        7.88395882      16.87106895       1.45576310
C        1.35676849      14.19895267       7.56217146
C        7.58108091      17.16825485       2.74151206
C        1.69830525      14.37350464       6.21775722
C       -2.74469900      14.00682449       5.87316656
C        3.52988935      16.82144737       2.24939752
H        0.24202633      13.68794727       4.01180315
H        1.54263377      15.67590618       4.53834105
H        5.12053299      17.95011520       4.31255007
H        3.84334803      15.30098534       3.85053515
H        1.51204383      14.82959843       2.29245567
H       -0.00937672      17.28033447       5.58492661
H        4.07566071      16.23868561       6.01607990
H        5.35267925      14.02145672       2.59173417
H       -2.24216366      15.02174759       7.61345530
H        3.37840486      18.11188698       0.43890467
H        7.62228823      15.95110321       1.03070354
H        1.75295401      13.35730457       8.13033867
H        6.83172941      16.67045784       3.31688309
H        2.42989016      13.77694702       5.76432848
H       -2.11172509      14.59869194       5.29786158
H        2.91400552      17.56303215       2.78038454
C       -4.69168997      13.04471588      10.24727917
C       -3.82262063      15.82447338      12.45121670
C        0.24087217      18.34755516      12.66458607
C       -0.70224166      15.76159477      10.18132496
C       -3.88423848      13.71856976       9.42146397
C       -4.45358801      16.72159195      13.25060177
C       -0.61226451      17.52146339      13.41201878
C        0.02345390      14.85916519       9.51453686
C       -3.63881612      13.38143730       8.08148384
C       -4.66630650      16.43971062      14.60156727
C       -0.97079116      17.74384308      14.76424408
C        0.46581474      15.05622387       8.13931561
C       -7.36728668      14.37672043      14.63416672
C       -0.82441598      17.16901398       8.13214779
C        3.39404035      16.88067627       8.40519428
C       -3.50279593      14.25991821      14.20531178
C        3.18167257      17.19152260       9.72472954
C       -3.46103144      14.57335663      12.83179474
C       -7.06237745      13.85440445      13.34591675
C       -1.18347740      16.89869118       9.41787910
H       -4.87130499      13.46852303      11.27286530
H       -3.46845365      16.14240265      11.48942375
H        0.44040620      17.94669533      11.66982746
H       -0.87364429      15.54265404      11.16832352
H       -3.33012486      14.63061142       9.63274765
H       -4.77175713      17.68047905      12.90763092
H       -1.16149187      16.61694717      12.93319702
H        0.18093793      13.90808010      10.01241112
H       -6.92035723      15.27324104      15.23933601
H       -1.12202442      18.11449051       7.69516182
H        3.08424735      15.93745804       7.99158049
H       -3.10481644      13.42445183      14.60871124
H        2.51510072      16.49587440      10.26148129
H       -2.96287203      13.82065296      12.21194744
H       -6.38775921      14.41433620      12.73744583
H       -1.98002553      17.49508667       9.89271259
C       -9.57018375      13.08811569      17.46445274
C       -8.45016289      16.15910721      19.65759087
C       -4.46388578      18.41350746      19.79324341
C       -5.09925032      15.65876865      17.22168159
C       -8.69456100      13.82512188      16.74777222
C       -9.44225502      16.82770348      20.45053864
C       -5.21047068      17.54426765      20.55157852
C       -4.40179014      14.74307728      16.50792122
C       -8.35652828      13.59236622      15.38686180
C       -9.58057308      16.41293335      21.72510338
C       -5.56105185      18.04470253      21.84303093
C       -4.24144411      15.12755299      15.06732464
C      -12.15637016      14.44244289      21.63434219
C       -5.48304129      17.24477196      15.46825027
C       -1.62412202      16.85926056      15.63288784
C       -8.30827236      14.39523506      21.31940079
C       -1.97887266      17.12986374      16.98873711
C       -8.02346611      14.88529587      20.07389832
C      -11.74750519      14.03845024      20.38157463
C       -5.69070101      16.81599998      16.70077896
H       -9.90876770      13.25212288      18.53636551
H       -8.33584023      16.62092781      18.71528625
H       -4.14217949      18.11800194      18.78076363
H       -5.13823175      15.55157757      18.25350571
H       -8.10814381      14.65769577      17.24282455
H       -9.90925789      17.76910400      20.17441750
H       -5.53878880      16.53826523      20.21410942
H       -4.16807127      13.74816608      16.80219460
H      -11.68983650      15.30252075      22.04068947
H       -6.03823137      18.11939812      15.12815285
H       -1.84416604      15.85059357      15.28729820
H       -7.91258001      13.47468662      21.73930931
H       -2.38824654      16.28429413      17.51127434
H       -7.49298668      14.32788086      19.34915733
H      -10.95665455      14.60506725      19.86581421
H       -6.38714457      17.32490349      17.31680870
C      -13.83374786      13.15582466      24.65083885
C      -13.15029049      15.75591946      26.60009766
C       -9.24224186      18.21404266      26.97919846
C       -9.83993530      15.65842724      24.49742699
C      -13.08726501      13.94651127      23.87447739
C      -13.92721272      16.56870270      27.35210991
C       -9.97494984      17.39130783      27.80614853
C       -9.10874748      14.89714336      23.62800217
C      -12.93532944      13.69115162      22.47148132
C        4.63936853      16.29438782       0.20154339
C        8.62648582      17.79216385       0.58308887
C       -9.04265118      15.21406078      22.23864365
C      -16.89945030      14.45546246      28.34395218
C      -10.31426144      17.17808151      22.72234535
C       -6.35887194      17.28457642      22.70775795
C        6.00133371      14.29725456       0.00581664
C       -6.66319323      17.74658203      23.98972130
C      -12.52272511      14.66373730      27.23612404
C      -16.55028725      13.84335518      27.15964890
C      -10.37597847      16.88195610      24.01711655
H      -14.05927849      13.40936947      25.68840408
H      -12.83278465      16.12286758      25.61551666
H       -9.04529572      17.87585068      25.97743416
H       -9.76575661      15.52374554      25.55591011
H      -12.50726509      14.74353027      24.23460579
H      -14.27224255      17.57193756      27.10655975
H      -10.33879089      16.42863655      27.50616264
H       -8.35339069      14.17203045      23.95135498
H        2.13205647      15.43792629       0.21205792
H      -10.75782013      18.05647278      22.27867699
H       -6.80421686      16.47815514      22.13168335
H        6.46753502      13.46909046       0.41766006
H       -7.38877010      17.10368919      24.53105164
H      -11.83316803      14.06948280      26.64874268
H      -15.96546078      14.38179111      26.38278580
H      -10.91109467      17.58800888      24.68340683
C       -0.02695619      18.37229347       2.92999005
C        0.84190464      21.24735832       5.64136219
C        4.27431345      23.83913231       5.17250395
C        3.76809168      20.92934608       3.04202938
C        0.70465177      19.25039482       2.17704439
C       -0.06499665      22.01027489       6.28577089
C        3.75118899      22.84343338       5.98425531
C        4.55449772      20.13751793       2.30584574
C        1.10770714      18.82207298       0.87038314
C       -0.38595062      21.86960983       7.69946432
C        3.37631345      23.31911087       7.29692030
C        5.01382780      20.50782967       0.98062533
C       -2.84257412      19.73076630       7.36928987
C        3.70718312      22.58075714       1.35182834
C        7.65536833      22.50388908       1.15571773
C        0.98444319      19.84982872       7.52243948
C        7.08388615      22.94811821       2.31102395
C        1.39936674      20.06738472       6.29007339
C       -2.56180978      19.37237549       6.08950806
C        3.33892250      22.19025421       2.59830022
H       -0.38274303      18.64648628       3.93490672
H        1.04778635      21.43844414       4.60036659
H        4.83291531      23.46697617       4.28970861
H        3.30263329      20.43395805       3.87194896
H        0.93144071      20.19559479       2.61122513
H       -0.50086248      22.79180527       5.66455030
H        3.79134321      21.72431946       5.63547134
H        4.81551456      19.07473946       2.57027507
H       -2.49104810      20.62680435       7.85349131
H        3.54192948      23.61528015       1.12038159
H        7.58479166      21.46985245       0.93039733
H        1.26685405      18.88760757       7.93290854
H        6.44618416      22.27938080       2.94665456
H        2.02899694      19.41703415       5.70383739
H       -2.11448240      20.04377556       5.32260084
H        2.70447969      22.76764679       3.33675098
C       -4.93192959      18.68126488      10.30285454
C       -3.79811311      21.19711304      13.01900959
C        0.03486741      23.30607796      12.40536213
C       -1.12812579      21.25106621      10.29086685
C       -4.02921581      19.39234352       9.55221272
C       -4.64341021      22.08630753      13.65801048
C       -0.74199194      22.66530418      13.36813545
C       -0.14208326      20.46496010       9.66429043
C       -3.72616291      19.00651360       8.19528294
C       -5.05115128      21.83815002      14.98710346
C       -1.01250100      23.31073761      14.62264729
C        0.22753006      20.74054909       8.31501102
C       -7.71895123      19.92409325      14.37552738
C       -1.34157789      22.67380714       8.35093403
C        2.93517566      22.34136963       8.26977158
C       -3.65152860      19.78059959      14.93102932
C        2.61257720      22.67543221       9.51652241
C       -3.32475472      20.02727890      13.63281059
C       -7.48611307      19.59382820      13.02937317
C       -1.76387835      22.34139824       9.58798313
H       -5.10816431      18.93293190      11.34373283
H       -3.57394600      21.25633812      11.90792179
H        0.36086470      22.73321915      11.59132576
H       -1.59994316      20.92534828      11.21623421
H       -3.45703268      20.22308540       9.95825672
H       -5.05064487      22.87679291      13.02478123
H       -1.22824252      21.72269821      13.12550735
H        0.40489975      19.66411209      10.18698788
H       -7.42936611      20.88337326      14.80875492
H       -1.76506948      23.48957062       7.76917219
H        2.72367859      21.28350639       8.05205154
H       -3.39814806      18.89707947      15.48743153
H        2.41067743      21.86496162      10.14551544
H       -2.58751106      19.38982964      13.07975197
H       -6.92354774      20.25123024      12.35254288
H       -2.62326598      22.89183998      10.01792145
C       -9.44409847      18.42355537      17.37251091
C       -8.69427204      21.26588249      19.90396500
C       -4.53486347      23.75046158      19.85333443
C       -5.96495724      21.03482628      17.49462318
C       -8.80832100      19.36695290      16.56973648
C       -9.39079189      22.19400978      20.57155228
C       -5.37134743      23.01517105      20.64638329
C       -5.01200056      20.27338982      16.87023354
C       -8.39470291      19.00751495      15.25750732
C       -9.73662090      22.00659180      21.89416885
C       -5.71875715      23.46557808      21.94831848
C       -4.55459261      20.61952019      15.58940601
C      -12.13340473      19.95688629      21.71389961
C       -6.00113630      22.64011765      15.67356777
C       -1.88731945      22.74974632      15.57415962
C       -8.44621754      19.96152878      21.90948677
C       -2.06489944      23.29203415      16.77916527
C       -8.17687511      20.13643265      20.59959030
C      -11.74055672      19.54271126      20.44393730
C       -6.45224476      22.22918129      16.86854172
H       -9.79613304      18.74564171      18.32662773
H       -8.40613079      21.35718536      18.90944099
H       -4.28070545      23.44447327      18.87244797
H       -6.18747377      20.71791458      18.51008224
H       -8.48621941      20.35499954      17.00296021
H       -9.81117058      23.11910629      20.16471672
H       -5.56217289      21.96689606      20.41563034
H       -4.67562675      19.34553337      17.36226082
H      -11.78751278      20.98007774      21.87774849
H       -6.28965712      23.59967613      15.15141678
H       -2.22444797      21.77908707      15.37995529
H       -8.17860699      19.06374931      22.40711212
H       -2.54219675      22.69867706      17.54819870
H       -7.55415821      19.39939499      20.01290131
H      -11.17206955      20.15185547      19.78502274
H       -7.32284498      22.76376724      17.27387810
C      -14.15160179      18.79490280      24.60169029
C      -13.07606888      21.33177948      26.98113060
C       -9.11796474      23.96056175      26.87723351
C      -10.48210049      21.54048347      24.51828575
C      -13.37965298      19.61556053      23.81876373
C      -13.94663715      22.08187675      27.66589165
C       -9.82615280      23.05897903      27.58346176
C       -9.67567348      20.64318657      23.89730263
C      -12.94533634      19.20502281      22.56442070
C        4.50717497      21.68941307       0.51700145
C        8.46646881      23.33643150       0.39972886
C       -9.33291912      20.85659599      22.58010292
C        1.87466717      19.70769310       0.06223705
C      -10.43771839      22.99466133      22.66838837
C       -6.60244703      22.68195152      22.72187996
C        5.85525894      19.69544220       0.22848555
C       -6.95447874      22.99576378      23.97802734
C      -12.60153770      20.10671806      27.54798889
C      -16.43616104      19.38300133      27.36133194
C      -10.86725235      22.76500893      23.95497894
H      -14.49927998      19.14924049      25.61852264
H      -12.76384258      21.51832390      25.98953819
H       -8.69854641      23.70312500      25.87637329
H      -10.91048908      21.20265579      25.46446228
H      -13.22234726      20.64988136      24.17159653
H      -14.38823509      23.02159691      27.23063469
H       -9.82374954      22.10051537      27.17539597
H       -9.33812237      19.77061462      24.38161659
H        2.05030918      20.70173645       0.57876956
H      -10.64793301      23.96208954      22.18500137
H       -6.96286345      21.77823067      22.31236839
H        6.16741800      18.67814446       0.74543512
H       -7.65782499      22.28066826      24.47397995
H      -11.88809681      19.55263710      26.87996864
H      -15.66330433      20.03491402      26.90441132
H      -11.50727654      23.42754555      24.45452309
C        7.42279625      24.31434250       2.76250601
C        6.73917437      27.33710861       5.12356234
C       13.11814785       2.30121279       5.44821405
C       11.62789345      27.25451851       3.49127173
C        8.25165844      25.16089058       2.07259703
C        5.92397881      27.76070023       6.20120382
C       12.53256989       1.17652321       6.04684496
C       12.39860725      26.33856201       2.83367777
C        8.72690773      24.70485687       0.81508988
C        6.21514034      27.19455910       7.45584679
C       12.27321434       1.33124888       7.44075871
C       12.63314247      26.51374817       1.47466755
C        3.71951795      25.56618118       6.80271626
C       11.19064331      28.57728195       1.53120327
C       15.71619320       0.75152236       1.26130354
C        8.10730648      25.95059013       6.53938293
C       15.27381325       1.23458445       2.45119381
C        7.85813808      26.48308182       5.28281784
C        4.23113918      25.21761894       5.55040359
C       11.02965546      28.40289879       2.85834455
H        6.82875156      24.58637810       3.70458531
H        6.53939009      27.77574730       4.13690472
H       13.38043404       2.35676932       4.36591721
H       11.47274876      27.11630440       4.60412407
H        8.37554264      26.13718224       2.31793261
H        5.27037382      28.64722824       6.09640360
H       12.40450382       0.27040988       5.52990675
H       12.91300011      25.60773277       3.41586781
H        3.64396405      26.62181664       7.11352301
H       10.80131149      29.48438072       0.97153568
H       15.24994564      58.80323791       0.81110013
H        8.85052300      25.20068169       6.67379475
H       14.35495090       0.90147096       2.97616363
H        8.40248680      26.15961456       4.42792273
H        4.49155664      26.03260803       4.87817621
H       10.61443710      29.05465317       3.54123497
C        2.94480658      24.00046730      10.02450466
C        3.75409079      26.24282455      12.78008652
C        8.84656620       2.58606267      12.03462124
C        6.99196577      26.31858826      10.03842354
C        3.43080282      24.95640564       9.15757084
C        3.06098723      27.13892364      13.52818108
C        7.95101309       1.66953540      12.49321365
C        7.59002161      25.75100327       8.93143749
C        3.51311898      24.65057755       7.74581575
C        2.78794312      26.99334717      14.91533375
C        7.31063700       1.87117314      13.74467754
C        7.31071138      26.27597046       7.63208818
C        0.15732166      25.27611160      13.88893604
C        5.55041170      27.70538902       8.66560459
C       11.70138550       0.19192380       8.19281387
C        4.17107821      25.02823639      14.78379917
C       11.59811211       0.23425101       9.54535484
C        4.28077888      25.15379906      13.44035435
C        0.43465888      24.67175102      12.62504387
C        5.97059631      27.23605728       9.86413670
H        2.75540495      24.24099350      11.10381126
H        3.89208651      26.41081619      11.73467541
H        9.56900883       2.21056914      11.21771431
H        7.03346348      25.74969864      10.98542881
H        3.56074810      25.96333885       9.48065472
H        2.48352695      27.92171860      13.01757336
H        7.82528687       0.66274464      12.02527905
H        8.40627766      25.00458527       9.01643944
H        0.52877545      26.29043961      13.96700478
H        4.73486853      28.41363907       8.48489380
H       11.65045738      58.22287369       7.60619211
H        4.56532478      24.16240883      15.22589874
H       11.45167732      58.31252670      10.18113708
H        4.71356440      24.36414146      12.84808922
H        0.94335669      25.29010582      11.77955723
H        5.59509277      27.63278580      10.79147911
C       -1.61304784      24.58091736      17.01370811
C       -0.80368805      27.13742828      19.49996376
C        3.24215651       1.06370234      20.28422546
C        2.41001034      26.51956558      17.64724731
C       -0.87863660      25.28243637      16.08523178
C       -1.35627723      27.98165131      20.45946121
C        3.22351193       0.14579512      21.30414391
C        3.18753862      25.67719269      16.90038872
C       -0.44785988      24.55402184      14.90876198
C       -1.42828953      27.61793137      21.73830795
C        2.72574043       0.58548957      22.55786324
C        3.39449668      25.87879372      15.54044914
C       -4.36299419      25.47262001      21.54972839
C        1.82071996      27.70459938      15.68769264
C        6.62756824       0.88722712      14.50441837
C       -0.25578114      25.51186180      21.18771553
C        6.24339676       1.06448817      15.75828075
C       -0.25195938      25.90086937      19.86159515
C       -3.94385147      24.98432732      20.34707642
C        1.69287145      27.56143379      17.04056740
H       -1.87154686      25.00735664      17.94110489
H       -0.61755854      27.46844673      18.47545624
H        3.55686402       0.80583084      19.26432419
H        2.05551147      26.25193787      18.70143700
H       -0.63649130      26.28289223      16.38829041
H       -1.72386396      28.95143700      20.09717369
H        3.40971661      58.01597595      21.07876587
H        3.31940961      24.58012390      17.25318909
H       -3.93740439      26.32555771      22.02512169
H        1.19101119      28.43717957      15.12523651
H        6.29714346      58.81900787      14.04044533
H        0.09921021      24.53727722      21.53905106
H        5.61766195       0.42308977      16.21351433
H        0.20670441      25.18063545      19.09159851
H       -3.22939205      25.49446106      19.75311279
H        1.09126806      28.37534523      17.51193047
C       -6.41671705      24.22165489      24.51638794
C       -5.54285526      26.82121086      27.36489105
C       -0.79821277       1.65835345      27.06327820
C       -1.71825373      26.61624718      24.41171265
C       -5.68426132      25.09751320      23.75476646
C       -6.43300676      27.75885201      27.84727859
C       -1.57192087       0.86190790      27.91428185
C       -1.11343825      25.88222504      23.46485901
C       -5.24097919      24.73715782      22.41792679
C       11.95867538      27.53613281       0.75472492
C       16.61368561       1.45028663       0.46467704
C       -0.93782032      26.33558273      22.09725189
C       -9.44428062      25.64298058      28.49961472
C       -2.05329609      28.36271286      22.82819557
C        2.47265148      58.48036194      23.52567673
C       13.34652424      25.49780655       0.78105575
C        2.31745791      58.86417389      24.82702827
C       -5.01960373      25.69811821      28.06718826
C       -8.82774353      25.29043579      27.34177971
C       -2.23874617      27.87695694      24.04137611
H       -6.61247969      24.41126823      25.58821106
H       -5.16344547      26.92121887      26.35383224
H       -0.30008453       1.29498601      26.10849571
H       -1.94753242      26.19399071      25.40875435
H       -5.32182312      26.07944107      24.19105911
H       -6.99203300      28.49338913      27.24897194
H       -1.80916190      58.84133911      27.52092743
H       -0.72914439      24.89615059      23.56668854
H        9.39813614      26.66778183       0.27568442
H       -2.77594543      29.21560097      22.51741409
H        2.69519448      57.43894196      23.26714325
H       13.64328194      24.65979576       1.36680496
H        2.38062906      58.08830643      25.63598824
H       -4.40813923      24.95313644      27.53094101
H       -8.17989349      25.90568542      26.78310394
H       -2.84712768      28.35414124      24.66449547
C        7.29803324       2.40688562       2.83467460
C        8.90511227       4.49724770       5.29282522
C       12.96035767       7.62940216       5.55974483
C       11.81317234       4.44712257       2.93051910
C        8.35706043       2.94090509       2.14655042
C        8.03581524       5.27171040       6.02198219
C       12.06102943       6.74975872       6.02795029
C       12.48745060       3.54848194       2.17417574
C        8.64239883       2.55724835       0.75588447
C        7.53265715       4.81369257       7.24503469
C       11.50438881       6.90123653       7.29660511
C       12.83642483       3.83021879       0.85134077
C        4.65534735       2.93471313       6.82007980
C       11.76047420       6.01792049       1.07660401
C       15.69044495       5.83629704       1.13501298
C        9.04047012       2.91154170       7.09105158
C       15.32627773       6.13904667       2.37848878
C        9.40561295       3.27219367       5.79458284
C        4.68093777       2.49710083       5.56832170
C       11.43527126       5.70039606       2.36744189
H        7.31437492       2.54153705       3.97246051
H        9.11471367       4.81888914       4.24197102
H       13.18794823       7.60833263       4.50722837
H       11.34936905       4.18776178       3.90101528
H        9.06717682       3.62407994       2.59604979
H        7.64491510       6.19521856       5.55033493
H       11.65363216       5.95844889       5.43938112
H       12.80212021       2.53440690       2.46672082
H        5.00374746       3.92642021       7.15352917
H       11.28064060       6.86961365       0.62315744
H       15.41604137       4.95551538       0.59263945
H        9.49517727       1.97932816       7.45435476
H       14.74532127       5.54453897       3.01523089
H       10.03177547       2.53964281       5.29839039
H        5.22864866       3.12259626       4.82612276
H       10.68456078       6.31212950       2.93300414
C        2.56757808       2.09472561       9.89992905
C        4.31314468       4.13390684      12.45620632
C        7.59504366       7.49865103      12.43056583
C        6.83548880       3.98271799       9.86852074
C        3.47357869       2.66778970       9.07115650
C        3.62862253       5.02432442      13.28784943
C        6.71691990       6.87894487      13.30810070
C        7.63227034       3.14410686       9.05753422
C        3.89751387       2.19981670       7.76121044
C        3.25799513       4.54920006      14.62765121
C        6.74741507       7.14139462      14.68853092
C        8.05655003       3.60733151       7.77251816
C        0.31028152       3.49673653      14.14679718
C        6.77475500       5.63822937       8.12341309
C       10.69051361       5.84511566       7.91095829
C        4.04255104       2.34930444      14.01684380
C       10.26562595       5.94441223       9.20583439
C        4.51975393       2.79491878      12.85480690
C        0.60004079       3.16797400      12.86679554
C        6.48608255       5.28700542       9.41644001
H        2.36074901       2.46403646      10.85513592
H        4.50134659       4.56900167      11.47037601
H        7.59300947       7.11819220      11.46562672
H        6.52908707       3.57046652      10.80984783
H        3.89233804       3.57692814       9.36242962
H        3.21773434       6.03011990      13.02413464
H        6.08993006       6.09366798      12.98693275
H        7.87564945       2.07380605       9.34156227
H        0.76457143       4.38851213      14.66611767
H        6.62890005       6.65370321       7.80758190
H       10.41979122       4.94366646       7.34876299
H        4.20796442       1.31824434      14.28401375
H        9.54521370       5.25057745       9.60256767
H        5.01517010       2.10286045      12.19111919
H        1.42029428       3.70900702      12.31781101
H        6.05662298       6.02381229      10.06638908
C       -1.68984509       2.09605789      16.95726395
C       -0.86192048       4.60973167      19.61590004
C        3.45135975       6.53515244      19.86155891
C        2.31012702       3.55230308      17.09064484
C       -0.79830194       2.94165182      16.29557800
C       -1.46771848       5.52391624      20.51578331
C        2.57257652       6.03092432      20.70555305
C        2.94148707       2.74014974      16.18226433
C       -0.47920987       2.72985458      14.95217800
C       -1.81253648       5.07421970      21.79391670
C        2.30440521       6.63841581      21.97963715
C        3.48384905       3.21003723      14.96794605
C       -4.70410395       2.91298318      21.39873695
C        2.59461474       5.35577726      15.55613422
C        6.01342344       6.41170788      15.63922215
C       -0.96751153       2.85448551      21.35134506
C        6.17003870       6.55169821      16.96707916
C       -0.52689850       3.29313087      20.07677269
C       -4.67012787       2.69822478      20.03127670
C        2.13644028       4.92652035      16.78935432
H       -1.81385708       2.19372654      18.04152679
H       -0.64255261       4.98560762      18.60799217
H        3.67752934       5.98239422      18.96972084
H        1.92554343       3.10647297      17.98753548
H       -0.27810317       3.79113936      16.81176567
H       -1.77679324       6.51342487      20.20375633
H        2.10096908       5.04839563      20.45559120
H        3.12031960       1.70296264      16.52164268
H       -3.99708033       3.70417666      21.78455544
H        2.42824483       6.40629768      15.31967735
H        5.47970819       5.51873541      15.32892895
H       -0.82575858       1.82246852      21.58551979
H        5.53341722       5.94766378      17.56602097
H       -0.18526417       2.51990628      19.50700188
H       -4.03161955       3.18906260      19.36170387
H        1.56387699       5.66456461      17.39531136
C       -6.52060747       1.77589333      24.33283424
C       -5.07028008       4.45472431      26.86433792
C       -1.26208472       7.55571508      26.91996193
C       -2.41691875       4.28765059      24.50949860
C       -5.63211441       2.47137523      23.56894875
C       -6.00412226       5.24792194      27.42957497
C       -2.07050157       6.64485455      27.55385780
C       -1.80765939       3.38119102      23.64775085
C       -5.58246708       2.18126678      22.25108528
C       12.44103336       5.01751471       0.27672237
C       16.37947464       6.83091497       0.39659438
C       -1.56983590       3.78962326      22.27475929
C        9.79335880       3.03518558       0.10863260
C       -2.46831179       5.95236349      22.69509125
C        1.38392615       5.93850708      22.81738663
C       13.52780151       2.92253900       0.00219252
C        1.09264195       6.45604849      24.03129578
C       -4.75846529       3.19066477      27.36478996
C       -8.67595387       2.51473022      27.38781738
C       -2.77337170       5.58335495      23.99958420
H       -6.75123072       2.08695960      25.33370018
H       -4.70533133       4.67776871      25.83845711
H       -0.90391612       7.32278299      25.98650360
H       -2.69031620       3.88938212      25.50510979
H       -5.13863516       3.30908513      24.00093651
H       -6.28876877       6.23242331      27.11816025
H       -2.36561871       5.69940472      27.11084366
H       -1.34387970       2.51584053      24.12538719
H       10.42359447       3.83137488       0.57289577
H       -2.88623548       6.86071110      22.25031281
H        0.95994067       5.07381535      22.43544197
H       13.85887814       2.05695868       0.49787182
H        0.41802007       5.87801790      24.74334908
H       -4.04636288       2.55018806      26.82348633
H       -7.71303463       2.84563684      26.95740891
H       -3.25853825       6.25631762      24.69078064
C        7.59096622       7.58006668       3.22933221
C        8.83888531      10.04697323       5.35757017
C       12.83754921      12.93621349       5.68439579
C       11.80524063      10.21379089       3.10426116
C        8.44011116       8.35229301       2.55500793
C        8.20672798      10.97856045       6.10331917
C       12.02767086      12.06043625       6.39165640
C       12.46170807       9.26481915       2.42079258
C        8.80925846       8.01953125       1.21003604
C        7.73820257      10.60529423       7.44064093
C       11.74797630      12.33489609       7.76624775
C       12.93060780       9.62357903       1.04906380
C        4.89156723       8.60490227       7.37501812
C       11.74835873      11.70850468       1.19633818
C       15.82233906      11.52747440       1.49814570
C        8.78512669       8.43703365       7.10411978
C       15.36936569      11.97746563       2.80975080
C        9.23579025       8.74005413       5.85978413
C        5.32043505       8.20356655       6.19526005
C       11.49925709      11.45833969       2.52240014
H        7.19598341       7.92402315       4.15922070
H        9.24690628      10.41014099       4.38487291
H       13.07726097      12.71708393       4.69638157
H       11.58305454       9.98963737       4.10400009
H        8.94242477       9.27739811       2.95461798
H        8.05399132      12.00213337       5.82034397
H       11.64782524      11.19543076       5.95317459
H       12.85911274       8.36806011       2.89505172
H        5.33210087       9.47582722       7.85607243
H       11.57633400      12.70749664       0.89933831
H       15.48994064      10.58464813       1.23852575
H        8.92026329       7.41660786       7.43995619
H       14.78998470      11.34000683       3.42678428
H        9.75360298       7.97222042       5.24754429
H        6.16439962       8.64461708       5.69725800
H       11.00858593      12.32898521       3.10675144
C        2.85799837       7.08994246      10.13974571
C        3.71150398      10.31962776      12.89535141
C        7.94606590      12.31275272      12.82078075
C        7.22914171       9.92515564      10.09842110
C        3.62790227       7.98166084       9.45871639
C        3.36420155      11.25131989      13.78347397
C        7.43443251      11.52086449      13.79449081
C        7.82800961       8.97551060       9.24968147
C        4.01126575       7.74524975       8.11740875
C        3.07440901      10.85901928      15.14979458
C        7.19457960      12.02557564      15.08267784
C        8.06204510       9.32154083       7.92091894
C        0.34530452       8.87957096      14.47805595
C        7.05255651      11.49657536       8.24165726
C       10.78237247      11.48800659       8.41475105
C        3.99172902       8.77165604      14.67562771
C       10.43461609      11.73405075       9.71961975
C        4.11949968       9.05260754      13.31763458
C        0.65797484       8.72308636      13.16241837
C        6.83156157      11.14293480       9.58394051
H        2.48014140       7.21555424      11.14115524
H        3.89309287      10.64940071      11.88948441
H        8.19321918      11.96137619      11.86639500
H        7.17511940       9.68939209      11.20138836
H        3.73951793       8.88859844       9.95362282
H        3.20231438      12.30613136      13.50529003
H        7.13672018      10.53878593      13.51995659
H        8.08651352       7.97694778       9.65204620
H        0.67593390       9.80316639      14.87747478
H        6.77897930      12.43103695       7.76981926
H       10.25850773      10.77012730       7.75969362
H        4.22602034       7.82596111      15.07734299
H        9.80512238      11.02014828      10.22806931
H        4.69242191       8.23450661      12.83922768
H        1.28510797       9.38025379      12.58137417
H        6.08772469      11.70254326      10.17066383
C       -1.66225433       7.39135408      17.20045853
C       -0.32915166      10.11891174      19.75729561
C        3.39179611      12.82315350      19.89161301
C        2.30206394       9.88199139      17.72116280
C       -0.75445688       8.25720596      16.65012169
C       -0.96709192      11.09036827      20.50331306
C        2.73546410      11.95754528      20.69261551
C        3.11249518       9.08551979      16.96044350
C       -0.31739029       7.97564983      15.30005741
C       -1.40530431      10.78114128      21.79033470
C        2.35853291      12.23092461      21.99712181
C        3.38366938       9.61420059      15.62122440
C       -4.42776012       8.92737961      21.67278481
C        2.42713928      11.67902184      16.07794380
C        6.41392803      11.27392864      15.95363617
C       -0.29795364       8.60125923      21.62840652
C        5.96067572      11.78834820      17.18323517
C        0.01068391       8.85161209      20.28575706
C       -4.01406574       8.56030655      20.43661880
C        2.00228310      11.19019222      17.25868797
H       -2.05737638       7.79184484      18.15016174
H       -0.10845974      10.26599407      18.75674629
H        4.01535463      12.47417450      19.02422523
H        1.98161590       9.50671577      18.67214394
H       -0.28982142       9.04669285      17.28851318
H       -1.01433575      12.15820599      20.18556786
H        2.55276299      10.96911430      20.23606491
H        3.32185626       8.11964798      17.20763779
H       -4.11875534       9.85314560      22.20018959
H        2.14252949      12.70125008      15.77383041
H        6.27062559      10.29049587      15.58514214
H       -0.10561308       7.64839125      22.09836388
H        5.45348549      10.95169735      17.64563179
H        0.53608596       8.13403225      19.67154694
H       -3.33490062       9.21127510      19.99585915
H        1.35501242      11.80347252      17.89085388
C       -6.21680641       7.33534050      24.58074188
C       -5.03837585      10.31213856      27.00918770
C       -1.16528547      13.05423546      27.04080963
C       -2.39768529       9.99329472      24.28713036
C       -5.45567989       8.24017525      23.89365387
C       -5.88753080      11.17048836      27.69833183
C       -1.93356657      12.18340206      27.76782989
C       -1.65339434       9.04679585      23.57696724
C       -5.14696598       8.01249409      22.53630066
C       12.50216484      10.80665398       0.43477249
C       16.48967743      12.47644043       0.60980237
C       -1.11971223       9.52583599      22.35991478
C        9.80130863       8.72981930       0.50355029
C       -2.26189685      11.62552834      22.52364159
C        1.55895352      11.37493229      22.77080917
C       13.88888645       8.86532593       0.36652026
C        1.20269668      11.66505623      24.04682922
C       -4.50192356       9.26207256      27.61292267
C       -8.62651539       8.45702839      27.74843979
C       -2.61696148      11.34211540      23.75460243
H       -6.29672241       7.45091057      25.65864372
H       -4.63434458      10.56014156      26.02177811
H       -0.79879820      12.81459332      26.08556557
H       -2.75028753       9.82729626      25.30374527
H       -5.11448193       9.21309090      24.28009415
H       -6.51210403      12.02375603      27.24505234
H       -2.39088702      11.26439095      27.38549995
H       -1.32080483       8.15934277      24.12278557
H       10.10846901       9.63846207       1.05598938
H       -2.50808620      12.49515533      21.96030045
H        1.15560174      10.54312992      22.30054283
H       14.28145123       7.95945597       0.85761487
H        0.72202986      10.91426277      24.64766312
H       -3.66401100       8.64961529      27.18760872
H       -7.88447666       9.05399799      27.23322868
H       -2.90189528      12.10992718      24.44635201
C        7.93861341      13.06852436       3.22218513
C        8.84451199      15.87280846       5.42182636
C       13.19027901      18.04680634       5.39766979
C       11.82355404      15.47519112       2.93385315
C        8.62068176      13.91255665       2.32774806
C        8.14707947      16.67293358       6.38456011
C       12.28467751      17.25740051       6.05945873
C       12.56732464      14.72670650       2.05863380
C        9.03710651      13.56335926       1.03212452
C        7.87506199      16.26613617       7.73622084
C       11.77350998      17.51448059       7.40650797
C       13.06451321      15.27827644       0.86445177
C        5.36529207      14.31972218       7.46371651
C       11.83323193      17.31601524       1.41608953
C       15.87404060      17.03017616       1.37922442
C        9.02706909      14.27565193       7.16576004
C       15.41109562      17.40072632       2.59244633
C        9.29644203      14.62285900       5.92231464
C        5.62282276      14.10895920       6.16801834
C       11.43660259      16.85675812       2.62249780
H        7.69158173      13.40280342       4.20674324
H        8.99345398      16.23512077       4.49573088
H       13.68610382      17.83699989       4.51540947
H       11.51487255      14.95620251       3.84964466
H        8.81557941      14.93083477       2.57971168
H        7.64802265      17.52022362       5.95990562
H       11.90844440      16.36132050       5.64923573
H       12.90152645      13.69321251       2.45950150
H        5.74018812      15.16645145       8.00463963
H       11.52344418      18.26308441       1.02098811
H       15.59419060      16.05675316       0.95284683
H        9.37333488      13.33006954       7.58646870
H       14.81724548      16.70365334       3.18007088
H        9.89702797      13.94817162       5.17230654
H        6.14405870      14.67795658       5.47759628
H       10.75988197      17.41144371       3.22316194
C        3.50796413      12.61936188      10.17877197
C        4.31786346      15.72011948      12.49209213
C        8.35532665      18.26258087      12.62206459
C        7.08820772      15.22812748      10.15204716
C        4.19038296      13.54982853       9.50026226
C        3.44167542      16.60640717      13.16838074
C        7.49598789      17.45181084      13.39307785
C        8.09020424      14.59675026       9.39015579
C        4.45455980      13.37271023       8.12893772
C        3.14595628      16.35426140      14.54749203
C        7.20779610      17.79217911      14.66892624
C        8.27808094      14.99472332       8.11218739
C        0.36806762      14.25069809      14.14657211
C        6.98785257      17.00834274       8.50321770
C       10.86007309      16.78738976       8.09391022
C        4.35328865      14.14096737      14.30735016
C       10.45007324      17.05083656       9.42510223
C        4.71463299      14.50211143      13.07150364
C        0.58782017      13.85157394      12.85437107
C        6.63448715      16.45490837       9.73527527
H        3.48038745      12.70457554      11.28255081
H        4.58886576      16.04932404      11.49149799
H        8.68601418      18.10991478      11.60400200
H        6.81708193      14.78636360      11.07306862
H        4.39930916      14.53215981       9.86092949
H        3.01005960      17.50882721      12.69199657
H        7.20992899      16.51903343      13.03052330
H        8.61688995      13.72721958       9.76289272
H        0.81920093      15.13283730      14.53595161
H        6.55958366      17.92616463       8.13185406
H       10.28375149      16.00537491       7.64598274
H        4.72435284      13.24052143      14.78708744
H        9.69131660      16.48113823      10.02186489
H        5.39993286      13.90485668      12.53163052
H        1.26299965      14.37868977      12.27363396
H        5.95123339      16.92925644      10.43938541
C       -1.27632141      13.07699680      17.21095848
C       -0.44000173      15.89537048      19.79011345
C        3.44630194      18.56577873      19.80875397
C        2.63458753      15.73805618      17.22749710
C       -0.60815191      13.84865856      16.36612511
C       -1.26504505      16.69755745      20.47340012
C        2.54586458      17.72176933      20.47994423
C        3.35589099      14.84426117      16.45009041
C       -0.35278559      13.40954590      15.04545689
C       -1.59416974      16.38758659      21.84598732
C        2.20568418      18.00958061      21.81633759
C        3.70981979      15.11715031      15.10662556
C       -4.27769327      14.55020332      21.64428139
C        2.28351545      17.09152603      15.30969810
C        6.35356998      16.96476555      15.46257877
C       -0.42588612      14.30795765      21.63187218
C        6.02453089      17.31128311      16.71006966
C       -0.02366298      14.64200211      20.35474205
C       -3.90361214      14.16684532      20.38689804
C        1.98865855      16.80776405      16.60511208
H       -1.57210088      13.33244705      18.19467354
H       -0.08257966      16.14449692      18.78027916
H        3.74317694      18.41588020      18.71981049
H        2.47877240      15.54875755      18.24882889
H       -0.24896173      14.84780407      16.71584892
H       -1.65270233      17.64076233      20.07542038
H        2.16115499      16.85858917      19.92621613
H        3.83647513      13.93472958      16.91588020
H       -3.69232726      15.37393665      21.95259285
H        1.75616825      17.90578842      14.85567951
H        5.98459625      16.07300377      14.90058994
H        0.04544736      13.45394802      22.12754631
H        5.49693727      16.61965752      17.40605736
H        0.57678527      13.88914204      19.78590393
H       -3.08825660      14.64447212      19.82116127
H        1.33503783      17.47087288      17.10576057
C       -6.19068336      13.29224300      24.61018944
C       -5.27052641      16.17552376      26.81288147
C       -1.12730670      18.36495209      26.96065140
C       -2.04756284      15.91950893      24.58220100
C       -5.45931196      14.14895535      23.82009125
C       -5.93450403      16.96122932      27.71144485
C       -1.75961328      17.47625160      27.81134987
C       -1.39215505      14.98966599      23.82714272
C       -5.14086771      13.80691433      22.45670891
C       12.62167454      16.53302956       0.50156057
C       16.79893303      17.83004761       0.69913626
C       -1.20035255      15.19081783      22.44667625
C        9.82199574      14.41540337       0.23178169
C       -2.24604416      17.37865067      22.65853691
C        1.38394070      17.11783791      22.65093231
C       -4.93407011      14.51400948      28.48645401
C        1.31776917      17.30114746      23.98970413
C       -4.76277876      14.92838860      27.20376587
C       -8.62670803      14.03490448      27.49247742
C       -2.37870049      17.13551903      23.99626350
H       -6.61878347      13.71934319      25.52256012
H       -5.09860277      16.66783333      25.86771965
H       -0.91947240      17.99868584      25.97334290
H       -2.30020499      15.81902885      25.65010262
H       -5.01495600      15.05513191      24.26494026
H       -6.43054247      17.92399025      27.45754433
H       -2.18661523      16.49152565      27.35548973
H       -1.24220157      13.98852348      24.28005409
H       10.35172653      15.25297546       0.68742013
H       -2.65602016      18.19931793      22.12056351
H        1.14027274      16.13908577      22.26111412
H       14.07144642      13.47534180       0.28301027
H        0.78432620      16.59935570      24.57268524
H       -4.20093489      14.37280750      26.43387222
H       -8.12165546      14.71713066      26.80682564
H       -2.99518108      17.81186867      24.62325478
C        7.89084816      18.46881104       3.24547982
C        8.98239899      21.43490410       5.57195044
C       12.22245312      23.20127106       5.85767365
C       11.55839252      21.12206841       3.14314032
C        8.59477711      19.34650803       2.50173593
C        8.11639404      22.19681740       6.31470251
C       11.80894470      22.38343620       6.82412052
C       12.52231312      20.45233727       2.42541456
C        9.04018688      18.99990845       1.18153000
C        7.66049242      21.76002312       7.55838823
C       11.42160988      22.85575104       8.07758045
C       12.93104935      20.87764549       1.10540497
C        5.05476522      19.87706566       7.06410265
C       11.47030354      22.80421257       1.43034387
C       16.21091843      22.52310562       1.09662116
C        8.92830849      19.69590950       7.21888876
C       15.63220501      22.73399353       2.34619808
C        9.42544460      20.15154839       5.98518419
C        5.33705091      19.38769913       5.82086945
C       10.99402428      22.37647820       2.62752151
H        7.48678350      18.82343674       4.22901678
H        9.34925270      21.70763779       4.58473396
H       12.52990913      22.71787834       4.93111324
H       11.16458225      20.69247627       4.03025103
H        8.85425186      20.30499840       2.89016557
H        7.80066538      23.12817955       5.78782988
H       11.99114323      21.30633545       6.75731421
H       12.69196510      19.48321533       2.84386444
H        5.24956799      20.87244225       7.29096174
H       10.89123631      23.69000053       1.04625463
H       16.07083511      21.54123878       0.61568505
H        9.26264477      18.68232727       7.55978727
H       15.25235558      21.84914017       2.86844110
H       10.08186913      19.45060158       5.48602581
H        5.94404840      20.08152390       5.22043371
H       10.17674160      22.76195717       3.06406164
C        3.34202456      18.54172707      10.12673664
C        3.94101048      21.12639618      12.29121685
C        7.75731564      23.61136055      12.40452290
C        7.03703928      20.76847076      10.18713665
C        4.00415850      19.38235283       9.26014233
C        3.25536537      21.99928474      13.06189442
C        7.07531738      22.72219467      13.21645737
C        7.71285677      20.02439880       9.25220585
C        4.32126665      18.96387291       7.97444820
C        2.98504329      21.73387146      14.43377876
C        6.95394945      23.03297997      14.58762455
C        8.06238842      20.50118637       7.99324656
C        0.09238221      19.91168594      14.54851723
C        6.82962131      22.44802094       8.53575325
C       10.95566463      22.02422714       9.15624809
C        4.26150751      19.68377686      14.19618511
C       10.53031445      22.61750221      10.36279869
C        4.54749775      19.99386406      12.88984585
C        0.68402380      19.51938438      13.40722275
C        6.62559223      22.02133560       9.76160145
H        3.04953480      18.90134621      11.11636543
H        4.14455843      21.30762100      11.23182392
H        7.95512629      23.40031433      11.37178040
H        6.72523832      20.26407623      11.16227913
H        4.23762178      20.38846397       9.55164909
H        2.68909979      22.86767769      12.69684219
H        6.76029253      21.76949692      12.90597630
H        8.18663025      19.08927345       9.50752735
H        0.46808627      20.82012177      14.95041943
H        6.33182907      23.36407661       8.21713448
H       11.07896233      20.91784096       9.14270782
H        4.78662825      18.86518860      14.68663883
H       10.34193611      22.02023506      11.21985722
H        5.19101477      19.33790779      12.36934853
H        1.59647954      20.13283348      13.12776756
H        6.08924723      22.69634628      10.47299957
C       -1.68035281      18.40131187      17.49874115
C       -0.63751668      21.46620369      19.80029678
C        3.51003146      23.83687019      19.79238701
C        2.34548664      21.07819939      17.15863228
C       -1.14114010      19.34553337      16.60834503
C       -1.30562627      22.33528328      20.61220551
C        2.73881888      22.98894882      20.56020927
C        3.00045228      20.11110115      16.31642723
C       -0.74410748      19.02200890      15.29632187
C       -1.51993811      22.02128410      21.94499588
C        2.40299082      23.41199684      21.87167168
C        3.39815712      20.51016998      14.99854660
C       -4.17477846      20.08512878      21.56287766
C        2.16637421      22.60420990      15.22895908
C        6.18393707      22.22670937      15.41791630
C       -0.38879135      19.86763000      21.61152649
C        5.80352354      22.64667702      16.64805603
C       -0.21106732      20.21773911      20.27640343
C       -3.97298932      19.72234917      20.24252701
C        1.94230247      22.28270721      16.57137871
H       -1.90958893      18.91944122      18.52173805
H       -0.62692702      21.54606628      18.69063377
H        3.69503522      23.42248726      18.83029938
H        2.17247009      20.77065468      18.23660278
H       -0.83675265      20.35642433      16.94367218
H       -1.71332872      23.28306198      20.22743416
H        2.27156019      22.06914139      20.17494583
H        3.15775132      19.11080360      16.72416878
H       -3.82137156      20.95306969      21.92580414
H        1.85145271      23.56834412      14.88887024
H        5.86446476      21.23997688      15.07486343
H        0.19275822      19.06130219      21.99491882
H        5.31504536      21.93802834      17.26157188
H        0.37594250      19.60966873      19.60791206
H       -3.19008112      20.21729469      19.67141342
H        1.39126325      23.02186203      17.17949486
C       -6.09525490      18.95330811      24.50925255
C       -5.24210119      21.81981277      27.08302307
C       -0.80994999      24.48059273      27.05508423
C       -2.07906032      21.21232605      24.64445877
C       -5.20428467      19.65558624      23.76802826
C       -6.01557684      22.61132812      27.93855286
C       -1.33878994      23.42048836      27.69187737
C       -1.30238295      20.48234367      23.82981491
C       -5.01738977      19.29310226      22.38552094
C       12.48277760      22.11691093       0.62767690
C       16.78604507      23.59236336       0.43545884
C       -1.09659660      20.80291367      22.47015190
C        9.73354244      19.83822060       0.29758397
C       -2.08808208      22.86673927      22.88286781
C        1.77321982      22.50513840      22.77138710
C       13.83097363      20.09586525       0.28328845
C        1.30069542      23.01378632      23.97582626
C       -4.70756388      20.58486748      27.56391525
C       -8.79492855      19.42691803      27.48856926
C       -2.41442704      22.49729919      24.15362549
H       -6.35638857      19.26376724      25.45731926
H       -4.99043512      22.23907852      26.09044266
H       -0.27472684      24.26372337      26.10390663
H       -2.33702397      20.94882011      25.69983864
H       -4.70545197      20.47417641      24.19938850
H       -6.39267111      23.56783867      27.60519409
H       -1.21292377      22.37359810      27.34817123
H       -0.83764577      19.53654671      24.20590019
H        9.88419533      20.82820129       0.77986944
H       -2.51472783      23.87098885      22.63065529
H        1.41694474      21.54933548      22.30772972
H       14.13766479      19.16123199       0.70717299
H        0.68658406      22.52753639      24.77120018
H       -4.03166056      19.98825455      26.92721558
H       -8.38751602      20.07058144      26.76807213
H       -2.94668245      23.23981094      24.79638672
C       15.51008892      24.00637436       2.90913510
C       15.27058887      26.94422913       4.62507343
C       21.08133888       1.59186256       5.78363180
C       20.08625412      26.98694801       2.40592599
C       16.03483582      25.03043556       2.15414858
C       14.66444874      26.74325943       5.84125519
C       20.06303024       0.92986602       6.36299419
C       20.86264801      26.25170136       1.57076323
C       16.68469620      24.88565063       0.96411604
C       15.19513893      26.04908943       6.95075703
C       19.56741524       1.30580890       7.60338354
C       21.34814644      26.70930099       0.28521273
C       11.49575806      25.13273048       7.09629631
C       20.07375526      28.74702072       0.73001486
C       23.01672745      58.88668060       1.05073678
C       17.26881027      25.81579208       5.52857018
C       22.88357162       0.13381138       2.42049503
C       16.67365837      26.55282593       4.53739500
C       12.13510513      24.64931107       5.99582338
C       19.67972946      28.29961777       1.94940865
H       14.98966599      24.18654442       3.83579016
H       14.59366608      27.28368568       3.82313132
H       21.49358749       1.20422149       4.80741310
H       19.77679634      26.72360611       3.42919946
H       15.94769096      26.06149483       2.42397928
H       13.64186573      27.03812027       5.95988369
H       19.72716141       0.02334816       5.91189623
H       21.26537323      25.36275101       1.98914659
H       11.48159027      26.15962601       7.25578833
H       19.77399254      29.61674690       0.20538397
H       22.32611275      58.42989349       0.44316223
H       18.29890823      25.53262711       5.43226242
H       22.12852287      58.40864944       2.96110868
H       17.22336006      26.74951363       3.63018179
H       12.57296848      25.19147491       5.19134903
H       19.05821419      28.89778900       2.56396437
C       10.70764542      24.08553696      10.51889420
C       11.33005428      26.86640167      12.82819271
C       15.45188141       2.13983989      12.38781643
C       16.58677292      24.97717094       9.13337994
C       10.88989258      24.88650513       9.41324902
C       10.46586609      27.55673027      13.62274551
C       14.50681591       1.52385283      13.18692303
C       17.22080231      25.02547836       7.92075205
C       11.23860836      24.25683784       8.20746708
C       10.38464546      27.26465225      15.04078579
C       14.42555904       1.77998924      14.56447124
C       16.53975296      25.58723450       6.78770065
C        8.08513260      25.18876076      14.24767494
C       14.52866936      25.81272316       8.19689941
C       18.54904556       0.52099782       8.23033619
C       12.18346787      25.54269600      14.72720623
C       18.28706741       0.81808448       9.53287029
C       12.15769672      25.83910942      13.32841492
C        8.27633858      24.86649895      12.94915771
C       15.22852135      25.27817917       9.23114586
H       10.59115124      24.51891327      11.47148705
H       11.39491940      27.11363411      11.75168228
H       15.52777863       1.83436573      11.36251450
H       17.21500397      24.66265678       9.96819305
H       10.76414776      25.96236801       9.46087456
H        9.76535702      28.24753189      13.25015736
H       13.86878681       0.81710523      12.66237736
H       18.24030876      24.54538345       7.85515928
H        8.56669521      26.06243706      14.65461445
H       13.48893547      25.98806953       8.28637695
H       17.98654747      58.82474136       7.64637995
H       12.66524696      24.64010239      15.06913662
H       17.73505211       0.12658498      10.09181595
H       12.83672428      25.20431137      12.69556141
H        8.56025219      25.65157318      12.30030823
H       14.72730827      25.07718849      10.18807983
C        6.26766729      23.85377502      17.17650223
C        7.32252407      26.19088745      19.69520569
C       11.01145458       2.45936084      19.71816444
C       10.19891834      26.82326317      17.71161079
C        7.07268429      24.61084175      16.45015526
C        6.58533335      27.12251091      20.37081146
C        9.97698593       2.03329802      20.40754700
C       11.10959530      26.09512901      16.96948624
C        7.37920332      24.24747467      15.08761215
C        6.57647085      27.17681503      21.78783989
C        9.84246540       2.41082168      21.74644852
C       11.23622417      26.27136993      15.58006668
C        3.66879821      25.52258110      21.49754524
C        9.49657440      27.98824501      15.84829330
C       13.50483036       1.08498764      15.35404968
C        7.82737494      25.13351631      21.74159431
C       13.29039001       1.42989194      16.60938263
C        8.03573608      25.22324562      20.38127327
C        4.00227928      25.12609291      20.23145294
C        9.52434731      27.91258430      17.19399834
H        6.07749462      24.06744003      18.22775459
H        7.04874039      26.02732277      18.64965630
H       10.95612335       2.15664697      18.68298149
H       10.15774441      26.64138603      18.72002602
H        7.43101883      25.57838440      16.86824417
H        5.99859238      27.88873863      19.81678581
H        9.17222500       1.41902649      19.99320221
H       11.77647591      25.41632462      17.41633987
H        3.97618914      26.41302872      22.11800575
H        8.94421959      28.73105431      15.31978130
H       12.93452263       0.29464045      14.81725597
H        8.27293015      24.29654121      22.24378586
H       12.53102016       0.91990018      17.13324356
H        8.67566299      24.50844002      19.89030075
H        4.45991802      25.82472610      19.50340271
H        8.84143639      28.52252579      17.76400948
C        1.84073150      24.28553200      24.42965889
C        3.30423784      27.65755272      26.32497978
C        5.70203877       1.44725668      26.47560310
C        6.56401491      27.20268822      24.58824348
C        2.70937967      25.05838776      23.66063309
C        2.57207656      28.45137024      27.11890030
C        4.94224977       0.69924343      27.24375343
C        7.07701302      26.18489456      23.91419601
C        2.87921023      24.62701797      22.32039070
C        2.14695954      28.03271484      28.40524673
C       23.79273987       0.68129647       0.18905061
C        7.19579935      26.15968323      22.51835632
C       17.29854584      25.98923492       0.34500679
C        5.87634230      28.19559479      22.49803543
C        8.75085258       1.94248378      22.52169991
C        3.28904676      25.85874558      27.96906281
C        8.62244606       2.28771663      23.80000496
C        3.71182990      26.34964943      26.73738289
C       -0.81825888      25.75757980      27.70021820
C        5.78888464      28.12511063      23.85873032
H        1.44053793      24.71020889      25.38792801
H        3.84543443      28.04605293      25.48424530
H        5.51726437       1.43302917      25.42897034
H        6.62880182      27.26530838      25.70116234
H        2.94249177      26.10642052      23.94828606
H        2.29885006      29.38355446      26.63340187
H        4.10039139       0.20972362      26.81735611
H        7.64584637      25.52044868      24.47591019
H       17.26547813      26.99457359       0.78257257
H        5.46856165      29.01166916      21.86650658
H        8.01986218       1.34366059      21.95956802
H        3.53451014      24.87475586      28.30844498
H        7.62634325       2.05990100      24.23571396
H        4.35104036      25.89210129      25.98830032
H       -0.35780486      26.65631294      27.26710510
H        5.24285460      28.94488907      24.36254501
C       15.79240799       2.50607419       2.91503072
C       16.71022797       5.26004505       5.47588348
C       21.09708595       7.04124641       5.67189646
C       20.23765373       4.45909262       3.26409674
C       16.72600746       3.16002059       2.16780424
C       15.83850098       5.94395590       6.27491856
C       20.24766159       6.29094410       6.44399214
C       20.92498779       3.68434501       2.40448689
C       17.08117294       2.69580817       0.89371216
C       15.71118069       5.56155205       7.59022379
C       19.95678711       6.69213343       7.77564430
C       21.13323212       4.11721611       1.05198812
C       13.15872669       3.67472100       7.41014147
C       19.89394569       6.10663462       1.54771054
C       23.81740570       5.93844509       1.11187506
C       17.12744904       3.63858914       7.20396709
C       23.50220299       6.43728256       2.33594203
C       17.35635757       4.10369062       5.94568920
C       13.40170860       3.52258801       6.07310152
C       19.79420853       5.71113920       2.83738399
H       15.43592834       2.99639583       3.79110098
H       16.91705894       5.71097898       4.52389193
H       21.41658211       6.59272337       4.71809149
H       20.03224754       4.03895187       4.23993111
H       17.08776283       4.12177515       2.35920715
H       15.34758854       6.87527275       5.90681601
H       19.99003029       5.25027752       6.14493752
H       21.30217361       2.62427878       2.69972682
H       13.39182091       4.60147619       7.94060326
H       19.44900322       7.06191492       1.35397291
H       23.36295128       5.05693197       0.66306365
H       17.47562408       2.61144400       7.50129271
H       22.87924957       5.89560795       2.99240351
H       17.97064400       3.52772379       5.24590158
H       13.81935596       4.33472681       5.52217436
H       19.52195930       6.46483803       3.58651876
C       11.90194321       1.47783387      10.18314838
C       12.06931877       5.33211088      12.45368385
C       16.34422112       7.30606699      12.59778595
C       15.21846390       4.55433750      10.09531784
C       12.39616108       2.51087189       9.48697567
C       11.39882660       6.03899527      13.38401794
C       15.42307949       6.60322762      13.30704212
C       16.01646614       3.85639954       9.28808689
C       12.57294273       2.61040211       8.05169010
C       10.96921539       5.42979860      14.55270386
C       15.07602215       6.98200655      14.64422417
C       16.28789520       4.34829950       8.04022598
C        8.22811127       4.13914776      13.74769688
C       14.99166012       6.38575554       8.49162960
C       19.28611374       5.89723253       8.71507549
C       11.91007233       3.36822772      13.76943588
C       18.95406342       6.41371584       9.97583485
C       12.31933498       3.95890212      12.62765026
C        9.00232410       3.83284640      12.59814739
C       14.70683384       5.83119869       9.72622871
H       11.80598450       1.62363470      11.25710964
H       12.59640312       5.85184908      11.65968323
H       16.70508766       7.01097631      11.66197395
H       15.05214310       4.23451805      11.04930210
H       12.52220058       3.43613577      10.06165886
H       11.17777729       7.09445763      13.29313660
H       15.25593376       5.52893162      12.98691654
H       16.47502136       2.87099266       9.67604637
H        8.42684078       5.08338499      14.23504257
H       14.73208618       7.39464903       8.23760796
H       19.02503014       4.89890194       8.46279144
H       12.01808929       2.36116481      14.04256916
H       18.36630058       5.85093784      10.68634796
H       13.08130360       3.42895102      12.02165318
H        9.45424652       4.68895435      12.09825325
H       14.01560307       6.39988804      10.38286018
C        6.52694035       2.28210568      16.44080162
C        7.48954105       4.91784763      19.37540627
C       11.58726883       6.94581890      19.72919273
C       10.00427341       4.26605320      16.88638306
C        7.12559700       3.26172781      15.76467037
C        7.03265524       5.73249054      20.33676338
C       10.68838120       6.33743191      20.59837914
C       10.69419670       3.45963883      15.98954201
C        7.64010620       3.10533714      14.44523716
C        6.31855822       5.13896799      21.46728897
C       10.37304592       6.90992165      21.80086136
C       11.23073483       4.10448217      14.77214527
C        2.80015135       2.91356492      21.76453781
C       10.20290184       6.19884253      15.53579235
C       14.26683617       6.11348629      15.42430973
C        6.59049749       2.92184162      20.47714615
C       13.93300056       6.41292238      16.68015862
C        7.22732687       3.48542070      19.46971321
C        3.04905176       2.45377254      20.52812004
C        9.79362392       5.63975477      16.66179085
H        6.03778648       2.50068808      17.37905121
H        8.05093384       5.18517733      18.50417519
H       11.82430172       6.56478500      18.72852898
H        9.48216438       3.84905434      17.78241158
H        7.24783230       4.27640104      16.22867966
H        7.14065075       6.84527922      20.36694527
H       10.19209576       5.35639477      20.30141830
H       10.91539383       2.44284987      16.20977020
H        2.91014528       3.89724469      22.11999512
H       10.04184914       7.22408962      15.43184567
H       13.90765095       5.14846611      14.93948269
H        6.45041418       1.88712502      20.57526779
H       13.23803329       5.74943495      17.17383766
H        7.63888311       2.78989124      18.73318481
H        3.26881289       3.11319423      19.67037392
H        9.17940331       6.17221928      17.34368134
C        2.12524056       1.29010761      25.14491081
C        2.42629623       4.95486307      26.83539391
C        6.72216940       7.25312567      26.53682327
C        5.20757437       3.94969082      23.77159309
C        2.26795673       2.27845454      24.19576645
C        1.79242444       5.73062325      27.77537918
C        6.07914639       6.37948895      27.34165573
C        5.70310402       3.18590188      22.78753471
C        2.58378792       1.95048904      22.83638191
C       20.58467293       5.39981985       0.64157420
C       24.50229454       6.81301832       0.19633645
C        6.18107891       3.73389554      21.58841515
C       17.86048698       3.48543549       0.02983375
C        5.84649038       5.90996170      22.50919533
C        9.54737473       6.10332966      22.61423492
C       21.70038033       3.32856250       0.04890287
C        9.36246300       6.49570751      23.87215233
C        3.03867936       3.76317215      27.31072617
C       -0.56855226       2.98292065      27.35439110
C        5.33487082       5.34848309      23.71135521
H        2.11694908       1.65947473      26.16277695
H        2.48880172       5.25090551      25.76245880
H        7.12340689       7.02311134      25.54148102
H        4.89505911       3.47258282      24.69927406
H        2.16992831       3.35330892      24.49291039
H        1.23746145       6.61934519      27.52701569
H        5.77450943       5.36496162      27.09398651
H        5.75661802       2.11462593      22.82974434
H       18.05866623       4.54874659       0.31899625
H        5.81073093       6.95333052      22.45113564
H        9.15811825       5.21674824      22.22599602
H       22.14197540       2.38896585       0.41970128
H        8.67914867       5.87811804      24.52029037
H        3.48212838       3.13133836      26.56456375
H       -0.09236546       3.66656971      26.59972954
H        4.88542891       6.06694651      24.37071419
C       15.69616795       7.39857244       3.04829359
C       16.76971436      10.37811375       5.61121845
C       20.73861122      12.72953796       5.57800865
C       20.24099731      10.19926643       3.27748084
C       16.39412117       8.33695698       2.35324693
C       15.98251724      11.11142349       6.46269655
C       20.12893486      11.85401821       6.40010452
C       20.96212959       9.42117786       2.47116733
C       16.77971649       8.04692268       1.02305543
C       15.77804470      10.69035816       7.74834061
C       19.78178978      12.21745300       7.75205231
C       20.97842789       9.66600418       1.01172888
C       12.95259666       8.89646721       7.68194199
C       19.47500801      11.51953506       1.41735613
C       23.70857811      11.63485432       0.86332643
C       17.24731636       8.74211788       7.33000851
C       23.26925468      12.06578445       2.16457391
C       17.34248161       9.12973213       6.02209187
C       13.40955734       8.72904968       6.39659405
C       19.38569641      11.24622917       2.72727036
H       15.37419701       7.54095840       4.07942438
H       16.95169067      10.89345551       4.64809084
H       21.06167984      12.55374527       4.58123732
H       20.32131386      10.00788403       4.35926867
H       16.67419243       9.30313206       2.61367893
H       15.58668709      12.13287354       6.00150108
H       19.85561752      10.80810356       6.12822914
H       21.66251183       8.67213345       2.82127118
H       13.36633301       9.62385559       8.28180122
H       19.11122322      12.48830795       1.08070755
H       23.15091324      10.77025795       0.39740083
H       17.64266205       7.78184462       7.73857498
H       22.72208023      11.41899586       2.77733207
H       17.82052422       8.44836044       5.32328033
H       14.10119057       9.55846310       5.96314383
H       18.69779205      11.85351276       3.45545030
C       10.52284718       7.16509628       9.97347832
C       12.06929111      10.37918854      12.69720745
C       16.36996078      12.91424656      12.56453800
C       15.51497936       9.89211941      10.40800190
C       11.41105461       8.06513023       9.49472141
C       11.40516853      11.22737598      13.63643646
C       15.63458920      12.07458496      13.29708099
C       16.26929474       9.09619617       9.50460243
C       11.96328735       7.96924353       8.11050415
C       11.25920200      10.83580875      14.95382023
C       15.18605232      12.36657047      14.63220119
C       16.43454742       9.53861046       8.16722202
C        8.44565678       8.77930737      14.24794197
C       15.06169033      11.50555515       8.69723225
C       18.96306419      11.41454697       8.56578732
C       12.20779896       8.67885590      14.34617329
C       18.70365906      11.77209187       9.86885643
C       12.46402264       9.09747124      13.09405708
C        8.55130959       8.42337132      12.91759110
C       14.91355133      11.10484123       9.99198437
H       10.09681606       7.26405668      10.93981457
H       12.35764408      10.62084866      11.68589211
H       16.86294174      12.72398567      11.64945126
H       15.52857971       9.48553276      11.40359879
H       11.65152168       8.88111973      10.17404938
H       11.05655193      12.19971561      13.35297871
H       15.53335190      10.97754288      12.95101643
H       16.70982361       8.18705177       9.90168858
H        9.17172432       9.35495281      14.74272156
H       14.77570724      12.43642139       8.22404575
H       18.72493744      10.40803432       8.25688553
H       12.53223324       7.70089674      14.68119240
H       18.25846100      11.01672935      10.47938347
H       12.94851971       8.39310074      12.38866901
H        9.24656105       8.84006023      12.13492012
H       14.38156986      11.82756042      10.71505070
C        7.01545382       7.59823561      17.42158890
C        7.81110525      10.16204166      19.70628357
C       11.51636505      13.23888016      19.89747429
C       10.88328648      10.19271183      17.56895447
C        7.76017570       8.40593815      16.58630371
C        6.98594093      11.07168007      20.39506912
C       10.90756130      12.29119968      20.64595795
C       11.48377609       9.24014473      16.77530289
C        7.60185766       8.17070007      15.15743923
C        6.67448282      10.85928822      21.77763939
C       10.59412289      12.55184555      22.00355721
C       11.74823284       9.57781410      15.40088940
C        3.78403687       8.42014599      21.35026169
C       10.51417351      11.63453579      15.79028606
C       14.50503445      11.42175007      15.41755295
C        8.00970078       8.82882690      21.62396622
C       14.06748867      11.86975002      16.66456985
C        8.30504513       9.01678658      20.34495354
C        4.04980469       7.75699854      20.18165207
C       10.31519508      11.39859867      17.11079025
H        6.94159603       8.01082897      18.50281906
H        7.96556044      10.29036808      18.63303375
H       11.73390579      13.05713654      18.83652306
H       10.92260265       9.84334660      18.61007690
H        8.51155853       9.14094353      16.92723656
H        6.70797920      12.04629707      20.02110863
H       10.56049919      11.42547512      20.13213348
H       11.88235569       8.34248734      17.22563744
H        4.17702532       9.48740005      21.42195320
H       10.02270126      12.50700569      15.29991341
H       14.28037643      10.37346172      15.00657082
H        8.48860073       7.96157408      22.05947304
H       13.38000488      11.15765285      17.31252670
H        8.99016953       8.30725002      19.91607857
H        4.71763039       8.21469784      19.38676071
H        9.70317078      12.07230854      17.72838020
C        1.70103657       7.69183445      24.47933769
C        2.47285438      10.47267723      26.90569878
C        6.50693512      13.14357281      26.46241379
C        5.78698206      10.13503647      24.27450562
C        2.61763525       8.27507496      23.64286804
C        1.66685498      11.19401073      27.73735237
C        5.81878757      12.25338745      27.22602272
C        6.75380421       9.36702824      23.68090248
C        2.92395711       7.75885391      22.35754967
C       20.28508186      10.77942467       0.53409576
C       24.48891449      12.54272175       0.09457337
C        7.19843674       9.68671131      22.41450882
C       17.49593735       9.02110195       0.29336679
C        5.69959593      11.69185352      22.38966751
C        9.68112659      11.74893379      22.73645782
C       21.73669243       8.92696762       0.12329919
C        9.31102657      12.15857887      23.99239922
C        3.09231329       9.32331181      27.32149506
C       -0.88633233       8.74597931      27.56505394
C        5.26496696      11.32713318      23.59938812
H        1.42851424       8.11779499      25.41018677
H        2.78842902      10.87637711      25.95779800
H        6.56067133      12.90605545      25.35430908
H        5.52287912       9.93479729      25.28968811
H        3.08817148       9.25581646      23.85153389
H        1.16600871      12.11767769      27.48448753
H        5.48510075      11.43750095      26.64323425
H        7.22811413       8.41616726      24.08169556
H       17.95537758      10.01238537       0.62594563
H        5.56512070      12.73812103      22.03030014
H        9.24481964      10.86582375      22.19476128
H       22.02779007       7.97034931       0.33526269
H        8.80500507      11.45301914      24.67398834
H        3.76500154       8.74879074      26.65592575
H       -0.42073369       9.54506779      27.08129120
H        4.51551723      11.95826721      24.07158470
C       15.84690380      13.21704006       3.32103634
C       17.15460205      15.93256664       5.74117470
C       20.98563194      18.45460510       5.47940683
C       19.92639923      15.65981197       2.97297120
C       16.62028313      14.01279354       2.44890285
C       16.34922600      16.73870468       6.50316095
C       20.15922928      17.62703705       6.15607119
C       20.58379364      14.80844498       2.08120084
C       16.93587875      13.66497898       1.15615261
C       15.86130333      16.20036316       7.74058723
C       19.77243614      17.82841110       7.50278521
C       20.88921356      15.34168911       0.80904377
C       13.05386066      14.38672256       7.62427187
C       19.93953323      17.47942543       1.41048253
C       23.76244164      17.26112938       1.21750867
C       17.11645317      14.15429020       7.39146376
C       23.26149178      17.50086212       2.43529367
C       17.49940109      14.60966587       6.18676710
C       13.41938305      14.00889301       6.35113096
C       19.66989708      16.99433517       2.65357137
H       15.36774063      13.58048153       4.22721529
H       17.43979836      16.40526390       4.80225658
H       21.03778458      18.27472115       4.38567162
H       19.49983788      15.25226021       3.98780942
H       16.96723938      14.97049332       2.81335855
H       16.01202011      17.69478416       6.17273140
H       19.71299744      16.75369835       5.60635328
H       20.87009811      13.76576328       2.25701857
H       13.30847168      15.27921295       8.11740780
H       19.69929123      18.52490616       1.20318782
H       23.30821228      16.45232773       0.68576056
H       17.45430183      13.21471024       7.72388363
H       22.58756447      16.73797989       2.82523966
H       18.16824150      13.98636246       5.60159683
H       14.12383747      14.68985748       5.89982176
H       19.07999229      17.47679138       3.45129442
C       10.89836121      12.87001514      10.31399441
C       12.00804520      15.65400696      12.85172558
C       16.02988815      18.41048431      12.81560707
C       15.09455013      15.32237339      10.28857327
C       11.71196461      13.79849243       9.67168903
C       11.26225567      16.53737259      13.63341141
C       15.22070026      17.68305016      13.57745552
C       15.86574078      14.51155281       9.51050377
C       12.12789440      13.60245895       8.36950016
C       11.13243389      16.40559387      15.02250385
C       14.92043400      18.03563118      14.89160442
C       16.35782051      14.98991489       8.23751354
C        8.20599461      14.17620754      14.43052578
C       15.03624439      17.02868462       8.55693054
C       18.92482567      16.96164513       8.24916458
C       12.36537743      14.26998711      14.72358608
C       18.66385841      17.25733376       9.55346966
C       12.62016773      14.55093479      13.43582249
C        8.32282352      13.62317371      13.20257378
C       14.63978291      16.66419411       9.80715656
H       10.69955635      13.12625122      11.38738251
H       12.18472958      15.96840382      11.80073071
H       16.23587227      17.96641731      11.80928040
H       14.62884045      14.96577263      11.15722179
H       12.07502270      14.63859653      10.17840004
H       10.82895565      17.43105698      13.24557877
H       14.73748112      16.79655457      13.15419483
H       15.95472145      13.45964527       9.68011761
H        8.46238422      15.15264988      14.79713535
H       14.59664440      17.86389351       8.05067062
H       18.56166840      16.05944824       7.73788548
H       12.78108025      13.37278843      15.18480396
H       18.13764000      16.53629112      10.10754395
H       13.23803806      13.93072796      12.78855991
H        8.64190388      14.26970673      12.40947056
H       14.00021267      17.24918938      10.49859142
C        6.37831640      13.14529896      17.57347870
C        7.90600872      15.79505539      19.82512665
C       11.94199085      18.53496742      20.01251030
C       10.81717110      15.88328457      17.71592712
C        7.16923189      13.83880806      16.67953300
C        7.01716995      16.63034630      20.38339043
C       11.00930214      17.87276268      20.72103119
C       11.40074635      14.94525242      16.96423531
C        7.51516056      13.36515617      15.40250111
C        6.52409410      16.42953300      21.74569702
C       10.68966961      18.12991333      22.01101303
C       11.59431839      15.16960716      15.56107712
C        3.59413505      14.39761543      21.80899239
C       10.56705570      17.43929672      15.90230942
C       14.19206905      17.16740417      15.76040268
C        7.52810860      14.22237492      21.65196800
C       14.12813759      17.51757240      17.11667824
C        8.11829758      14.52619076      20.45092583
C        3.74428988      14.08565807      20.47517395
C       10.47494221      17.17954636      17.24460602
H        5.85310650      13.58000088      18.49658203
H        8.48944187      15.99308586      18.98274803
H       12.04369354      18.25719452      18.93166733
H       10.77250957      15.78917027      18.83790398
H        7.47726870      14.87183380      16.79737091
H        6.79543543      17.55093575      19.80670357
H       10.56845093      16.95145798      20.32329178
H       11.83734894      14.03262043      17.39126968
H        3.93575668      15.32683086      22.20677567
H       10.36377239      18.39778709      15.45901775
H       13.69599342      16.30348969      15.38991070
H        7.63713455      13.30263615      22.15517044
H       13.75117493      16.80439377      17.80220985
H        8.70271397      13.80495930      19.93136024
H        4.30057001      14.82595539      19.85204506
H       10.12346458      17.94734383      17.95455933
C        1.77638543      12.83315372      24.63677597
C        2.94894695      16.42856789      26.84151459
C        6.80572414      19.18982697      26.99749565
C        5.58806658      15.77433777      24.29401970
C        2.45044160      13.74383926      23.92458725
C        2.22590613      17.20172310      27.76207733
C        6.12989187      18.17477798      27.63835144
C        6.40709257      14.86769390      23.65473747
C        2.81110859      13.51018810      22.56925583
C       20.57316589      16.67884445       0.46520302
C       24.51259232      18.22682381       0.49190405
C        6.76772833      15.16612625      22.37666130
C       17.79189110      14.59293842       0.40981856
C        5.61059856      17.33080673      22.43403244
C        9.86609173      17.29215622      22.82273674
C        2.86179376      14.61987209      28.39602089
C        9.57743359      17.52718163      24.08016205
C        3.21967673      15.09390068      27.18681526
C       -0.70843136      14.31463337      27.61234856
C        5.20394993      17.00077629      23.71662712
H        1.60695601      12.91153526      25.72409630
H        3.25831246      16.71904373      25.87029648
H        7.12227774      19.02155685      25.98657036
H        5.31070471      15.66937256      25.33492279
H        2.88123965      14.58367062      24.43736267
H        1.93114185      18.21198273      27.51643181
H        5.75594807      17.38444138      27.03499794
H        6.63390541      13.91381359      24.12729836
H       18.18165207      15.48236561       0.95124578
H        5.31415319      18.26684952      22.01609421
H        9.52853870      16.36146736      22.23965073
H       21.78430939      13.57648277       0.22580853
H        8.97348022      16.88353729      24.63886070
H        3.68150496      14.35959148      26.53985023
H        0.05853592      14.83095551      27.18376732
H        4.69035673      17.79398727      24.28795815
C       15.89833832      18.58850479       3.12397075
C       16.70478439      21.32442856       5.45548391
C       21.12868690      24.00122643       5.55305338
C       19.93643951      21.43399811       3.02437687
C       16.77240181      19.41209412       2.45189905
C       15.80878353      22.03404999       6.17294598
C       20.38533783      23.07751274       6.23820734
C       20.67862892      20.61753082       2.24004292
C       17.23717117      19.01842880       1.16835248
C       15.40713978      21.69468498       7.47543001
C       20.07349205      23.23397446       7.65692711
C       21.06176376      20.96395874       0.92565364
C       13.27031612      19.38012123       7.34146166
C       19.92440796      23.05847359       1.27786088
C       23.76680183      22.82950592       2.00575113
C       16.95275497      19.70691872       7.19267511
C       23.58076477      23.16978073       3.30430913
C       17.32326317      20.17709541       5.97539425
C       13.76861954      19.14941406       6.11851788
C       19.53622627      22.67443657       2.57340455
H       15.59679127      19.01541710       4.09933329
H       17.03325081      21.78121758       4.53957272
H       21.24353218      23.90620613       4.49936867
H       19.52888298      21.04813766       4.08027792
H       17.06878090      20.32600975       2.87190223
H       15.49525070      23.00990105       5.72817326
H       19.74974823      22.37025833       5.68385506
H       20.98409653      19.71899033       2.72472548
H       13.76858521      20.14001465       7.87803459
H       19.55590248      23.95249748       0.86757112
H       23.10023689      22.09453964       1.58762765
H       17.40450859      18.91067505       7.72405100
H       23.01795769      22.47543335       3.93179941
H       18.25658035      19.83864021       5.57842493
H       14.46984005      19.89162254       5.84820795
H       18.88191223      23.31139946       3.12704492
C       11.10631275      18.08640289      10.09148693
C       12.33297729      21.53489113      12.88932228
C       15.60202599      23.96814728      12.75051403
C       15.24853802      20.99770355      10.11425114
C       11.94756222      18.92459488       9.44576073
C       11.58764267      22.44491768      13.62104321
C       15.09036446      23.04253387      13.61385727
C       15.92332649      20.15588951       9.31868172
C       12.41709042      18.59931374       8.11092281
C       11.18250561      22.10013008      14.91262341
C       14.86275959      23.39933205      15.00339127
C       16.02703667      20.48887253       7.96140051
C        8.32199860      19.89837456      14.31865883
C       14.57519913      22.40979958       8.36508465
C       19.16232109      22.42355156       8.33073044
C       12.43626976      20.00155830      14.70706940
C       18.92952919      22.65784264       9.70586300
C       12.79636860      20.33478737      13.42398930
C        8.68394184      19.55480003      13.03643513
C       14.57356167      22.12297249       9.66542816
H       10.76936817      18.46556664      11.01879501
H       12.47595215      21.73785591      11.79138756
H       15.73074627      23.69571495      11.74445248
H       15.21406269      20.88511848      11.18832588
H       12.30302620      19.81249809       9.99007416
H       11.20646095      23.33598328      13.13675117
H       14.79071999      22.00670242      13.23563957
H       16.28106117      19.19514084       9.54645061
H        8.60429001      20.86191750      14.70794678
H       14.05322170      23.16216278       7.90315390
H       18.54140472      21.64729691       7.77884960
H       12.77294445      19.03961754      15.11979103
H       18.16948128      22.04432106      10.17690754
H       13.43306160      19.65944290      12.84459114
H        9.25012016      20.22816658      12.43409157
H       14.11368370      22.81174660      10.39848042
C        6.55025816      18.55294418      17.27501106
C        7.72128487      21.06710815      19.89020538
C       11.18044376      23.61099625      19.84036636
C       10.23321915      21.24838448      17.51024818
C        7.34186268      19.37475777      16.49704170
C        7.00511408      22.01767921      20.59599686
C       10.60991383      22.69487572      20.64964867
C       11.17538738      20.51615524      16.80108070
C        7.67446470      18.96050644      15.20124245
C        6.55633163      21.72933006      21.89740753
C       10.52844620      23.01392364      22.02578163
C       11.57561207      20.83303070      15.46482944
C        3.52461982      20.02195358      21.64080048
C       10.11851978      22.78190041      15.56548119
C       14.26766586      22.65861511      15.98484421
C        7.59440851      19.52538681      21.73208809
C       14.14383602      23.06308556      17.23109627
C        8.10894585      19.92049217      20.51691818
C        3.91958642      19.70458603      20.44231796
C        9.64550209      22.35198784      16.78464890
H        6.26545954      18.71919823      18.22406960
H        8.05779362      21.31899834      18.90908623
H       11.45262051      23.33287239      18.84570312
H        9.93452072      21.16954803      18.56302834
H        7.72720814      20.34683418      16.85176086
H        6.72824192      23.01649857      20.20201874
H       10.30453682      21.66968155      20.32471466
H       11.68791676      19.59630203      17.18940544
H        3.96600127      20.86911392      22.14509010
H        9.72658730      23.74419022      15.10389996
H       13.79189777      21.67588043      15.76349735
H        7.88291931      18.52323723      22.08707047
H       13.59782505      22.43360138      17.92604446
H        8.74748135      19.16165924      19.98472214
H        4.55407238      20.38418388      19.98346901
H        8.83733654      22.84007072      17.28672981
C        1.82089150      18.49640274      24.61595154
C        2.72029018      21.69037628      26.75161934
C        6.54214239      24.22052193      27.46781540
C        5.49191952      21.04687309      24.48794556
C        2.55856919      19.29368782      23.83605385
C        2.04348969      22.50572968      27.55762291
C        5.80185604      23.41978836      28.26230049
C        6.33524656      20.19837570      23.72120285
C        2.73086309      19.13773346      22.41418266
C       20.64163589      22.18517876       0.44555464
C       24.59339142      23.65095139       1.12422156
C        6.75614309      20.46536064      22.38820267
C       17.97145271      19.93753433       0.29606816
C        5.66660595      22.57873154      22.61706162
C        9.99522305      22.07080078      22.87690926
C       21.74078560      20.09856606       0.08677275
C        9.57947540      22.33670425      24.09754562
C        3.23516130      20.47731781      27.30643082
C       -0.71174604      19.58926582      27.47656822
C        5.22607183      22.31741714      23.87195015
H        1.84820843      18.64391327      25.63141823
H        2.91248488      21.88378143      25.73365974
H        6.51297188      24.11175537      26.37355995
H        5.26296282      20.85620308      25.58842659
H        3.03481770      20.10369110      24.35413933
H        1.53183174      23.35291672      27.02766418
H        5.19895458      22.56560707      27.96681404
H        6.53206682      19.20837021      24.09237671
H       18.22005653      20.89315224       0.63083726
H        5.62491655      23.58843613      22.32790184
H        9.85081959      21.04778290      22.44570351
H       22.06589127      19.20950699       0.50647134
H        9.13157940      21.54050636      24.73583794
H        3.89440155      19.82603264      26.69972229
H       -0.19397512      20.24651909      26.82971954
H        4.70285463      23.11492348      24.35425758
C       24.07435226      24.41707420       3.82908368
C       25.84743690      27.66757584       6.21893072
C       28.53478050       1.62507260       4.80850840
C       28.52146912      26.79092789       3.46755600
C       24.83505630      25.18673134       3.04091048
C       25.21530724      28.39325142       7.22139502
C       28.15433311       0.94726568       5.92605400
C       29.17049217      25.90632629       2.67456841
C       25.13163567      24.87254333       1.63659489
C       24.57367897      27.71553421       8.30432224
C       28.29117966       1.48728168       7.24372959
C       29.37033844      26.12665558       1.27542722
C       21.64725113      25.05243874       7.63001633
C       28.18210411      28.26023674       1.61899018
C       30.90479279       0.86033708       1.17226231
C       25.45447350      25.54725266       7.44723463
C       30.79390907       0.89103800       2.50693750
C       25.80770111      26.19818687       6.30270052
C       21.85004616      25.12077332       6.29347944
C       28.09769249      28.02813911       2.94129014
H       24.24345970      24.55835533       4.90034819
H       26.31094742      28.21430397       5.42106628
H       28.39394188       1.30469000       3.79810786
H       28.31254387      26.58002472       4.52286434
H       25.36967278      26.06229019       3.43575287
H       25.27333450      29.48655128       7.45115900
H       27.79199791      58.86261368       5.84531736
H       29.48725891      24.95370483       3.10365701
H       22.27004051      25.64034081       8.31070805
H       27.90295219      29.23488426       1.19492817
H       30.20281792       0.16237190       0.66152322
H       25.44298744      24.44673920       7.43075085
H       30.00213242       0.27783093       3.00265074
H       26.47275734      25.64130592       5.60504198
H       22.59464455      25.72728729       5.75108099
H       27.60986710      28.77249146       3.59200478
C       19.65992737      23.57349014      10.41501427
C       20.67216110      26.70483017      12.88747406
C       24.37654304       1.54989111      12.34321404
C       23.68293571      26.47421265      10.57761192
C       20.55858040      24.36243629       9.75254250
C       19.96175575      27.55434418      13.66013718
C       24.55427361       0.40849862      13.05641460
C       24.41571808      25.73525810       9.70481396
C       20.73653412      24.19909477       8.35472775
C       19.39618683      27.12734795      14.86950016
C       24.72537804       0.33618039      14.45440006
C       24.89133072      26.34499931       8.44208336
C       15.97345448      25.51507950      14.43653011
C       23.74634361      28.38537788       9.26485634
C       27.66082573       0.80522859       8.33069897
C       20.73859978      25.12664795      14.70516491
C       27.57641220       1.42891848       9.53210258
C       21.11744499      25.49045181      13.45748138
C       16.12922859      25.26175880      13.13899899
C       23.22171783      27.76895905      10.34371662
H       19.70825195      23.54920578      11.49335384
H       21.04216194      27.05334473      11.90298939
H       24.13988495       1.60473645      11.27711105
H       23.32096481      25.90594673      11.50255013
H       21.12706375      25.13039970      10.23863220
H       19.51674652      28.46774292      13.32219219
H       24.69618988      58.39065552      12.52077007
H       24.48050117      24.68335915       9.92402077
H       16.25413895      26.48701477      14.80727196
H       23.60111046      29.48051643       9.23765373
H       27.24471092      58.71023178       8.07180595
H       21.11196518      24.22427559      15.18196583
H       27.06521225       0.92107683      10.32757378
H       21.90907478      24.86978149      12.86758804
H       16.75567436      25.82792854      12.45732021
H       22.63389969      28.32559013      11.13274956
C       14.47367096      24.38140297      17.58234596
C       15.84252930      26.98006630      19.95783234
C       19.79398346       1.85031712      19.69288254
C       18.22635841      26.16560364      17.08447266
C       15.12518787      25.19915581      16.72252846
C       14.65472221      27.50978661      20.45599174
C       19.16797066       0.91884303      20.43944168
C       19.34019470      25.56333351      16.67820549
C       15.30440617      24.71025276      15.33821964
C       14.32207870      27.33023071      21.77953911
C       18.70898819       1.20254874      21.73547363
C       19.88179970      25.94026756      15.45591354
C       11.34195518      25.26438332      21.59356880
C       18.44517899      27.95833015      15.56848717
C       24.86907196      58.07897949      15.17473984
C       16.29651642      25.93886757      21.99678612
C       24.75233078      58.07851791      16.53095818
C       16.73126221      26.30718231      20.78492928
C       11.60475254      24.85930634      20.29432869
C       17.82206726      27.40829086      16.62265968
H       14.28934193      24.66609383      18.62320137
H       16.09457207      27.08996963      18.95254707
H       19.99648857       1.65237916      18.62569237
H       17.61254692      25.64509964      17.86983681
H       15.30542374      26.25830650      16.91695976
H       14.05919075      28.09495354      19.78126717
H       19.12414360      58.85995865      19.97058296
H       19.75488663      24.62626076      17.02605248
H       11.63046837      26.22003365      22.00913239
H       18.31565666      28.99260139      15.20094967
H       24.93217087      57.15988922      14.57854462
H       16.90394211      25.15300369      22.52065277
H       24.72443199      57.12200546      17.03055954
H       17.55324364      25.83166313      20.39673614
H       12.14624786      25.58028221      19.58306694
H       16.91703415      27.90540886      16.93890953
C        9.90413189      23.58545113      24.68227386
C       10.80870247      26.60845566      26.99196625
C       14.31860161       2.18973804      27.07582283
C       13.54131222      26.54356766      24.43735313
C       10.50641155      24.54053688      23.88167191
C       10.17209339      27.41094589      27.87246132
C       13.26065826       1.51943100      27.65860558
C       14.70036507      26.05391502      23.91721153
C       10.90222168      24.25914764      22.47665405
C       28.82210159      27.31014824       0.71457994
C       31.95279884       1.54289412       0.50809389
C       15.08208847      26.41158867      22.58772469
C       25.81830025      25.72297287       0.71352780
C       13.16218090      27.84271431      22.39295959
C       17.99246407       0.16802789      22.42115211
C       30.09030151      25.24009132       0.40825117
C       17.44643974       0.43037364      23.62131119
C       11.32929802      25.45838928      27.60111618
C        7.17305326      25.37513351      27.89453316
C       12.80492878      27.37744331      23.62170219
H        9.73362446      23.84146309      25.73305893
H       11.00148296      26.82989311      25.94232559
H       14.45681095       2.12932158      26.00815010
H       13.25814152      26.32203484      25.46620178
H       10.80582905      25.52620316      24.22794914
H        9.76469612      28.31816864      27.49532700
H       12.69061279       0.94532573      26.99505615
H       15.33739185      25.37860870      24.38982964
H       26.32449722      26.55886078       1.12062407
H       12.34088993      28.42531776      21.90827179
H       17.84800720      58.07758713      21.89937973
H       30.40534973      24.29718018       0.84787518
H       16.85902405      58.50586319      24.05690384
H       12.05097103      24.81609535      26.99637794
H        7.75230741      26.01201439      27.26056480
H       11.81547642      27.71040535      23.99390030
C       23.64913368       1.08212984       3.01260257
C       24.65695953       4.38894081       5.11132097
C       28.58625984       7.59632397       5.03906298
C       27.46716881       4.64335442       2.81978464
C       24.66761971       1.77829909       2.24568009
C       24.12867546       5.31759357       5.90151739
C       27.81763077       6.67753172       5.78186321
C       28.15841866       3.91300082       1.93992853
C       24.58964539       1.67572165       0.80069488
C       23.88014984       5.03653526       7.27768326
C       27.59591103       6.81375551       7.18034792
C       28.49324608       4.36902761       0.63396764
C       21.09065819       3.18551421       7.53133202
C       27.37938881       6.39949894       1.29548526
C       31.68117905       5.91773129       1.01613891
C       24.89474487       2.88673019       6.95094776
C       31.42934608       6.17429733       2.36332607
C       25.09878540       3.17123342       5.67041683
C       21.55088615       2.80444193       6.31275511
C       27.10026550       5.97683763       2.53553319
H       23.51675415       1.20265853       4.03441048
H       24.76300240       4.63542748       4.02576160
H       28.64266205       7.50536966       3.92101693
H       27.26690102       4.18088484       3.81089711
H       25.18393517       2.60919786       2.66128230
H       23.81032372       6.33819771       5.64822721
H       27.34515190       5.79697418       5.28910732
H       28.50459671       2.91930962       2.23794246
H       21.45323563       4.14758015       7.94116116
H       27.04739189       7.32238674       0.87828749
H       31.30238533       5.14681768       0.40362114
H       25.15845299       1.95577550       7.35347700
H       30.60676575       5.55931711       2.74592209
H       25.67658424       2.46353817       5.13712597
H       22.26835632       3.38713479       5.81017494
H       26.53114891       6.56074762       3.24053121
C       18.76018715       2.00729561      10.12708473
C       19.98208046       4.59217215      12.58681297
C       24.19764328       7.53084660      12.30000973
C       23.10910797       4.30004263       9.94939041
C       19.64960289       2.76476216       9.46487331
C       19.41452408       5.58828115      13.36926746
C       23.58935356       6.47979975      13.00252819
C       23.92832184       3.42962360       9.19394970
C       20.08081055       2.48817515       8.16317463
C       19.08896255       5.30702066      14.77172756
C       23.13987541       6.63067293      14.34389496
C       24.33996963       3.79658580       7.86460876
C       16.21157646       3.42651391      14.17735386
C       23.30332184       5.95995378       8.11361790
C       26.92056656       5.82247782       7.93848896
C       20.32758903       3.29750681      14.55310440
C       26.49990845       6.08527899       9.17702007
C       20.47419548       3.43440366      13.20553398
C       16.27097130       3.11440563      12.86835384
C       22.88306236       5.54653692       9.37268734
H       18.43444633       2.07539511      11.15348053
H       20.15159988       4.68948841      11.48512268
H       24.47460938       7.40762568      11.25120926
H       22.70168877       4.07876682      10.95404530
H       20.10314178       3.57195640       9.99970150
H       19.29236221       6.58336973      13.07539654
H       23.45714760       5.52928495      12.56121445
H       24.21217918       2.43350816       9.49493504
H       16.82330704       4.31831360      14.56593513
H       23.06708908       7.00400639       7.79758596
H       26.48738861       5.02905846       7.36874390
H       20.78511620       2.46086144      15.02250385
H       25.80381012       5.35105324       9.56212425
H       20.94143295       2.65346169      12.58420753
H       16.94075012       3.67005372      12.20248508
H       22.17759705       6.18176508       9.81140423
C       14.23246670       2.31218719      17.26512909
C       15.48283195       4.88278961      19.80498886
C       19.50773048       7.21449327      19.68440247
C       18.57479858       4.74838924      17.40024376
C       15.28917313       2.93872571      16.52540779
C       14.73178482       5.65174437      20.70316505
C       18.78463364       6.39442968      20.47784424
C       19.47503471       4.02078915      16.73359489
C       15.37498283       2.75238085      15.11773014
C       14.58439064       5.27209377      22.11014557
C       18.42099953       6.81864691      21.80145454
C       19.65183830       4.19019890      15.34520435
C       11.97487926       3.58659625      21.65876770
C       18.28920174       6.20785713      15.52740479
C       22.55236244       5.55733490      15.07769299
C       15.87843037       3.28200030      21.57503319
C       22.34888077       5.65167522      16.41933060
C       16.01871109       3.64818954      20.21113968
C       12.02483749       3.28074408      20.32988167
C       18.00972366       5.93436241      16.80045128
H       14.12545490       2.66430378      18.27843475
H       15.55181026       5.24484777      18.75140381
H       19.78697586       6.81003189      18.75079727
H       18.43195534       4.59166193      18.48320198
H       15.88428497       3.62767625      17.11061096
H       14.20591164       6.54503345      20.38412857
H       18.44413948       5.38542509      20.20949364
H       19.93379211       3.15209270      17.14281464
H       12.68445969       4.36949968      22.04540253
H       17.87944412       7.06078243      15.03004169
H       22.08265495       4.69684315      14.62524891
H       16.30055046       2.32069778      21.89518547
H       21.75716972       4.87897491      16.90706062
H       16.71373940       3.11407471      19.61477852
H       12.82182503       3.73580551      19.71614075
H       17.44074249       6.59476614      17.42115974
C        9.57024288       3.05774593      24.47367859
C       10.53159714       5.50883579      26.75065804
C       14.85210609       7.49586535      26.78533363
C       14.12227917       4.38689566      24.62920380
C       10.75347710       3.41463590      23.82098007
C        9.58259106       6.13811779      27.58249474
C       14.10953236       6.56391859      27.44431877
C       14.81043530       3.60098267      23.76244926
C       10.83299065       3.15944791      22.41335106
C       28.12028694       5.66266108       0.37640068
C       32.52291489       6.82314444       0.23759614
C       15.07327938       4.01585197      22.46111298
C        6.55045748       2.57545424      28.48203659
C       13.78324795       6.05809927      23.01217842
C       17.63998032       5.91819096      22.62759209
C       10.53395462       3.60979462      28.31984138
C       17.33426666       6.38675308      23.90002060
C       10.95257473       4.22095251      27.16826820
C        6.64317799       2.36320949      27.13347816
C       13.62048626       5.58892727      24.27521515
H        9.42405605       3.23247981      25.51531029
H       10.74370670       5.90688801      25.79165840
H       15.24975491       7.18445063      25.78865242
H       13.75638580       4.00950146      25.58999252
H       11.41853714       4.02486086      24.41694260
H        9.16284847       7.01955795      27.17501450
H       13.77994823       5.66269588      26.85929298
H       15.18091488       2.64710689      24.09101486
H       26.10567474       3.22293973       0.44163516
H       13.26198673       6.94754744      22.66444206
H       17.45122719       4.88799095      22.26274872
H       10.80653381       2.57922554      28.49969101
H       16.87382317       5.83790636      24.70929337
H       11.78073215       3.69921684      26.59032440
H        7.25362635       3.05909109      26.56039619
H       12.99678135       6.20817137      24.92701340
C       23.97738838       7.64668083       2.83231115
C       24.83067131      10.78040695       5.13073921
C       28.99134254      12.79689884       5.61142921
C       28.03010750      10.67889595       2.93877411
C       24.72304153       8.46504879       2.04763985
C       24.03135872      11.42785835       6.07544851
C       28.15449333      11.96171284       6.35768509
C       28.80294228       9.70387173       2.24189544
C       24.91413689       8.04000854       0.70298392
C       23.76710510      11.00657463       7.38987112
C       27.86415291      12.34670067       7.69450712
C       28.93433571       9.77500153       0.84058827
C       21.14776802       8.77728081       7.28907490
C       27.55566978      11.84801960       0.88560003
C       31.93200302      11.36421394       1.19390666
C       25.02360916       8.97721863       6.72181082
C       31.72821617      11.69221687       2.54970598
C       25.47949982       9.49932575       5.52848721
C       21.56301689       8.32167816       6.04304695
C       27.34034157      11.69337654       2.23371029
H       23.78752327       8.00607967       3.84405828
H       25.10562325      11.12221527       4.10392857
H       29.24635124      12.53222942       4.52673769
H       27.78775597      10.46128750       4.00727653
H       25.08064651       9.48904324       2.34346080
H       23.65757179      12.41444015       5.88497210
H       27.95271683      10.97768497       6.07634115
H       29.12346268       8.89263821       2.86362314
H       21.57281494       9.67193222       7.64377499
H       27.00540352      12.61885166       0.40194532
H       31.53673553      10.42566204       0.79630983
H       25.34417915       8.00070572       7.06401825
H       31.12387466      11.01500607       3.16690421
H       26.14407158       9.01495266       4.78822327
H       22.11473083       8.91446495       5.43272686
H       26.52877808      12.35542011       2.54256868
C       19.41171455       7.71320057      10.42234039
C       20.57430840      10.31054115      12.60332966
C       24.27594566      12.87725067      12.53140450
C       23.20402908       9.84769344       9.84902287
C       20.08933067       8.44362164       9.57468605
C       19.67912674      11.12843418      13.25047874
C       23.47828293      12.04637051      13.27841759
C       23.94104958       9.08931828       9.01790237
C       20.43128586       8.00896168       8.26594162
C       19.17017174      10.79988289      14.57977104
C       23.19785690      12.34601021      14.67378044
C       24.23226738       9.64735031       7.69705534
C       16.33916283       9.06904221      14.41250134
C       22.87015915      11.61375046       8.27526379
C       26.99956894      11.60929298       8.51073074
C       20.57679939       8.69777107      14.46096134
C       26.62418175      12.11595440       9.75589371
C       20.94832611       9.09531689      13.19552517
C       16.72729683       8.61386490      13.17031193
C       22.68159676      11.04923725       9.54511642
H       19.16353226       8.19497490      11.34649086
H       21.03532028      10.66745472      11.65179539
H       24.51743507      12.66417408      11.49254799
H       22.91891861       9.43917751      10.82021523
H       20.44728470       9.45316982       9.85981560
H       19.34144211      12.14246845      12.88717270
H       23.16151047      11.03078175      12.84847355
H       24.29661179       8.13107204       9.28530312
H       16.80481338       9.93186474      14.77135658
H       22.63114166      12.64545631       8.12748146
H       26.61316109      10.73687458       8.06567955
H       20.84842110       7.66373682      14.83857822
H       25.93012810      11.43667698      10.31629658
H       21.61124039       8.37216568      12.81015682
H       17.45529938       9.23435593      12.63000393
H       22.29055405      11.56707954      10.42745590
C       14.50634956       7.53410435      17.29529762
C       15.49383163      10.44862175      19.61951447
C       19.41175461      12.58425331      19.96560478
C       18.32816315      10.17220402      17.10570335
C       15.31581402       8.41090107      16.59711647
C       14.81663609      11.32534695      20.40951729
C       18.52950287      11.96119308      20.81398201
C       19.27173996       9.30367279      16.53937531
C       15.54785156       8.19506836      15.27441692
C       14.48963547      10.91948032      21.73298645
C       18.27211571      12.38478756      22.11468506
C       19.68913460       9.59810543      15.19042015
C       11.63484955       8.88101387      21.20371246
C       18.25209999      11.65253735      15.26905251
C       22.41803932      11.38676453      15.37865448
C       15.66743088       8.72265530      21.31999588
C       22.12803841      11.70113182      16.69954109
C       16.00405502       9.15534878      20.08738518
C       12.06454659       8.23587513      20.08527946
C       17.84277153      11.39910126      16.53936386
H       14.25438976       7.83451414      18.30587006
H       15.82336426      10.82553864      18.61504745
H       19.65453911      12.15461349      19.00029182
H       18.21962547       9.88054943      18.12160492
H       15.60371876       9.25626850      17.17270660
H       14.53700256      12.29471111      20.02260399
H       17.91901588      11.19950771      20.38376808
H       19.61883545       8.47769356      17.13855362
H       11.93203640       9.90383244      21.45935059
H       17.97760773      12.54447269      14.63211155
H       22.25825119      10.37456417      15.02087688
H       15.93102646       7.70552206      21.48486519
H       21.70573044      10.86615658      17.29124832
H       16.55053139       8.43588734      19.55867195
H       12.68544102       8.82017040      19.39210129
H       17.27343750      12.09228992      17.14057350
C        9.84988689       7.76731825      24.30276299
C       10.72265244      10.26814747      26.60672569
C       14.66757393      12.83196926      26.79879761
C       13.82349682      10.02903557      24.37392998
C       10.57262230       8.56986141      23.46228790
C        9.89636135      11.12116528      27.27848816
C       13.82422161      11.99090767      27.52627563
C       14.65298462       9.25714684      23.54747200
C       10.85423565       8.18195438      22.16681480
C       28.39950180      10.97532558       0.15312445
C       32.51538467      12.31051350       0.31311879
C       14.99791718       9.65337563      22.21162415
C        6.90005922       8.84399414      28.40201950
C       13.70599937      11.65908337      22.61712074
C       17.46718407      11.56234455      22.95164490
C       29.62254906       8.82778740       0.01144375
C       17.32243347      11.94301128      24.22072983
C       11.18260384       9.04146862      27.22528458
C        7.13427019       8.54074097      27.10193443
C       13.44188786      11.27255535      23.90108681
H        9.71712494       8.07372761      25.26788521
H       10.97177219      10.45939827      25.51630020
H       14.66867733      12.68565273      25.69867325
H       13.58310413       9.62472534      25.32323837
H       10.93223953       9.51823807      23.84505653
H        9.70741272      12.08946514      26.85212708
H       13.10313892      11.18471241      27.14152718
H       15.11046314       8.23117161      23.84871483
H       25.96035194       9.77274799       0.34111321
H       13.28747272      12.62657356      22.30926895
H       16.92621803      10.76540375      22.48882103
H       30.05596924       7.86196613       0.40681651
H       16.65943718      11.38389015      24.82902908
H       11.62857532       8.23317814      26.64279747
H        7.82709980       9.17701149      26.65866661
H       12.89875317      11.89296627      24.62403870
C       23.71217346      13.32386112       2.74331999
C       24.92039108      15.77614594       5.64791298
C       28.89139938      18.18867111       5.31191254
C       27.70023155      15.16963005       2.76816177
C       24.46476555      14.13542938       1.95175147
C       24.01551819      16.52548790       6.39102650
C       28.10887527      17.40697479       6.11467838
C       28.67051125      14.45531178       2.05937886
C       24.82430077      13.75929642       0.63174194
C       23.65666389      16.15360641       7.68902302
C       27.88517189      17.78878593       7.49546480
C       29.07361984      14.97835636       0.80510741
C       20.87167168      14.29466248       7.33035803
C       27.77338791      17.00165558       1.13401997
C       31.72330475      17.02404022       1.35285676
C       25.01397705      14.19101334       7.39410400
C       31.36567879      17.36811066       2.65793681
C       25.31549454      14.56184864       6.09719563
C       21.15857506      13.98851490       6.06567383
C       27.24715614      16.42810059       2.27789950
H       23.32163429      13.74678135       3.68039584
H       25.34965134      16.16764832       4.68475103
H       29.08855629      17.71590042       4.39219427
H       27.54752922      14.80626774       3.75258493
H       24.77943039      15.12521172       2.32336068
H       23.62062836      17.39182281       5.99655437
H       27.79677200      16.40248108       5.89106083
H       29.10940552      13.49243641       2.45277381
H       21.00329781      15.25380802       7.76973677
H       27.50403595      17.98549843       0.78003371
H       31.52781868      16.04734421       0.89132810
H       25.35299301      13.20070648       7.65604544
H       30.81932831      16.57724953       3.18873096
H       25.89366913      13.84711170       5.49683762
H       21.65051079      14.64087105       5.36017370
H       26.50135803      16.96816444       2.79496050
C       19.18948746      12.96741295      10.36005211
C       19.82501984      15.82854271      12.58203125
C       24.40242958      18.41812134      12.91253948
C       22.88671112      15.27161884      10.31232834
C       19.88183212      13.85162735       9.55299377
C       19.01467514      16.50681114      13.48812103
C       23.44011307      17.64528656      13.49390888
C       23.80190086      14.50353909       9.56536293
C       20.18262863      13.45753765       8.23979378
C       18.93284607      16.19137192      14.87658501
C       23.07832336      17.88601875      14.82938480
C       24.11690521      14.91590786       8.22335243
C       16.19851685      14.56049156      14.35163307
C       22.83591080      16.98174858       8.55284119
C       27.18762779      16.98964119       8.39437389
C       20.35873795      14.35369110      14.44797325
C       26.88924217      17.42370033       9.63391018
C       20.55196762      14.70669079      13.11818695
C       16.65903854      14.19244766      13.12936592
C       22.39681816      16.52337456       9.81387901
H       19.00248528      13.24439144      11.37688446
H       19.71902275      15.97624969      11.45309258
H       24.73438263      18.16223526      11.89597797
H       22.58664703      14.89751244      11.24061203
H       20.11981964      14.81631565      10.04142857
H       18.52985191      17.46571541      13.39171410
H       22.92104721      16.82869720      13.02589798
H       24.02877808      13.46435547       9.93708897
H       16.27609444      15.58552170      14.73265743
H       22.55556679      17.95404625       8.19612408
H       26.88636017      16.00677872       8.02761078
H       21.02236366      13.64746380      14.94950104
H       26.24023056      16.85256577      10.36714554
H       21.18888664      14.13419819      12.51855755
H       17.14228058      14.77835083      12.42445564
H       21.58687210      16.97081184      10.41193485
C       14.34734535      13.13422298      17.21077347
C       15.86338711      16.03672218      19.77482224
C       19.58105278      18.40528297      19.90545845
C       18.39874649      15.50586128      17.46056747
C       15.07200241      13.97507763      16.44984436
C       15.32293606      16.93858147      20.66632271
C       18.94110680      17.52852440      20.75834274
C       19.09377098      14.59959126      16.65188408
C       15.46477509      13.66955853      15.16185474
C       14.82354259      16.57687759      21.93711472
C       18.64176369      17.93017197      22.08960724
C       19.47057533      15.00288677      15.34660530
C       11.68517017      14.78741550      21.68863487
C       18.09107399      17.05477715      15.68664360
C       22.29520988      16.99582100      15.57629681
C       15.91044998      14.42528820      21.50437164
C       21.93593979      17.20326424      16.91788673
C       16.18219948      14.75028229      20.20248413
C       11.93160343      14.47244072      20.38184738
C       17.83573723      16.73303795      17.02083015
H       13.89930534      13.44202137      18.11995697
H       15.98326588      16.25215721      18.67170525
H       19.69742584      18.00094986      18.87089157
H       18.12079620      15.12891388      18.43200684
H       15.44832134      14.90564728      16.92359543
H       15.05605507      17.90042496      20.26219559
H       18.60038376      16.51638412      20.37328339
H       19.31585884      13.62217045      17.04365158
H       11.96111774      15.69883537      22.13916969
H       17.48255157      17.87433624      15.18223286
H       22.19141006      16.06591415      15.10801411
H       16.23436928      13.44455910      22.05723381
H       21.53055000      16.42134476      17.54456520
H       16.83372116      14.01658535      19.68905449
H       12.50442696      15.09363651      19.63504410
H       17.23751259      17.46736336      17.51331520
C        9.73531532      13.41376400      24.48898697
C       11.10647106      15.86728382      26.74565506
C       14.87229061      18.67401695      27.17049599
C       13.79491711      15.61516666      24.35091591
C       10.56836605      14.25438786      23.80186081
C       10.19887543      16.64434242      27.54983902
C       14.03654766      17.74887466      27.82153893
C       14.53607082      14.77849674      23.53865051
C       11.03115654      13.83590031      22.54304886
C       28.57756042      16.18087578       0.30056331
C       32.56127548      17.96798134       0.61009443
C       15.11881256      15.24598217      22.30564499
C        6.69156075      14.73839188      28.29774666
C       13.99961758      17.29355621      22.71592331
C       17.98084259      17.03713799      22.95001602
C       11.09504700      14.17933083      28.45200920
C       17.54879189      17.37953949      24.20515823
C       11.54366779      14.65937710      27.26659203
C        7.01308680      14.38179970      26.96034050
C       13.41448689      16.89989090      23.88965034
H        9.28855324      13.68316746      25.42003632
H       11.51424503      16.31376648      25.90752602
H       15.05258274      18.55243874      26.10112190
H       13.49901581      15.13067150      25.31488609
H       10.77084064      15.14957523      24.29106140
H        9.91189575      17.53059769      27.02922249
H       13.65678787      16.93404007      27.22790337
H       14.99716854      13.83390141      23.83366013
H       25.70986748      15.71038628       0.18118094
H       13.85244465      18.30838585      22.37316322
H       17.76175880      15.99253559      22.74663925
H       30.12529564      13.14002895       0.22363766
H       17.09732819      16.65163994      24.90289307
H       12.36498642      14.20551109      26.74303436
H        7.50290823      15.08328533      26.34037781
H       12.81952477      17.52702713      24.37438011
C       23.83510971      18.61841774       3.20401478
C       25.27187347      21.57354546       5.83283091
C       29.00351143      24.00434685       5.72648335
C       28.16967011      21.41494751       3.39253879
C       24.73739433      19.46190834       2.61818147
C       24.38112259      22.22808647       6.67455959
C       28.21010208      23.16363716       6.51358223
C       28.83296967      20.52103615       2.54567480
C       25.04677391      19.35837173       1.22157836
C       24.03269958      21.78900337       7.96808052
C       27.96382713      23.46639061       7.88478899
C       28.91863060      20.88627434       1.18128276
C       21.13572121      19.84568024       7.41731739
C       27.83874130      23.07260323       1.54888427
C       32.03454208      22.47062111       1.53199553
C       25.23169136      19.70788002       7.36046362
C       31.71379280      22.83554268       2.78701997
C       25.70770264      20.30508423       6.20651007
C       21.45970726      19.59888458       6.11790609
C       27.74296379      22.68579864       2.90380931
H       23.64830780      18.75652123       4.25951242
H       25.41111946      22.03472519       4.96003294
H       29.44382095      23.66719437       4.76947927
H       28.00118828      21.30996895       4.38271523
H       25.37219620      20.16169357       3.22032118
H       23.99856758      23.15792465       6.38992834
H       27.75650406      22.27115822       6.01289368
H       29.08174133      19.53934669       2.93346190
H       21.41805458      20.70662689       7.92276096
H       27.27441978      23.88974190       1.17643118
H       31.81425858      21.48238945       1.28074944
H       25.52096367      18.65679550       7.61815405
H       31.21234512      22.14249992       3.44825387
H       26.43772697      19.76898766       5.64722872
H       22.27780724      20.22378731       5.68593502
H       27.27236748      23.32089615       3.62477994
C       19.13913727      18.42862892      10.18854523
C       20.02322960      21.15130806      12.84909821
C       24.36337090      23.63790131      12.70541000
C       23.22196388      20.63008308      10.38175201
C       19.88921165      19.31035042       9.48912334
C       19.23271751      22.00520325      13.52777672
C       23.69687653      22.74735451      13.44711399
C       24.04004288      19.87782860       9.53593445
C       20.25530815      18.98898697       8.16283989
C       18.99496078      21.70421410      14.85839558
C       23.35691452      23.09195137      14.79495811
C       24.42184258      20.42250061       8.24681473
C       16.42369652      19.97151375      14.67725945
C       23.17876244      22.52015686       8.87921906
C       27.36037827      22.57058334       8.73056602
C       20.12093735      19.58856010      14.72253227
C       26.97217941      22.88253021       9.98725128
C       20.41259384      19.92139053      13.41716003
C       16.70850372      19.58706093      13.34455299
C       22.81215668      21.91699791      10.05891323
H       18.76132965      18.57503891      11.20761108
H       20.29888535      21.35575867      11.79967403
H       24.57648659      23.46500397      11.68579769
H       22.96274757      20.15500832      11.38753033
H       20.33252716      20.13128853       9.99034119
H       18.81261826      22.85167885      13.07548809
H       23.20867538      21.88211823      13.09905052
H       24.14502144      18.83510971       9.79808140
H       16.93253899      20.87610054      15.07984543
H       23.05296326      23.60246277       8.69501114
H       27.05399704      21.63418770       8.35136604
H       20.30415344      18.64379883      15.24532604
H       26.46567154      22.16050339      10.60252762
H       21.02804565      19.19101906      12.76944542
H       17.19807243      20.23210716      12.69533730
H       22.37668037      22.51871109      10.86797523
C       14.58855534      18.76110840      17.54869843
C       15.90773678      21.79409790      20.03681183
C       19.63934898      24.02621651      19.87397003
C       18.48309898      21.24290085      17.60284805
C       15.30821228      19.57047462      16.75042915
C       15.39203548      22.62720108      21.05026436
C       18.98071480      23.10753441      20.57768822
C       19.22485542      20.33150101      16.87804031
C       15.57047367      19.19659805      15.42517853
C       14.92364216      22.04227638      22.25173187
C       18.76093864      23.44947815      21.96644783
C       19.52569580      20.53803062      15.48701859
C       12.11172962      20.03653336      21.81388474
C       18.21570969      22.63406944      15.66756630
C       22.49671364      22.31707001      15.62551785
C       16.02744675      19.97546196      21.58930588
C       22.08647728      22.74973679      16.86304855
C       16.16122246      20.45464325      20.33532906
C       12.32762814      19.78721237      20.52630234
C       17.92960167      22.42694283      16.96789742
H       14.51281643      18.99032021      18.59540558
H       15.97984409      22.10026741      18.97781754
H       19.84282684      23.81743240      18.85048294
H       18.06106567      21.00833321      18.60127831
H       15.65052986      20.58140183      17.12611771
H       15.21362114      23.58824921      20.77676392
H       18.57626915      22.18915939      20.23437500
H       19.48613358      19.41351700      17.40665627
H       12.62259197      20.93385506      22.17975426
H       17.79487610      23.51732636      15.19358921
H       22.12856102      21.34128761      15.27359390
H       16.25719643      18.95132256      21.89105606
H       21.41216850      22.07366371      17.37457275
H       16.58550262      19.75687790      19.61117172
H       12.82842445      20.52161217      19.91183662
H       17.38888168      23.17819977      17.53478050
C       10.17800426      18.71533966      24.75705910
C       10.88205814      21.72203445      27.13159561
C       15.08049297      23.84930038      26.99643898
C       14.19716930      20.98660851      24.72238159
C       11.02161121      19.48765945      24.00965881
C        9.96658421      22.49528503      27.86291313
C       14.44217873      23.00839424      27.93228722
C       14.96036339      20.18625641      23.88427734
C       11.29169559      19.21160316      22.64956093
C       28.45565796      22.11378479       0.63481331
C       32.76536560      23.37915993       0.63136560
C       15.31147575      20.72274590      22.61441994
C       25.75084686      20.34006119       0.55438840
C       14.16278076      22.84943199      23.14056969
C       17.97971153      22.68406105      22.82025719
C       29.58020401      20.02691650       0.32646966
C       17.71638870      22.99034500      24.12089157
C       11.23433495      20.45019341      27.61347961
C        7.24535894      20.28973579      27.75041389
C       13.82117462      22.38578224      24.40563202
H       10.04676056      19.21692085      25.67834091
H       11.30836487      22.06077957      26.14748001
H       15.52465153      23.37021637      26.11924362
H       13.97818470      20.74626732      25.74656487
H       11.49772167      20.39518356      24.32826614
H        9.74747944      23.44635391      27.48507309
H       14.22084427      22.03354454      27.59022903
H       15.30988407      19.21668816      24.14886284
H       25.97951126      21.18921280       1.18921256
H       13.80172157      23.72453880      22.57781219
H       17.48317528      21.77334976      22.38634682
H       29.84113312      19.06953812       0.75073159
H       17.09472084      22.37277985      24.72283173
H       11.73344040      19.78159714      26.94782829
H        7.62833834      21.10453415      27.18380356
H       13.33440113      23.06176949      25.10726357
C       31.11370087      51.86387253       9.59691620
C       -8.62566853      49.84759521      14.19239044
C       30.72152328      52.38311768      10.85997295
C       -8.26700211      49.38476562      12.93041611
C       30.95802307      51.49111176      12.02362537
C       31.45795631      50.19946671      11.77949142
C       30.49325180      51.94012451      13.27227974
C       31.74229813      49.77276993      10.46996403
C       31.61353493      50.59457016       9.42303181
C       -9.18778706      51.17091370      14.35838699
H       31.09513283      52.56497574       8.69886398
H       -8.54863834      49.06764603      14.99271679
H       30.35610580      53.37075806      11.01498318
H       -8.04422760      48.35919189      12.81744766
H       29.85693741      52.78893280      13.19741821
H       32.17596054      48.73468399      10.29407597
H       31.88595390      50.34479523       8.41195011
H       -9.48148823      51.27660370      15.39007378
C        3.42164063      55.10901642       3.32028532
C        4.89266682      50.55301666       1.60132694
C        2.76248240      53.92498779       2.97552705
C        5.50986290      51.69055939       2.00575686
C        3.42411685      52.76973343       2.59387851
C        4.86380482      52.86215973       2.56362081
C        2.75391483      51.60108566       2.13814402
C        5.52237654      54.06902695       2.78817511
C        4.82207394      55.16754913       3.17831945
C        3.43132091      50.51818466       1.68273664
H        2.83941579      55.93522263       3.66184759
H        5.31540775      49.71406174       1.04870832
H        1.62856877      53.92494202       2.99357462
H        6.56769037      51.74322891       1.96627128
H        1.71222830      51.62944412       1.92888796
H        6.62809849      53.98017502       2.76311946
H        5.38099861      56.06349945       3.47274899
H        3.02765346      49.72053146       1.11181378
C       28.48282242      49.19990158      11.14751625
C       28.78601837      45.86429214      15.02144146
C       28.17783165      49.23165894      12.44489765
C       29.17483521      45.80165863      13.72043610
C       28.46367455      48.09638596      13.34296131
C       29.00145340      46.92036438      12.83128452
C       28.03154373      48.10708237      14.72964573
C       29.43203926      46.96655655      11.47685242
C       29.15702248      48.01116180      10.72529507
C       28.27591324      47.04216766      15.54756165
H       28.35294914      50.10066605      10.44615459
H       29.02350616      45.09405136      15.77341557
H       27.79930687      50.09977722      12.96062660
H       29.57956314      44.79545212      13.38130283
H       27.75865555      49.10258102      14.97682858
H       29.83633232      46.12557602      10.96763992
H       29.50569344      48.05953598       9.65173817
H       28.27798462      47.14590073      16.62615776
C       15.39084911      37.10229492      12.74229622
C       15.75960922      34.72620773      17.07914162
C       14.52628422      36.31653976      13.45878124
C       16.64414215      35.40819550      16.33293915
C       14.97776031      35.82303619      14.64383507
C       16.27552605      36.02257919      15.12893677
C       14.13115788      34.92905045      15.39671707
C       16.98299980      37.05430984      14.50148869
C       16.56712914      37.53285980      13.29998112
C       14.48469830      34.44019699      16.57499695
H       15.21995544      37.51195526      11.74207592
H       16.09717941      34.23479462      17.94946289
H       13.65037441      35.89391327      13.13282585
H       17.77505302      35.41133499      16.49235153
H       13.18395615      34.62362671      14.98221207
H       18.02245331      37.37052155      14.86551476
H       17.29217529      38.11820221      12.69543076
H       13.69852066      33.89578247      17.15449142
C       10.33253098      52.06615067      20.55324936
C       13.46270657      48.26387024      20.02486992
C       10.44143867      51.03937531      19.66506958
C       13.55584812      49.38094711      20.72008896
C       11.46188736      50.11436844      19.74046135
C       12.53138638      50.37335587      20.55844498
C       11.50647449      48.99361420      18.88859558
C       12.56302166      51.59177780      21.37757492
C       11.44429493      52.31174850      21.40834236
C       12.48196983      48.11015320      19.04872894
H        9.47472763      52.69798279      20.81423950
H       14.26458168      47.44694138      20.05585861
H        9.48030281      50.93402481      19.04150391
H       14.41854000      49.46364212      21.38854218
H       10.86091232      48.90052032      18.02731323
H       13.43476295      51.77001190      21.95865440
H       11.33581066      53.24393082      21.97350502
H       12.74760628      47.32801056      18.34701920
C        9.74483776      41.16875458      12.60037994
C        9.89122391      39.12164307      17.30385208
C        8.66262531      40.45468903      13.32975674
C       10.74382114      39.77511597      16.39833641
C        9.11556530      39.78750992      14.63911629
C       10.41921330      39.94994354      15.06738377
C        8.21085835      39.29944229      15.58919334
C       11.49677181      40.34465790      14.09654999
C       11.01144695      41.30871582      12.99641037
C        8.59040451      38.98835373      16.92442131
H        9.38246536      41.90453720      11.88279915
H       10.27134705      38.84437561      18.21264458
H        8.13079071      39.77208710      12.65521145
H       11.72099018      40.08356094      16.70567703
H        7.12012911      39.16843033      15.36866474
H       12.29124451      40.75033188      14.65701771
H       11.74565601      41.94282913      12.45345879
H        7.79372692      38.68624115      17.60556984
C        8.49002266      41.03192520       8.46688366
C        7.81625843      44.74010849       5.19945240
C        8.56726646      41.09754944       7.16409492
C        7.54787064      44.67353821       6.52735281
C        7.80002451      42.16679001       6.38872194
C        7.76972437      43.49826813       7.18267727
C        8.35234261      42.37150192       5.01752901
C        7.87810469      43.44441986       8.52398014
C        8.11337566      42.27464294       9.18939209
C        8.25005913      43.60941315       4.48030710
H        8.91743088      40.17447281       9.04010200
H        7.65785217      45.67885590       4.59837818
H        8.98440742      40.29953384       6.61675167
H        7.32929087      45.62366867       7.12120914
H        8.64825344      41.62273788       4.30449963
H        7.48250484      44.18951035       9.17122269
H        8.05053902      42.31630325      10.29096222
H        8.58875656      43.87527847       3.52368474
C        5.86881876      57.62961960      23.06611061
C        9.80915833      58.57451248      25.99914360
C        7.19655037      57.89622879      22.85168838
C        8.51885700      58.15737534      26.36855125
C        8.15262604      57.90183640      23.95238304
C        7.73818874      57.77367020      25.26809311
C        9.53306293      58.07889557      23.60900307
C        6.39355230      57.35987473      25.41651535
C        5.47573948      57.32297897      24.40012741
C       10.29794693      58.48317337      24.64635468
H        5.21050215      57.82587051      22.28271866
H       10.43449688       0.10977855      26.67760086
H        7.54298210      58.17484665      21.86852264
H        8.16893673      58.07520676      27.41847801
H        9.80372429      58.20142746      22.56066704
H        6.15759516      57.05939484      26.42360878
H        4.41166973      57.17084503      24.58507538
H       11.24701595      58.90785599      24.30254364
C       11.80520058      44.16021729      10.30308437
C       14.35355282      45.83205414      14.13030434
C       11.43017387      44.35295868      11.56040478
C       14.45628738      46.06056213      12.78610992
C       12.34545708      44.92810440      12.45502663
C       13.54719162      45.52477646      11.89338303
C       12.14001083      44.85205078      13.86605549
C       13.81940365      45.35694122      10.52633286
C       12.98613548      44.65925598       9.73732853
C       13.18229198      45.19218063      14.71440125
H       11.12691116      43.60681152       9.62921143
H       15.10080528      46.16127777      14.82604504
H       10.51186085      43.91288757      11.92529202
H       15.38468742      46.40989304      12.39309788
H       11.23000908      44.27440643      14.20621777
H       14.66473961      45.88718414      10.09306431
H       13.22067642      44.53920364       8.70493507
H       13.03910255      45.03140640      15.80162239
C       10.93493176      42.33248901      18.47821999
C       14.78513145      39.52127457      20.15077019
C       10.95320606      41.19772339      19.23129654
C       14.71565247      40.68144226      19.45223236
C       12.27628517      40.59801102      19.58762169
C       13.46084499      41.22192001      19.19516754
C       12.39348602      39.32404327      20.25609589
C       13.35245609      42.33873749      18.26571274
C       12.14021969      42.92711258      18.00346375
C       13.62251091      38.81747055      20.53699112
H        9.93217278      42.64152527      18.19641495
H       15.84000778      39.06905365      20.36484528
H       10.06936455      40.72353745      19.54578400
H       15.58504677      41.23941422      19.28491783
H       11.42271614      38.79401779      20.54576492
H       14.33342266      42.63819122      17.79059601
H       12.10460472      43.79561996      17.31755447
H       13.63670635      37.81084824      21.01114845
C       27.32902145      31.66086960      10.88897705
C       28.64976692      32.00931549       6.07262897
C       27.66623306      30.76250076       9.93579292
C       28.30439186      32.98218536       6.97092056
C       27.96604347      31.20880508       8.62390137
C       27.97785950      32.59719849       8.29675484
C       28.23359871      30.25410843       7.67379236
C       27.71593285      33.51640701       9.33055019
C       27.33078957      33.07012939      10.61520672
C       28.64348030      30.66534805       6.39900637
H       27.06790924      31.37589455      11.92768860
H       28.96208191      32.21397018       5.00775385
H       27.50918007      29.72025490      10.18112755
H       28.26936531      34.02489471       6.70533037
H       28.16974068      29.17359352       7.89391184
H       27.72447968      34.60202408       9.17949677
H       27.12324333      33.92292023      11.33801365
H       28.87252235      29.90858078       5.65199280
C       13.24174786      28.93572426      11.29801464
C       11.80676651      30.79878235       6.87352991
C       12.97107506      28.42265892      10.07870579
C       11.98090363      31.40394974       8.04112911
C       12.69456673      29.25458145       8.95222378
C       12.60146332      30.61470413       9.15142536
C       12.62209320      28.68515396       7.66100168
C       12.98242855      31.14822197      10.40531635
C       13.35778522      30.35660934      11.43672943
C       12.19706154      29.43004036       6.60462379
H       13.36869240      28.29722595      12.17128372
H       11.45381260      31.43556023       5.98417330
H       13.01905537      27.30022430       9.95344639
H       11.82472229      32.54632568       8.13119316
H       12.84115601      27.65872192       7.64340544
H       13.02347565      32.17124939      10.56508827
H       13.76182365      30.87825775      12.33773041
H       12.13628960      29.01987076       5.60504723
C       15.58479023      46.09275818      25.39430618
C       17.35952568      49.99827194      22.73800850
C       15.71504498      46.35794830      24.08271027
C       17.26301575      49.68972778      24.04722214
C       16.29195595      47.54929352      23.62169075
C       16.72797966      48.47013092      24.58308029
C       16.58904076      47.78062820      22.22909546
C       16.56665230      48.19744873      26.01955414
C       15.93112278      47.06229401      26.35201454
C       17.03524780      49.03325653      21.79412460
H       15.13637924      45.19497681      25.68355751
H       17.64806366      51.01164627      22.36123657
H       15.27395535      45.71369553      23.33245087
H       17.53773689      50.38675690      24.84839630
H       16.21796799      47.09876633      21.54463768
H       16.86886024      48.88907242      26.77940750
H       15.76380444      46.76296997      27.38258553
H       17.26629829      49.29297638      20.75154877
C       10.39546680      51.56464005       2.03996563
C        9.12497234      54.96854782       5.50738859
C       10.48425579      52.95479202       2.04857135
C        8.90602207      53.64217377       5.36865807
C        9.90881252      53.64789963       3.15052032
C        9.23430729      52.98354340       4.15254974
C       10.01777554      55.04801559       3.25067258
C        8.95668697      51.65227509       3.99108291
C        9.45570183      50.92849731       2.91595888
C        9.58433628      55.67739105       4.34830952
H       10.70878792      51.02324295       1.17405283
H        9.04776001      55.66807556       6.30842876
H       11.03760910      53.49403381       1.29197693
H        8.36077690      53.07815170       6.13429832
H       10.39583206      55.65919876       2.42544985
H        8.22567844      51.03987885       4.64254808
H        9.10219479      49.93376160       2.75104070
H        9.83673382      56.71601105       4.50373650
C       24.97188759      34.54787064      18.66154861
C       24.78982925      34.35861206      13.67566586
C       25.05581856      35.50078583      17.67443085
C       24.56666756      33.39603424      14.59106731
C       24.86601257      35.12192917      16.31121254
C       24.61245155      33.78491592      15.96051788
C       24.96865082      36.12078476      15.25871658
C       24.51638603      32.84228516      17.04424858
C       24.76751518      33.17363739      18.33311272
C       24.96941185      35.65040970      14.00237656
H       25.10782623      34.70301056      19.73862457
H       24.91485023      33.95056915      12.71381474
H       25.31474495      36.55857086      17.89409828
H       24.55672455      32.38042068      14.21248722
H       25.07973671      37.21909332      15.44673634
H       24.41495132      31.71685600      16.90365982
H       24.41923904      32.50341415      19.08396149
H       25.11399078      36.36900330      13.19916534
C       12.91108894       0.29252934      20.85185623
C       16.80461311      56.03633499      20.51595688
C       14.20134449       0.45544991      20.34263992
C       15.57897854      55.93944168      21.10389900
C       15.09317493      58.26224518      20.33040619
C       14.67161465      57.07070923      20.84089470
C       16.35434914      58.23221588      19.64697266
C       13.34079552      56.96522903      21.49424362
C       12.50108337      58.06256104      21.51853180
C       17.12964249      57.14822388      19.68188667
H       12.23567581       1.10983062      20.92559242
H       17.56835175      55.26470947      20.48178101
H       14.43655968       1.42301261      19.87073326
H       15.07887554      55.25105667      21.68802834
H       16.55376816       0.01262936      18.83294487
H       13.02587509      55.94188690      21.88350296
H       11.51123238      57.88574219      21.92441177
H       17.92407036      57.17445755      18.96773911
C       25.94316864      53.18846512      12.36451721
C       26.38152123      52.04386902      17.29443550
C       25.94535637      53.97023392      13.45466900
C       26.12746239      51.37647247      16.13568687
C       26.04893875      53.33626175      14.74898911
C       26.05637360      51.95079422      14.85677528
C       26.05186081      54.07610703      15.94429493
C       25.82381248      51.18021011      13.67118835
C       25.81907845      51.73844147      12.40127945
C       26.19570923      53.47475052      17.21327972
H       26.01642609      53.66238022      11.40595627
H       26.52739525      51.56686401      18.27291107
H       26.03816223      55.03053665      13.19957161
H       26.06712341      50.30971146      16.26939201
H       25.89764595      55.13309860      15.86285496
H       25.83130646      50.08076477      13.73814774
H       25.81771660      51.02399826      11.46958733
H       26.42665863      53.99632645      18.19371223
C       21.89615631       0.38953346      16.67250633
C       20.39121437      54.59317780      15.77695847
C       21.55429649      58.27457428      17.51868057
C       20.81398201      55.61811066      15.04066849
C       21.25379181      56.99045944      16.98153305
C       21.27528191      56.78253937      15.62135029
C       20.78459167      55.88521957      17.79861641
C       21.43050003      57.95314789      14.82724762
C       21.88799858       0.20058332      15.31882763
C       20.38881874      54.73926163      17.16786957
H       22.17363167       1.31697178      17.09275818
H       20.04370499      53.60139847      15.41867828
H       21.57579613      58.39590836      18.57333755
H       20.66947556      55.62463760      13.98380280
H       20.55079842      55.94934464      18.85840607
H       21.03293610      57.93850327      13.76142502
H       21.91013336       1.04698503      14.65210056
H       19.95697021      53.93882751      17.70435143
C       23.55842400      28.21581459       2.47725058
C       27.20795250      31.59846687       1.67094553
C       24.07933998      28.73493195       1.29634738
C       26.66308975      31.05162621       2.80767751
C       25.09437942      29.71277046       1.37035227
C       25.52552986      30.12885475       2.64732742
C       25.58304024      30.44419289       0.22029009
C       24.90760422      29.58667946       3.80815196
C       24.00523186      28.54113579       3.73761129
C       26.62594032      31.30363464       0.41895187
H       23.08490944      27.23918533       2.37788653
H       28.12455750      32.25064850       1.75740433
H       23.77396011      28.27765846       0.33750954
H       26.95908165      31.34623909       3.87097812
H        6.45021343      30.35957336      27.74091911
H       25.19310761      30.02618599       4.79188061
H       23.64855194      28.05284691       4.61828375
H        8.24630642      31.76941109      28.01200676
C       22.80081558      39.18437958      16.21553993
C       23.74631500      43.64112473      18.36352158
C       22.65528870      40.53355026      15.84518719
C       23.84631348      42.31202316      18.76990318
C       23.19382858      41.56363678      16.56743240
C       23.61688805      41.26516342      17.86184120
C       23.02131462      42.88533401      16.17708206
C       23.81151390      39.87520218      18.22614479
C       23.42759323      38.82440948      17.43909264
C       23.33608627      43.93505859      17.05029869
H       22.41300201      38.43068695      15.52594852
H       23.95324898      44.45519257      19.14630508
H       21.86294746      40.64825439      15.11603642
H       24.01424599      42.01988983      19.86164856
H       22.95478821      43.36951065      15.07768440
H       24.35173225      39.75015259      19.11077309
H       23.51898575      37.77065277      17.81218719
H       23.31458282      44.96181870      16.65620995
C       -5.24954319      37.29940796      20.67722130
C       -2.54952860      34.70064926      17.33063507
C       -5.15520525      35.99374771      20.37134361
C       -2.90643573      35.98654175      17.41837692
C       -4.35543633      35.48463058      19.30046082
C       -3.80650830      36.46153641      18.39680099
C       -3.94364810      34.09274673      19.14766121
C       -3.81866407      37.85979080      18.83180046
C       -4.56561375      38.25053406      19.91588593
C       -2.99823213      33.71591187      18.26212120
H       -5.90222168      37.69680023      21.46581841
H       -1.84282041      34.32001495      16.51324654
H       -5.64455748      35.22409821      21.05592346
H       -2.62883878      36.69972992      16.68335915
H       -4.16887379      33.37489700      19.99870873
H       -3.32143211      38.68329620      18.26656723
H       -4.61775208      39.28842926      20.15332794
H       -2.78176570      32.68618393      18.26081657
C       14.03200531      42.25177765      13.89186764
C       18.67722702      42.09241104      15.91374207
C       14.57826996      41.48402405      14.99397278
C       18.05722427      42.79846573      14.84880543
C       16.00185394      41.80125046      15.44397163
C       16.71843910      42.71770096      14.62742329
C       16.62912178      41.14711380      16.52501488
C       16.11799812      43.26529694      13.47322655
C       14.88233566      42.92170715      13.04582024
C       17.92675209      41.31759644      16.73764420
H       12.94546890      42.16736221      13.68255234
H       19.70069695      42.25773621      16.09864426
H       13.83663464      41.23690796      15.85383129
H       18.66567802      43.40741348      14.17565155
H       16.12982178      40.49434662      17.24209404
H       16.73036194      43.92087173      12.78278255
H       14.43689156      43.26852036      12.11735916
H       18.39413452      40.76893234      17.51202583
C       -9.50403595      49.96279144      25.20578575
C       -9.53048992      45.04548645      26.10062027
C       -8.53072548      49.13824844      25.60025215
C      -10.53769684      45.95769501      25.99530220
C       -8.87684536      47.72448349      25.80270004
C      -10.18625355      47.28983688      25.68092918
C       -7.86168146      46.76718903      25.98488808
C      -11.09283733      48.24774170      25.25764275
C      -10.76228905      49.55126190      24.97220230
C       -8.18638134      45.46498489      26.10519791
H       -9.20395279      50.97064209      25.02900314
H       -9.76312160      44.00895309      25.98528481
H       -7.54278946      49.52226639      25.75433540
H      -11.59250832      45.69666290      26.10689735
H       -6.87512875      47.18055725      25.95738411
H      -12.11378670      48.01616287      25.32806206
H      -11.63739014      50.23492432      24.86640930
H       -7.38389015      44.65091324      26.18013763
C        3.67315650      44.21270370      17.39972305
C        1.29507315      47.07695770      14.24377823
C        3.77450657      45.54778290      17.13833427
C        1.16979325      45.77018738      14.51588821
C        2.90334082      46.07762909      16.16916466
C        1.90549791      45.19466782      15.57440948
C        2.99386525      47.44284058      15.79879951
C        1.83321106      43.81719971      15.88188648
C        2.68500638      43.41038132      16.84879684
C        2.14678335      47.93265915      14.87962723
H        4.39601278      43.64031601      18.02303696
H        0.67547864      47.40134048      13.42586899
H        4.55489922      46.22163773      17.58913231
H        0.46858656      45.20133591      13.98874760
H        3.81903172      47.87794113      16.28231621
H        1.13928831      43.16017532      15.45657158
H        2.65862632      42.36002350      17.23875809
H        2.17106700      48.90620422      14.49009418
C        5.85148144      56.75465012      16.19938660
C        1.12559593      58.86849213      16.74756050
C        4.77894640      57.08241272      15.31735134
C        2.15381122      58.44935226      17.62872696
C        3.63792276      57.65752792      15.88857365
C        3.43531084      57.97484589      17.25334167
C        2.61107230      58.15877914      15.01734543
C        4.57786798      57.68004227      18.06250191
C        5.72475624      57.10033035      17.54452133
C        1.43106651      58.70656204      15.38204670
H        6.74445677      56.28431702      15.76908493
H        0.15513732       0.31021446      17.20394325
H        4.81034851      56.49082565      14.36028767
H        1.91220009      58.46171188      18.67831993
H        2.81784487      57.94300461      13.97601223
H        4.52647591      57.96393967      19.06667519
H        6.65419722      56.97679901      18.13397026
H        0.76520783       0.09623948      14.60051250
C       16.77548218      42.63766861      25.25809288
C       21.50315475      41.11145401      24.99623108
C       17.90742111      43.31904602      25.54892731
C       20.31808090      40.55776978      24.52798080
C       19.12393379      42.67236710      25.27314377
C       19.15155602      41.32549667      24.73466682
C       20.40787315      43.15052414      25.75962639
C       17.88296509      40.71890259      24.45614624
C       16.70956421      41.35541534      24.73577118
C       21.51031876      42.34163666      25.64554214
H       15.80357075      43.12853241      25.50099182
H       22.49211311      40.64258575      24.90056992
H       17.80888367      44.27955246      26.12961006
H       20.30499649      39.67960358      23.89829636
H       20.28020287      44.16649628      26.25463104
H       17.91786385      39.69147491      24.00767517
H       15.77706718      40.88005829      24.51558876
H       22.36198235      42.82326126      26.10058784
C       14.78223419      31.12611389      19.80014801
C       13.50692177      28.51123810      15.64056206
C       15.35657597      30.96723557      18.57833862
C       12.81517792      28.83145714      16.80591583
C       14.70962238      30.32268333      17.49402618
C       13.44520283      29.70810890      17.76963806
C       15.38641071      29.97765160      16.28260422
C       12.81146526      29.98286819      19.04685593
C       13.51263142      30.61970329      20.07299614
C       14.74740410      29.12488174      15.36959553
H       15.33882523      31.44521713      20.64818192
H       13.01266575      27.89433479      14.87132072
H       16.37104988      31.21175575      18.37026978
H       11.82392597      28.59209824      16.92659187
H       16.33163834      30.39637947      15.95853996
H       11.82430744      29.50828171      19.22430229
H       13.30064678      30.58550072      21.17963219
H       15.33056164      28.80298614      14.49582291
C      -16.63305092      51.90775681      25.48825645
C      -13.69460487      55.97093964      25.54413605
C      -16.01514244      52.63148117      24.49454308
C      -14.40816975      55.32920837      26.49585533
C      -15.29215908      53.79060364      24.83558655
C      -15.22982121      54.15349960      26.17262268
C      -14.53033638      54.43080521      23.88821983
C      -15.89737606      53.38963699      27.20840073
C      -16.61610794      52.23751068      26.86133003
C      -13.66359615      55.43680573      24.15478134
H       22.37019920      51.11803818      25.28061676
H      -13.39016247      56.96450424      25.79788971
H       23.64229202      52.36920929      23.42234802
H      -14.38674164      55.73719788      27.58607864
H      -14.53752613      54.06972885      22.85683632
H      -15.73161125      53.61230469      28.26460266
H      -17.36470604      51.77774048      27.51649666
H      -13.05469131      55.76982117      23.34178162
C       -7.52023411      30.15692520      21.91852379
C       -4.39455557      30.43257523      17.83849144
C       -6.59181213      29.34468269      21.34403992
C       -5.43673229      31.26136971      18.32666016
C       -5.79363871      29.69982910      20.20436478
C       -6.05159569      30.91185188      19.56464005
C       -4.66835737      28.94255638      19.78211021
C       -7.11702633      31.74181366      20.14745331
C       -7.75196600      31.40490150      21.28112984
C       -3.94527531      29.29626465      18.60694122
H       -8.00023651      30.04121590      22.80913925
H       -3.87893295      30.77779007      17.00310326
H       -6.48448133      28.29096031      21.73307610
H       -5.81344557      32.06680679      17.69822884
H       -4.54505253      28.02547646      20.31271935
H       -7.36402130      32.67279434      19.61478043
H       -8.39352226      32.10918808      21.83932495
H       -3.13829088      28.66812897      18.13600159
C        3.60097480      46.56422424      12.09080601
C        3.01493835      48.05495071       7.17639971
C        3.58313251      45.85972977      10.88170147
C        2.89626193      48.68789291       8.33856773
C        3.49545407      46.59449768       9.59940910
C        3.26654744      47.92891312       9.54210567
C        3.62057710      45.98845673       8.31755733
C        3.35805988      48.65998077      10.76156425
C        3.52371120      47.95912170      11.97212887
C        3.42223191      46.70446777       7.21708488
H        3.86963201      46.10041428      12.99870110
H        2.77672863      48.59180832       6.16094255
H        3.55367064      44.73835754      10.68060875
H        2.62322164      49.70484543       8.56700897
H        3.77410531      44.90685654       8.22439480
H        3.19994950      49.73297119      10.86293602
H        3.67283487      48.61503601      12.86294365
H        3.25261211      46.16389084       6.32461023
C        0.26578549      35.44982910      25.71324730
C        0.61316013      39.87875366      23.41656113
C        0.15212533      36.72118759      26.16847992
C        0.50063413      38.57879257      22.97194862
C        0.23081683      37.77290726      25.24155808
C        0.25431198      37.51482773      23.87751579
C        0.36577693      39.14378738      25.69701195
C        0.37764043      36.17526245      23.44493484
C        0.52623391      35.18911743      24.38718987
C        0.61675036      40.17343521      24.81223679
H        0.17465313      34.67155457      26.44950485
H        0.90279943      40.72988892      22.84687424
H        0.14709751      37.05504990      27.21490097
H        0.61065280      38.39387131      21.90703392
H        0.44424507      39.35479355      26.77562332
H        0.55779374      36.09999847      22.36255264
H        0.57429433      34.28539276      23.86620331
H        0.91192126      41.17793274      25.16386604
C       32.08753204      39.49487686       0.82439369
C       27.38445282      40.38432693       2.45384574
C       30.85597038      38.87021255       0.60107529
C       28.47952461      41.19219589       2.33824253
C       29.63839722      39.39707565       1.07498705
C       29.67195320      40.70616913       1.64858735
C       28.41253090      38.72578430       0.99457413
C       30.94250870      41.32225418       1.87308514
C       32.17521667      40.71721268       1.58938301
C       27.34536171      39.16398239       1.74255013
H       32.99750900      38.89234161       0.56013352
H       26.52090645      40.73474503       3.11606073
H       30.78258133      37.88884735       0.12563328
H       28.60340881      42.22828674       2.74980307
H       28.38778877      37.84309387       0.31284899
H       30.94960403      42.12058640       2.59831166
H       33.18758392      40.92035294       1.95551610
H       26.50434303      38.46457291       1.95805192
C        9.20606995      55.39815140      26.54597855
C       31.96589088      54.15993118       0.76423550
C       10.50034428      55.08636856      26.25272560
C       30.81296730      54.68273926       1.09991813
C       11.50077057      54.76533127      27.21731377
C       29.82610130      54.90789032       0.08660646
C       12.78053284      54.55719376      26.92350769
C       28.52397537      55.43408203       0.41358849
C        8.83913994      55.60899353      27.88766479
C       13.62908936      54.19630051      27.96067429
H        8.43198204      55.66116714      25.88466263
H       32.66569519      53.75711823       1.55931461
H       10.76079559      55.10623932      25.13898087
H       30.58584976      54.91501617       2.12038422
H       13.09208679      54.47374344      25.83049011
H       28.48570251      55.65204239       1.51915967
H        7.82417679      55.94233322      27.98923302
H       14.56737232      53.79482269      27.69780540
C        2.50171566      58.21805573       1.49113739
C       -1.28056717      56.56976700       4.40497971
C        2.02585411      58.55523300       2.69213796
C       -0.72285628      56.15547943       3.23250318
C        0.96982354      57.86046600       3.26748872
C        0.40824792      56.76154327       2.66500258
C        0.33376664      58.34239960       4.52470160
C        1.02391303      56.42826843       1.49198043
C        2.01240373      57.03475952       0.84847701
C       -0.70225102      57.66357040       5.07734823
H        3.25487328      58.76882935       0.84039372
H       -2.14570737      56.06554413       4.77019358
H        2.29213905       0.49912009       3.22228789
H       -1.17395520      55.26083755       2.82379866
H        0.65634251       0.28604355       5.13944483
H        0.64414501      55.55047989       0.97210026
H      -16.35811615      56.74025345      28.43090820
H       -1.11703575      58.01938248       6.02802896
C       33.48778915      57.28886414       4.02498293
C       29.96881294      56.17419052       7.42554522
C       33.03261185      57.92583847       5.12166023
C       30.61563873      55.46358490       6.47016668
C       31.99437904      57.37654877       5.93091106
C       31.57317543      56.09708405       5.61314726
C       31.16284943      58.17660522       6.88489485
C       32.15771103      55.36944962       4.58905697
C       33.03793335      55.99985886       3.75259233
C       30.16715813      57.61554718       7.52398062
H       34.12512207      57.81342316       3.37647104
H       29.21916199      55.71142960       8.12396050
H       33.36876678      58.93040848       5.26757956
H       30.25153542      54.54344559       6.16752338
H       31.31594086       0.26017812       6.98010731
H       31.72620010      54.37989807       4.40590811
H       33.29104614      55.55300140       2.80845332
H       29.62162972      58.28152084       8.22213268
C       16.71087837      27.93914795      10.72384357
C       18.92041779      28.39639282       6.26629639
C       16.21103096      28.33169365       9.49572563
C       19.38412285      27.79073143       7.37728643
C       17.04412270      28.31769943       8.39885521
C       18.48060989      27.87900543       8.52938461
C       16.68737793      28.86995697       7.13937998
C       18.99440956      27.71617508       9.86309433
C       18.04981995      27.73473740      10.88868523
C       17.62330818      28.99574471       6.20091820
H       16.09454536      27.89218712      11.62161446
H       19.47629738      28.63215446       5.39995480
H       15.21934986      28.74029922       9.38511276
H       20.44096756      27.58010292       7.55027580
H       15.79720593      29.31784248       6.82177448
H       20.00715256      27.53375244      10.10367298
H       18.32898331      27.38772392      11.87213898
H       17.24982834      29.42375946       5.35236073
C        2.01914620      33.18525314      27.89776230
C       22.53034019      33.40698242       4.06180811
C        3.11935306      32.65274811      28.49840164
C       21.31138039      33.62389755       3.50645185
C       22.13039207      32.72926331       1.36903453
C       21.14450073      33.27906036       2.20454311
C       23.31556511      32.34082413       1.97427416
C       19.92008972      33.62405777       1.56067848
C       19.77938843      33.65775299       0.19828185
C       23.50651741      32.64827347       3.33776689
H        1.92310739      33.24456787      26.78941154
H       22.80055237      33.52857590       5.03511906
H        3.99004436      32.22050095      27.93078995
H       20.52951813      34.05455017       4.05935431
H       24.12443542      31.86333466       1.38259447
H       19.14508820      33.91867828       2.21402121
H        0.03049880      33.94455719      28.30316353
H       24.43605423      32.44092560       3.92299390
C       -5.72148371      45.05992508      18.48561859
C       -2.99136686      41.09143066      19.62858963
C       -5.49446249      44.47114944      19.68540955
C       -3.37659574      41.65191269      18.50217819
C       -4.66539860      43.29836655      19.73998451
C       -4.20883036      42.79237747      18.48711586
C       -4.16876173      42.74506378      20.92225456
C       -4.71020889      43.32751083      17.25875092
C       -5.30893469      44.54226685      17.23170662
C       -3.32235456      41.61092377      20.90675163
H       -6.21470785      45.98757553      18.46479225
H       -2.44312024      40.14418793      19.61443520
H       -5.94264030      44.96852875      20.57562065
H       -3.14748931      41.19736481      17.58960915
H       -4.44787741      42.96511078      21.96052742
H       -4.51022673      42.76376343      16.36429787
H       -5.54804373      45.09572220      16.37500572
H       -2.86595345      41.10447693      21.76155281
C       36.15929794      53.06673813       2.45150661
C       34.44925308      52.02389526       6.97975779
C       35.87197495      51.89649582       3.17416692
C       34.56612778      53.23244476       6.35297298
C       35.38285065      51.88629532       4.51266718
C       35.15394974      53.19318771       5.04329634
C       35.33560181      50.64458466       5.24134350
C       35.54338455      54.32988358       4.27990580
C       36.11058426      54.26868057       3.03574061
C       34.83704758      50.77373505       6.45808458
H       36.45386887      52.99863434       1.46242440
H       33.95530701      52.07813263       7.92978573
H       35.72238922      50.95428848       2.66025305
H       34.28256989      54.22836304       6.70530367
H       35.76898575      49.75204468       4.82668400
H       35.41063690      55.29370499       4.81788015
H       36.45891190      55.10098648       2.55017567
H       34.80891037      49.87519455       7.12405062
C       17.86256599      30.39525414      27.60130119
C       12.90255547      30.87739372      26.67638779
C       16.89301300      29.43968010      27.51092720
C       13.94339180      31.76696777      26.88853073
C       15.58279991      29.90932083      27.14916229
C       15.22974300      31.29267502      27.13495064
C       14.50438118      28.99885750      27.01634407
C       16.28469849      32.20995331      27.29290962
C       17.54482269      31.77216911      27.52629471
C       13.27521229      29.49701691      26.76570511
H       18.81460953      30.03993416      27.87852669
H       11.90814209      31.24904442      26.52226257
H       17.02563858      28.38212585      27.54000854
H       13.73651695      32.89046860      26.95258141
H       14.59006500      27.94423485      27.17086601
H       16.12532806      33.32444000      27.24237633
H       18.28884697      32.60664749      27.55734634
H       12.40366364      28.79803467      26.91365433
C        0.92429477      29.46216774       9.43888569
C       -0.85927516      30.94352531       5.07942867
C        1.45802248      29.41853714       8.25240707
C       -1.36835289      30.90961838       6.34503555
C        0.84973150      30.07347488       7.13609409
C       -0.50480706      30.56919861       7.43521261
C        1.28910553      30.16091919       5.77828550
C       -0.95011503      30.82445526       8.80763435
C       -0.20156252      30.21798706       9.75775909
C        0.46280488      30.53972816       4.77737951
H        1.34983146      28.94141197      10.30363083
H       -1.53012848      31.15194511       4.21181393
H        2.33935499      28.81976128       8.03544712
H       -2.41275692      31.23411942       6.54665613
H        2.35579252      29.91934586       5.55661392
H       -1.93831897      31.27486610       8.85583973
H       -0.52888435      30.20681763      10.79575157
H        0.72923189      30.52736664       3.76491237
C       16.05256653      35.26983643      10.08975697
C       16.72555161      32.88035202      14.40210152
C       15.26029873      34.43998337      10.87288189
C       17.43588066      33.82796478      13.76381588
C       15.76516819      33.83634949      12.06091309
C       17.01550865      34.19916916      12.51959991
C       14.95641232      32.97432709      12.87750912
C       17.81892204      35.14015579      11.76660156
C       17.28484535      35.63183212      10.60142231
C       15.42799759      32.49671936      14.02346706
H       15.81171513      35.76365662       9.15255165
H       17.10761070      32.43340683      15.32424831
H       14.39233208      33.91737747      10.54538536
H       18.36707115      34.09459686      14.21922970
H       13.93190193      32.89439392      12.61874580
H       18.86764526      35.35769272      12.02707767
H       17.82753563      36.28992462       9.90952110
H       14.86654854      31.88199806      14.65288544
C       -3.09876847      48.93160248      10.93891430
C       -4.15578032      44.65453339      13.36476803
C       -2.48596573      48.23809814      12.04200459
C       -4.79476976      45.35226822      12.39618874
C       -3.05138493      47.11985016      12.53187180
C       -4.21009970      46.50586319      11.85519123
C       -2.63491988      46.46011353      13.75056362
C       -4.63690186      47.08368301      10.70082951
C       -4.12625980      48.32506561      10.22145367
C       -3.09821177      45.21590424      14.08206177
H       -2.72347975      49.93772125      10.81803989
H       -4.60807753      43.71063232      13.72506523
H       -1.71251714      48.68747711      12.66630268
H       -5.63102865      45.00096130      11.76079750
H       -1.87144053      46.81364441      14.35028839
H       -5.35643101      46.55357361      10.10930920
H       -4.56019068      48.83793259       9.38470650
H       -2.63403916      44.59265900      14.80748653
C       22.21446037      43.23423386       7.65597725
C       23.64057159      40.00983047       4.07415485
C       21.72009659      42.09964371       7.15875387
C       24.23220634      41.07124710       4.64343977
C       22.31947136      41.41313171       6.08397675
C       23.60135841      41.93080521       5.60028410
C       21.83249855      40.20643997       5.57690191
C       24.13222122      43.10848999       6.15916491
C       23.47186470      43.77373886       7.16560793
C       22.40022469      39.49190521       4.61315632
H       21.87363434      43.59739685       8.62830257
H       24.12722778      39.38319778       3.27846313
H       20.77165794      41.66194916       7.55454445
H       25.17716217      41.39772034       4.12983942
H       20.82372475      39.83364868       5.90270472
H       25.06130981      43.47493362       5.82547998
H       24.01338196      44.54002380       7.64116192
H       21.88880730      38.65978241       4.17979336
C        8.17520714      53.51935959      16.37956429
C        3.92070484      52.33766937      18.72431183
C        6.83329773      53.67248535      16.10121918
C        5.23441410      52.08430481      19.06110191
C        5.79172421      53.17599869      16.93906212
C        6.22801685      52.52956009      18.11508179
C        4.43632936      53.44097900      16.63431168
C        7.66358805      52.52721024      18.41158676
C        8.65345764      53.02394485      17.64094162
C        3.49795246      53.04837036      17.51336098
H        8.88815880      53.82027817      15.74608803
H        3.19519591      52.13201141      19.57319260
H        6.59037161      54.13838577      15.17297173
H        5.55568266      51.65061188      20.01824570
H        4.09650755      54.10659790      15.80324364
H        7.84967279      51.91559601      19.37284660
H        9.69839001      52.93478394      17.78388596
H        2.50305891      53.29618454      17.45323563
C        3.66748571      42.05623627      14.25572014
C        7.54390621      43.44544983      17.24975395
C        4.43451118      43.26647568      14.27197552
C        7.34644365      42.25353241      16.35022354
C        5.41379166      43.40642166      15.28124332
C        5.91457605      42.20790482      15.91091633
C        6.07562494      44.61589432      15.71032047
C        5.16984081      41.01609039      15.78901196
C        3.97959828      40.96126556      15.00036240
C        6.97170973      44.62136841      16.82314110
H        2.74659872      41.94766617      13.65307808
H        8.12874317      43.38678360      18.09937668
H        3.91999626      44.22779083      13.88756847
H        7.79235077      41.30073929      16.72797585
H        5.73660660      45.52946854      15.24224567
H        5.41809082      40.14773941      16.37986565
H        3.35486746      40.11332321      14.93830299
H        7.29619169      45.52305603      17.34630203
C       14.97871780      45.48835373      17.89405060
C       17.76252556      42.71702194      20.97985649
C       14.78895187      45.09003448      19.23182678
C       17.92078400      43.22429657      19.67327881
C       15.86125946      44.41304779      19.85526276
C       17.01785088      44.11906052      19.10894203
C       15.77313995      43.89672852      21.15613747
C       17.18179321      44.69706345      17.79885483
C       16.19060898      45.44449234      17.24242401
C       16.74463272      43.11483002      21.71817970
H       14.17070770      46.03865814      17.27107239
H       18.47729683      41.92916870      21.26112175
H       13.77767277      45.10485458      19.67126656
H       18.71778679      42.90782166      19.05013466
H       14.81346989      44.21455383      21.69812775
H       18.12162399      44.41588211      17.31074905
H       16.29766846      45.84338760      16.22096443
H       16.64315033      42.77807617      22.74044609
C       34.82088852      34.28807449       1.10800433
C       17.96867180      38.04319382      26.84415054
C       36.07374954      34.79602432       0.95885170
C       16.65640259      37.49103928      26.94691658
C       36.25467682      35.96998215       0.11940116
C       16.40594864      36.44414139      27.83691025
C       37.58518600      36.44701386       0.00524881
C       15.08785439      35.96800232      27.99646378
C       33.73750305      34.89390564       0.40560392
C       19.02076721      37.51729202      27.64359665
H       34.59001160      33.40893936       1.73471236
H       18.08126831      38.93046570      26.33629799
H       36.96863556      34.51491547       1.51865554
H       15.76483250      37.87935257      26.39984894
H       38.40139389      36.07537460       0.64516348
H       14.33736992      36.33041000      27.42522812
H       32.78013992      34.45857239       0.43279105
H       20.03703499      37.90983200      27.43393326
C       23.37717247      46.67251587      21.32450104
C      -13.62294674      50.58367157      22.70669556
C       24.31431770      47.43416214      20.80167389
C      -14.75486565      49.95372391      23.30462074
C       24.73678780      48.63348007      21.30488968
C       24.33965302      48.94778442      22.59756660
C       25.74415779      49.35598373      20.66047478
C       23.31831360      48.11144638      23.23274803
C       22.89818573      46.99098969      22.62562561
C      -13.33283043      50.29688263      21.34046555
H       23.00622368      45.74648666      20.78348732
H      -12.99908352      51.18358231      23.39906502
H       24.59878540      47.09216690      19.84339714
H      -15.25849438      50.16151428      24.27305603
H       25.85873985      49.22662354      19.59403229
H       23.10072136      48.14928055      24.31353188
H       22.29934311      46.17832184      23.23013115
H      -12.36853027      50.71249390      20.94971657
C        8.91514778      48.15851593       6.01223230
C        6.66730595      51.83613205       8.50340176
C        7.63324976      48.20901871       6.47015333
C        7.94003582      51.57572556       8.06476688
C        7.30269814      49.43043137       7.12448406
C        8.26102352      50.43763733       7.30936050
C        5.98497534      49.69068909       7.60790873
C        9.57660294      50.22052383       6.82888126
C        9.89843750      49.13463211       6.10991097
C        5.64146805      50.92582703       8.11533070
H        9.20656967      47.22182465       5.55681992
H        6.45546675      52.70402145       9.16354847
H        6.80299902      47.42955780       6.40375471
H        8.76700783      52.28831482       8.21287823
H        5.25317192      48.91411209       7.48716545
H       10.28630733      51.03158569       7.22164154
H       10.95919991      49.03309250       5.82279253
H        4.57768440      50.99465179       8.33691311
C       -3.46669769      39.99164200      15.58493137
C       -0.43784642      40.84349060      11.65794563
C       -2.66340613      40.98548889      15.23556328
C       -1.29859269      39.82868958      11.95203400
C       -1.96104205      41.01515579      14.00136375
C       -2.05786324      39.86455917      13.15960312
C       -1.06553268      42.08220673      13.70014191
C       -2.80133080      38.72847748      13.61636543
C       -3.50500512      38.77790451      14.79574776
C       -0.30639559      42.01132202      12.56818867
H       -4.01450205      39.87347412      16.52676773
H        0.14317274      40.81811142      10.78783226
H       -2.58434939      41.85766220      15.79827023
H       -1.19987595      38.85107803      11.55355358
H       -0.99520415      43.02144241      14.31454945
H       -2.86573267      37.87131882      12.93836403
H       -4.09888029      37.93059540      15.18585300
H        0.48573199      42.74642181      12.36864948
C        7.40134811      45.53190994      23.28998184
C       12.18032455      44.43817520      24.28728676
C        8.18339539      44.39984512      23.40228653
C       11.35169506      45.61096954      24.72997093
C        9.35713100      44.34319687      24.11195755
C        9.90331841      45.57539749      24.34367752
C       10.15654182      43.02119446      24.11727715
C        9.17092800      46.75173187      24.21749878
C        7.82302618      46.72051620      23.75918961
C       11.49592113      43.16445923      24.86203575
H        6.41540051      45.29991913      22.86291885
H       13.21324158      44.47848129      24.64662933
H        7.76154661      43.46515274      23.05439758
H       11.79833317      46.50406265      24.38051224
H        9.43339157      42.31986618      24.64438057
H        9.49951172      47.68627548      24.65510559
H        7.22468376      47.67079163      23.79521179
H       12.22143459      42.41510773      24.58867836
C        1.60662365      34.98384857       9.56151104
C        4.15209961      30.79677582       8.26882648
C        2.09928274      33.87303925      10.23843479
C        3.77988458      31.96512032       7.58446074
C        2.69392824      32.83554459       9.50490475
C        2.91109157      32.91556168       8.15662289
C        3.21367979      31.70065308      10.19649506
C        2.37929773      34.05319595       7.45393467
C        1.79238415      35.09230041       8.12711334
C        3.81426907      30.63901520       9.64101219
H        1.11386430      35.81730270      10.09708786
H        4.65986967      30.03251457       7.68407059
H        1.96418595      33.81500626      11.30452347
H        3.79713750      31.83642960       6.50797462
H        2.95124102      31.56395340      11.16359901
H        2.35422087      33.88616180       6.29492712
H        1.27218986      35.88686752       7.53419447
H        3.94435716      29.63393784      10.09742260
C       18.89750862      31.49175072       3.42826271
C       20.98484993      31.08745384       8.01205730
C       20.11787224      31.06959343       3.93737125
C       19.72916412      31.45801926       7.61734200
C       20.34239578      30.88882446       5.32472086
C       19.39287949      31.41930771       6.23803997
C       21.68890381      30.57068825       5.75579929
C       18.11400986      31.72884178       5.72559452
C       17.88859940      31.80925941       4.41753483
C       21.93947220      30.60401154       7.11027622
H       18.63272285      31.30418205       2.37501383
H       21.21853828      31.03095436       9.06615448
H       20.87650299      30.56601334       3.32534599
H       18.91040611      31.76181793       8.28911495
H       22.38757896      30.16271782       4.96260500
H       17.37507820      32.08986282       6.40463543
H       16.92812157      32.09754181       4.03224087
H       22.86585045      30.27744102       7.49266005
C       30.44656563      36.61018753      11.33901024
C       31.21302414      32.71389008       8.31581879
C       30.50515556      35.25835037      11.56117153
C       31.20937157      34.03603363       8.07044029
C       30.68423462      34.45353317      10.42425632
C       31.02428246      34.99322128       9.14522362
C       30.68803978      33.04759598      10.56880951
C       31.21559525      36.38254929       9.04056644
C       30.77672958      37.17504501      10.07000732
C       30.94809914      32.16648483       9.58451748
H       30.24887657      37.18050385      12.25322247
H       31.22505951      31.98400688       7.51008320
H       30.38784981      34.74444580      12.53061199
H       31.57579803      34.40975189       7.14898396
H       30.69925690      32.65430832      11.57331753
H       31.52649689      36.84715652       8.08086777
H       30.90320396      38.22464371      10.08089542
H       31.23263741      31.09809494       9.71655750
C        2.11275983      52.07083893      26.21021461
C        6.79513025      50.38824463      27.19357681
C        2.97597671      51.30120087      25.45834351
C        5.92128372      51.23928452      27.85260582
C        4.34044170      51.07422256      25.99832726
C        4.66790390      51.45266342      27.31817055
C        5.22767878      50.18244934      25.34333420
C        3.67198491      52.18392563      28.01553154
C        2.52780890      52.58491135      27.49910736
C        6.42591906      49.78903580      25.92976761
H        1.02957153      52.14381790      25.91198921
H        7.83875322      50.24884415      27.51610565
H        2.71076584      51.02432632      24.44421577
H       24.90473366      51.73426056       0.24737890
H        4.95984268      49.79312897      24.39251518
H       22.73191643      52.40968323       0.52198941
H        1.86491358      53.13618851      28.13669014
H        7.16531324      49.19044876      25.38084602
C       11.91569042      41.54071045       7.79878998
C       10.53365707      38.19271088       4.27169847
C       11.99108124      40.17720032       7.74513578
C       10.49580860      39.58633423       4.33220577
C       11.51161194      39.45471573       6.57911873
C       10.95201969      40.20769882       5.53731585
C       11.53761005      38.07225800       6.45566797
C       10.93817711      41.66607285       5.65253544
C       11.28194618      42.29879379       6.80455446
C       11.09110451      37.43235779       5.34672213
H       12.41479969      42.06045151       8.62281609
H       10.28652859      37.63870239       3.33683515
H       12.44502163      39.56462860       8.54472923
H       10.10884762      40.08059311       3.46532464
H       11.83409500      37.53553009       7.30033302
H       10.70003796      42.22983170       4.76341200
H       11.40651226      43.40124130       6.74639559
H       11.17798424      36.34428406       5.41016054
C       14.41693211      33.33573532       7.75573206
C       12.53632164      32.29122925       3.30057716
C       14.75333881      32.42894745       6.86157322
C       12.39061260      33.35140991       4.17320013
C       14.12840080      32.46848679       5.54439592
C       13.17504501      33.47117615       5.37156534
C       14.35485458      31.42666245       4.56511450
C       12.90804291      34.46588135       6.37415075
C       13.49383926      34.44322205       7.60303974
C       13.53577232      31.29681206       3.49692416
H       14.70594597      33.20988846       8.77954102
H       11.80132008      32.03338242       2.51981544
H       15.37696266      31.53949547       7.27781391
H       11.71309185      34.10647202       4.01247263
H       14.93318748      30.55384445       4.74688482
H       12.08065891      35.14376831       6.21173573
H       13.17749310      35.01242828       8.45448875
H       13.72201920      30.55442047       2.73388839
C        9.60565758      35.56724167       8.22568893
C       11.52973366      34.28596878      12.70744419
C        9.64773083      34.35077667       8.85935116
C       11.46181679      35.49378967      12.00698948
C       10.37770462      34.26218796      10.11884117
C       10.96914196      35.46244812      10.66168594
C       10.64701271      33.09523392      10.88119793
C       10.89115047      36.66262054       9.95503235
C       10.30090237      36.70209503       8.70750904
C       11.09140205      33.11435318      12.14659119
H        8.95013618      35.73952484       7.35020638
H       11.80672169      34.32922745      13.75654507
H        9.17029762      33.47517014       8.43614197
H       11.69742775      36.45639420      12.40255737
H       10.24114037      32.20104599      10.46068096
H       11.30306721      37.59718704      10.49791145
H       10.10576916      37.67655563       8.18486595
H       11.04707241      32.22434998      12.79342747
C       13.70255947      34.59968567       0.05939019
C       16.11178780      30.27171326       0.57769859
C       13.28125191      33.32245636       0.15391994
C       16.48353767      31.56740952       0.52328610
C       14.21232891      32.28157043       0.25691074
C       15.52883339      32.57399368       0.40108398
C       13.82541275      31.01459312       0.18171732
C       15.95063591      33.88020706       0.28958029
C       15.06339550      34.90039062       0.08367611
C       14.75481033      29.98162079       0.29994485
H       12.95305252      35.40673065       0.05201123
H       16.85041809      29.48968124       0.62174869
H       12.21501446      33.23101425       0.03861674
H       17.54461670      31.84145546       0.58444816
H       -5.91425657      30.61709595      28.29604340
H       17.03001976      34.25249481       0.30133340
H       -3.51141095      35.94361496      28.49261093
H       14.45351696      28.91742897       0.21464983
C        1.11000073      42.41251755       6.23148727
C        2.92672920      38.42182922       8.79897213
C        1.54478765      42.20262146       7.48025799
C        2.63974166      38.65787506       7.50342798
C        2.16210055      41.03346634       7.90866899
C        2.56028485      39.99769974       6.83516455
C        2.37349939      40.79230118       9.24095154
C        1.57401133      40.07011795       5.73465776
C        0.88282901      41.23647308       5.42422676
C        2.86727381      39.56324768       9.64424706
H        0.71674341      43.34899139       5.79604292
H        2.94067192      37.43677902       9.17574310
H        1.50846982      43.10265350       8.16283989
H        2.52889395      37.81370163       6.81562901
H        2.41673732      41.69630432       9.92515469
H        1.31340408      39.25815201       5.10069227
H        0.21898140      41.16478348       4.51831818
H        3.18826628      39.54538345      10.70800686
C       22.83955765      52.98495483      16.31488419
C       24.02001190      48.07062149      16.40184975
C       23.20186996      52.07498932      15.41498852
C       23.58358574      48.90044022      17.40439224
C       23.34590912      50.72859955      15.76933479
C       23.30465126      50.24404907      17.07950974
C       23.59498405      49.83433533      14.74511909
C       22.97657967      51.24166489      18.06741333
C       22.74711990      52.54299927      17.66726685
C       23.89078331      48.53488541      15.05297375
H       22.66089630      54.03578949      16.00512314
H       24.25096512      47.07479095      16.44936371
H       23.12922287      52.43685532      14.33639145
H       23.38208008      48.53063583      18.34345245
H       23.59988785      50.13847351      13.68061829
H       22.94448853      51.01136780      19.07317162
H       22.44688988      53.23899841      18.44036293
H       24.07778931      47.90435028      14.16194630
C       -4.53120613      45.42666245       7.52158070
C       -1.28845692      45.89917755       3.64685035
C       -4.06571579      44.60575867       6.54039669
C       -1.97664011      46.80618668       4.35733223
C       -3.29124475      44.99504852       5.48897457
C       -2.96752691      46.34752655       5.33527517
C       -2.67551827      44.06175613       4.55401325
C       -3.50913787      47.23923111       6.30120373
C       -4.24245930      46.81650162       7.33140087
C       -1.67860174      44.55434036       3.79926586
H       -5.03086758      44.99935150       8.42770767
H       -0.65180194      46.31582260       2.95371890
H       -4.32758474      43.53377533       6.64284945
H       -1.81140292      47.88891602       4.29237652
H       -2.94110847      43.00429535       4.62245131
H       -3.24987674      48.30921555       6.20410633
H       -4.56465149      47.57653427       8.04713345
H       -1.23869896      43.63828659       3.27378535
C       20.57533836      50.57764435       1.68346310
C       17.34232903      46.86626434       0.57995313
C       20.55405617      49.64634705       0.66998816
C       17.25463867      47.94745255       1.41487849
C       19.43026543      48.73889160       0.58562016
C       18.31949425      48.92453003       1.46458673
C        0.68318999      47.56531906      28.24276543
C       18.36773109      49.92578125       2.42237592
C       19.49615288      50.73840332       2.56973505
C       -0.31917632      46.71867752      28.22686768
H       21.37436867      51.22220993       1.76888359
H       16.53399467      46.14295197       0.44694269
H        2.63226533      49.57345963      28.49539566
H       16.45800591      48.00191879       2.21814060
H        1.67867970      47.35031128      27.81799889
H       17.58828735      49.83379745       3.11764550
H       19.71529579      51.52073288       3.32938480
H       -0.24713805      45.85741806      27.60550117
C        9.34848404      50.95269775      14.66292477
C        5.40451288      49.31731033      17.32927513
C        9.14616394      50.61033630      15.99579239
C        5.53421068      49.90876389      16.15067863
C        7.83076906      50.26094055      16.50082588
C        6.77102756      50.33226013      15.62139606
C        7.78136015      49.56346130      17.76630402
C        6.97659445      50.68497849      14.24072075
C        8.21678638      51.04676437      13.81506538
C        6.54120779      49.19494629      18.12106895
H       10.28903008      51.36480331      14.38088512
H        4.44224167      49.13571167      17.85438538
H        9.99014091      50.58784103      16.66498566
H        4.64886189      49.92133331      15.53273296
H        8.57545662      49.41794586      18.52301216
H        6.12630320      50.73438263      13.53488731
H        8.38513470      51.50937271      12.82347393
H        6.44855642      48.68801117      19.03954506
C       -0.48380262      45.84228897      11.36074734
C       -1.60740542      43.40414047       7.17535925
C       -1.29272175      44.81911469      11.03641224
C       -0.92706865      44.63043976       7.36695766
C       -1.43758559      44.36692047       9.72191334
C       -0.87981117      45.18154907       8.65887928
C       -1.96894133      43.12560654       9.48045635
C       -0.12196790      46.30927658       9.01075077
C        0.05605596      46.69100189      10.33744049
C       -2.02255869      42.63134766       8.21178150
H       -0.56633008      46.21123505      12.38876057
H       -1.50065768      42.98477173       6.17737055
H       -1.89881420      44.37237167      11.85200882
H       -0.46847576      45.14315033       6.51356554
H       -2.22470880      42.45753098      10.38929844
H        0.54804111      46.81262589       8.25574970
H        0.56949544      47.55089188      10.59268570
H       -2.46588922      41.63734817       8.11491013
C       25.63784409      30.41858101      21.08850098
C      -13.87167358      31.44128227      26.11750221
C       25.41516113      31.58948326      21.75625420
C      -13.78423309      30.38225174      25.25113869
C      -14.15759373      31.64532280      23.21962166
C      -13.91768742      30.37102890      23.81794167
C      -14.30948162      32.80890274      24.10832024
C      -13.82963181      29.14069366      23.05268288
C      -13.89275455      29.19501305      21.72305489
C      -14.20382118      32.64070511      25.47715569
H       25.48372269      30.47304153      20.05871010
H      -13.90267277      31.25331879      27.18763542
H       25.40662003      32.41917419      20.99448586
H      -13.66446304      29.33411980      25.64099693
H      -14.61483669      33.75440598      23.68642426
H      -13.70289707      28.12034798      23.57190514
H      -13.78364849      28.31735229      21.08733940
H      -14.31506634      33.49145889      26.09101105
C       -5.97839355      49.84969711      28.37426567
C       -1.05085135      50.99137115      27.81535530
C       13.52155781      51.00740433       0.10435434
C       -1.85071254      49.93773270      27.52991104
C       -3.83598781      51.07079697      28.49808311
C       -3.20274639      50.00538635      27.88882065
C       15.83982468      52.21021652       0.29371622
C       -3.98192859      48.86796570      27.51099014
C       -5.32696533      48.82036591      27.69652176
C       -1.62542844      52.09542465      28.46980476
H       -7.00494194      49.90930939      28.36014175
H        0.02965711      50.99079132      27.53294563
H       13.00917244      51.89644241       0.55765915
H       -1.50141025      48.97019959      27.03915024
H       15.45903301      53.02252960       0.89790821
H       -3.46173143      48.09376144      26.93244362
H       -5.94770765      47.96020126      27.47734261
H       17.87876129      52.91524887       0.13424325
C       10.38815212      54.65171433       8.74224472
C        8.39185047      54.45846558      13.23825741
C        9.08423996      54.30882645       9.11767483
C        9.65184212      54.52453613      12.71112442
C        8.75225258      54.30970001      10.49232769
C        9.84893417      54.35842514      11.37257481
C        7.45069838      54.11857986      11.08605480
C       11.18007946      54.63255310      10.89926720
C       11.45300674      54.70565033       9.59508324
C        7.22856712      54.26357269      12.44730186
H       10.53526020      54.71192169       7.64878941
H        8.37646294      54.50835419      14.32908916
H        8.32033253      54.23647690       8.29213428
H       10.58021545      54.58113098      13.35082722
H        6.57647324      53.95074081      10.44185829
H       11.95426846      54.79689407      11.67518234
H       12.47101974      54.86250687       9.32629013
H        6.17809391      54.25515747      12.77211285
C       21.87953567      35.71384430       6.89169884
C       17.13206482      37.28566742       6.78396463
C       21.31006050      36.93517685       6.91155338
C       17.68745995      36.00133896       6.85035896
C       19.88313484      37.04263687       7.01498413
C       19.09296036      35.88861847       7.03059292
C       19.28440285      38.28969955       7.03268957
C       19.69464493      34.61457825       6.97374010
C       21.07394981      34.57298660       7.01687479
C       17.92538643      38.37274551       6.88095760
H       22.98253822      35.61729813       6.80662394
H       16.07865143      37.31901932       6.68567514
H       21.72643662      37.86196899       6.75958109
H       16.95435905      35.17601776       6.75055075
H       20.00139999      39.14167023       7.23554611
H       19.15929413      33.72067642       7.14680672
H       21.62862587      33.62639999       7.10553694
H       17.50632858      39.34747314       7.01419687
C       29.61420822      57.22747421      10.63629055
C       27.72146988      57.17456818      15.20778656
C       29.41984558      58.23682022      11.52844238
C       28.18346405      56.10653687      14.39499283
C       28.75651741      57.83427048      12.75047016
C       28.61267662      56.48023224      13.04058170
C       28.26099968      58.85657501      13.56543446
C       28.88772202      55.49329758      12.09068394
C       29.27792168      55.86248398      10.85184288
C       27.76240540      58.49330521      14.76404381
H       29.92856216      57.57574844       9.72656345
H       27.38188744      57.05331802      16.22827148
H       29.40223122       0.34955049      11.13621426
H       28.10107040      55.08513641      14.66066265
H       28.50495720       0.94698858      13.36193371
H       28.75866699      54.44131851      12.20078564
H       29.64212990      55.19576263      10.09024525
H       27.36584282       0.32846808      15.49965191
C       21.98772430      42.93116760      22.48316002
C       20.63622856      40.35559845      18.36201096
C       21.94100571      41.60458755      22.07062912
C       20.64294624      41.68854523      18.70206451
C       21.42129326      41.10093308      20.88429832
C       21.13406944      42.14144135      19.95110321
C       21.26503563      39.72701645      20.62023544
C       21.33726120      43.55362320      20.24140167
C       21.70469475      43.92515183      21.59199333
C       20.90278816      39.39672089      19.32709503
H       22.28789711      43.19216156      23.49468994
H       20.20473862      39.95407867      17.39400101
H       22.42399788      40.77290344      22.76457596
H       20.36279297      42.42570496      17.93045425
H       21.44634819      38.95510101      21.36166382
H       21.05337334      44.34231949      19.47383881
H       21.76483345      44.96228409      21.95224762
H       20.91756248      38.38111114      18.97205925
C       -1.86164975      41.91540909      24.69411659
C       -4.97163582      45.56348419      26.28116798
C       -2.91715789      42.62477493      24.18003082
C       -3.89724326      44.98372650      26.85752869
C       -3.68040490      43.55574417      24.87834167
C       -3.28392172      43.92356491      26.20993805
C       -4.75446892      44.21268845      24.32295036
C       -2.18465185      43.22758865      26.72271729
C       -1.50366998      42.27606583      26.04373932
C       -5.43417215      45.17215729      24.99213409
H       -1.37045979      41.15736008      24.16790390
H       -5.51665974      46.29611969      26.80850792
H       -3.16805983      42.41818237      23.13261604
H       -3.65358806      45.16517258      27.91479874
H       -5.14118147      44.03121185      23.33959007
H       -1.82111585      43.59107590      27.66590881
H       -0.77890104      41.66788101      26.51818657
H       -6.31197214      45.60747910      24.49010658
C       13.23997688      39.59125900      12.56523037
C       13.54893208      37.52474213      17.24728584
C       12.22995853      39.08230972      13.52513409
C       14.29843521      38.45500565      16.54182053
C       12.82954025      38.43049622      14.75073147
C       14.05457878      38.85577774      15.26374054
C       12.04027271      37.44974136      15.39602470
C       14.78104687      39.88765335      14.42209244
C       14.46546364      39.87085342      13.01872730
C       12.38357735      37.04568481      16.69572258
H       12.98059368      39.65476990      11.46523857
H       13.78725910      37.22924423      18.25058937
H       11.41542530      38.33703995      13.25082779
H       15.15874195      38.91193771      16.96836281
H       11.09660244      37.11576462      14.95053482
H       15.79691315      39.63344192      14.62280750
H       15.16454029      40.26629639      12.28494453
H       11.69546413      36.33151245      17.15272141
C        0.10760565      50.51033783      13.55213261
C        1.13664579      53.10789490       9.28654480
C        0.29174665      50.14279556      12.25847340
C        0.98664814      53.42878723      10.60708618
C        0.58542961      51.08460236      11.19816303
C        0.65242290      52.46277237      11.56573200
C        0.78426796      50.77987289       9.85074902
C        0.50698405      52.78948212      12.91521168
C        0.29122710      51.85560989      13.90141201
C        0.84575087      51.77958298       8.87877274
H       -0.15823525      49.76488113      14.29364204
H        1.61768842      53.77368546       8.56800842
H        0.17026810      49.09701920      12.07382870
H        1.30039310      54.43759155      10.90854454
H        0.60344166      49.77714157       9.48599339
H        0.58326954      53.78912354      13.40027714
H        0.05273073      52.20717621      14.91964722
H        0.86365741      51.47573853       7.85509109
C       -3.53639960      37.97880936      26.71001625
C       -7.71150017      40.12200928      25.07896042
C       -4.79413939      37.55839920      26.79281807
C       -6.43389416      40.59054184      25.25901222
C       -5.82084179      38.43254089      26.38099098
C       -5.52962399      39.78377533      25.87723541
C       -7.17018557      38.12969589      26.41610718
C       -4.20450926      40.24367523      26.03486252
C       -3.25056362      39.38227081      26.38415718
C       -8.06966972      38.92826462      25.73689079
H       -2.75564957      37.41964722      27.15328217
H       -8.55003262      40.67208862      24.64233398
H       -5.14945650      36.59139252      27.09717369
H       -6.13061905      41.57892990      24.84261513
H       -7.48660851      37.20095444      26.98748970
H       -3.96558332      41.26391220      25.80052757
H       -2.24336290      39.75611877      26.40885353
H       -9.20685482      38.57403564      25.85113144
C       -6.98027658      40.37014008      21.81913185
C       -7.81009674      37.93178940      17.43718529
C       -6.68575668      40.51865005      20.47069931
C       -8.33687305      37.73084641      18.68852806
C       -7.00320196      39.67696381      19.46694183
C       -7.84882307      38.53234482      19.79567909
C       -6.59292698      39.83294678      18.14152718
C       -8.22904301      38.42106628      21.20729256
C       -7.71329117      39.25886154      22.20407677
C       -6.83382654      38.94705582      17.15592194
H       -6.45255709      41.00618744      22.46623611
H       -8.36450195      37.36597824      16.66249657
H       -6.10430384      41.44744110      20.16343880
H       -9.11657906      36.99524307      18.84410477
H       -5.99832678      40.64079285      17.79915428
H       -8.69548798      37.51963806      21.61405945
H       -7.88539505      39.05545807      23.24670219
H       -6.47650719      39.02389908      16.18266678
C        5.26284552      42.36968613      10.67795181
C        8.59058857      43.77268600      14.44556522
C        5.89091492      41.58938980      11.72618008
C        8.12432003      44.26055527      13.27023315
C        6.85444593      42.21459198      12.60895443
C        7.07352829      43.57310867      12.45174217
C        7.52406549      41.51896667      13.77427197
C        6.53088808      44.29467011      11.38659382
C        5.62951946      43.68690872      10.56254292
C        8.20659447      42.38005829      14.91084862
H        4.44803095      41.99003601      10.04378223
H        9.27869987      44.35321045      15.02108955
H        5.59764051      40.57765579      11.86667919
H        8.51906109      45.17927170      12.78148746
H        6.86722946      40.86008453      14.37806129
H        6.71497393      45.34117126      11.29643536
H        5.13206673      44.35616684       9.86712646
H        9.13547039      41.89502716      15.20787907
C       28.55109406      37.36196899      15.04065323
C       27.79159737      32.62484360      16.16437721
C       28.54228973      36.20383835      14.29941177
C       27.93827057      33.71846008      16.93326759
C       28.55628014      35.00199127      14.92706585
C       28.30257225      34.94153976      16.33132553
C       28.38335991      33.74098969      14.19788551
C       28.26272774      36.13171387      17.05434418
C       28.42678070      37.33103180      16.41370010
C       28.00723648      32.59432220      14.77845001
H       28.48663712      38.36805344      14.48746395
H       27.43528748      31.84167290      16.77402687
H       28.81205940      36.21027756      13.26236343
H       27.57823753      33.72912979      17.99618149
H       28.58623314      33.66597748      13.12911797
H      -11.60151577      36.19272995      18.13368034
H       28.38052368      38.28506851      16.99698639
H       27.83228683      31.66686440      14.23669624
C       23.33661652      55.44613266       0.40422684
C       23.56538582      53.22034454       4.92587233
C       24.40221977      55.07424927       1.23171663
C       22.56473923      53.77227783       4.22775698
C       24.17477608      54.50473022       2.49429798
C       22.78107071      54.33886719       2.93559384
C       25.16058159      53.95298386       3.32033849
C       21.75858879      54.89211273       2.06118202
C       22.02796555      55.45159149       0.79609168
C       24.83166885      53.38917923       4.49532843
H        4.73168898      55.64827728      27.88334465
H       23.33470154      52.54687119       5.80986738
H       25.49240494      55.17964172       0.86376905
H       21.57894135      53.48281479       4.52094936
H       26.27426338      54.12852097       3.13001347
H       20.68832970      54.86183548       2.29503965
H       21.15679932      55.64686584       0.18689930
H       25.65055656      52.99838257       5.04764891
C        7.10391378      31.48888206      15.91575336
C       12.24815273      31.70523643      15.46171665
C        8.06090736      30.90938377      15.13804531
C       11.35201168      32.20708084      16.42647743
C        9.44817162      31.25200272      15.24362469
C        9.89636612      32.05659485      16.32897949
C       10.37827587      30.65953636      14.33967686
C        8.85177803      32.65747070      17.19298553
C        7.55483961      32.38329697      16.92966461
C       11.72705078      30.88683891      14.46392345
H        6.07229996      31.14112282      15.77338505
H       13.30585480      31.79165077      15.65095425
H        7.78469849      30.34254837      14.24130821
H       11.99581337      32.77816391      17.14835167
H       10.01963615      30.13501930      13.42757320
H        9.23900032      33.39461136      17.84245110
H        6.78112030      32.80328751      17.60713005
H       12.35704708      30.45149422      13.69984531
C        4.28188610      47.16939926      25.99826813
C        0.22810696      48.04428864      23.12258148
C        3.21952128      47.96280289      26.15969086
C        1.50164723      47.70961380      22.83441925
C        2.24627995      48.13936996      25.11676216
C        2.49563789      47.61790466      23.81733894
C        0.93281174      48.65572739      25.37108040
C        3.68344760      46.80334854      23.69109344
C        4.49397898      46.55636215      24.75841713
C       -0.05883584      48.56813812      24.40645981
H        5.11230135      46.99477005      26.67141724
H       -0.60413688      47.87686920      22.46753693
H        3.05818033      48.47750092      27.07666206
H        1.88345957      47.18721771      21.87532425
H        0.88297480      49.04532242      26.46157837
H        3.79323792      46.39257812      22.73929977
H        5.29951906      45.79360962      24.66906929
H       -1.07790387      48.84619904      24.58629036
C       21.46038628      38.86757660      13.10288715
C       23.37096214      39.65793610       8.46977806
C       21.92087746      40.03473282      12.57035065
C       22.74300957      38.64824295       9.12090588
C       22.41067314      40.00100708      11.15395832
C       22.20592690      38.79713821      10.43863583
C       23.06646729      40.99012756      10.48598194
C       21.60904884      37.66876602      11.05155754
C       21.33891296      37.66791153      12.38533688
C       23.51486206      40.84173203       9.20541763
H       21.10008812      38.91072083      14.10044098
H       23.68038940      39.57807541       7.40793705
H       21.93423271      41.05192947      12.99825859
H       22.65072060      37.66717529       8.69395447
H       23.20900536      41.99883652      10.91956711
H       21.37067795      36.81644058      10.39315128
H       20.82178307      36.79956055      12.84340191
H       23.88974762      41.74895859       8.70328236
C       22.56644249      46.88721466       6.77545404
C       24.01996994      50.49616623       3.57795215
C       23.81428909      47.33486176       6.29568195
C       22.85009956      50.14632416       4.17137003
C       23.94093513      48.36662674       5.30259371
C       22.72400475      48.95301437       4.90413237
C       25.16832161      48.91513443       4.88569117
C       21.42989731      48.41036606       5.31776047
C       21.38216209      47.39678574       6.23767519
C       25.24743843      49.97840500       4.02959824
H       22.47135162      46.17192459       7.60856485
H       23.92911530      51.31447220       2.88614774
H       24.71643257      46.77787781       6.60886240
H       21.94452286      50.74746323       4.02984571
H       26.00803757      48.66365814       5.38272285
H       20.52643204      48.89347076       4.85885620
H       20.46324158      47.04356384       6.64893627
H       26.19038010      50.36028290       3.67793512
C       11.58985138      33.16894150      24.51266479
C        8.85415459      33.24377441      20.30418205
C       11.80748463      32.81242371      23.20711899
C        8.60286617      33.83459091      21.55104637
C       10.73405647      32.96205139      22.30857849
C        9.49123573      33.61661911      22.65295410
C       10.98847008      32.49037170      21.09189224
C        9.33741856      33.92280197      24.03075409
C       10.32661724      33.60460663      24.88910675
C       10.04397964      32.55603027      20.05857468
H       12.29501534      32.92634964      25.27359390
H        8.11387920      33.33213425      19.62108421
H       12.65891838      32.23220062      23.01424789
H        7.64724541      34.32203293      21.84689140
H       11.88546181      31.95534515      20.97274208
H        8.47824287      34.43992233      24.36054993
H       10.18317032      33.83457565      25.97373581
H       10.22303867      32.14240265      19.02809334
C        4.04261160      50.60365677      22.05906296
C        8.68461990      48.78222275      21.33337593
C        4.48403740      49.35648346      21.73466492
C        8.15663433      49.88833237      21.93612862
C        5.87825251      49.06544876      21.61816406
C        6.76676178      50.07312393      22.05127335
C        6.42409706      47.86597443      21.11701775
C        6.27558517      51.37167740      22.29032898
C        4.92951632      51.61117554      22.40266228
C        7.81776762      47.78447342      21.00624275
H        2.94639564      50.77784348      22.19575310
H        9.73987007      48.48423767      21.23986053
H        3.82202673      48.51647186      21.87132454
H        8.79128265      50.67858505      22.25218391
H        5.80431175      46.98833466      20.96893120
H        6.94151258      52.14192581      22.48533058
H        4.55746841      52.59048080      22.54163361
H        8.23009396      46.89102554      20.63922882
C       20.30294609      48.97879028      19.91270447
C       19.57985878      46.97134399      24.48549271
C       19.99245453      47.69588089      20.37868118
C       20.10726547      48.16204834      24.09535408
C       19.96802330      47.46887589      21.77242470
C       20.28109360      48.49594498      22.65886116
C       19.34227753      46.20615768      22.22903252
C       20.65731621      49.73563004      22.15413094
C       20.77205849      49.98252106      20.80975914
C       19.15538025      46.01457977      23.53447151
H       20.31055641      49.05498886      18.83209229
H       19.22608948      46.71161270      25.47240067
H       19.88217545      46.88152695      19.62244415
H       20.22729492      49.02703857      24.75838852
H       18.95877266      45.54107285      21.40925980
H       20.93057442      50.61525726      22.78982353
H       20.94968033      50.92715836      20.22333717
H       18.55710983      45.09057617      23.79174423
C       13.53698254      51.94765472      25.64710045
C       17.74704552      53.54280090      23.63610268
C       13.85511589      52.22287369      24.37661171
C       17.42654228      53.24819183      24.88537598
C       15.18885994      52.60531998      24.18490601
C       16.14919281      52.68661499      25.25442696
C       15.56256199      53.06264114      22.87965965
C       15.76336670      52.14879608      26.47455025
C       14.45577621      51.72156906      26.60080910
C       16.76696396      53.45949554      22.55669212
H       12.43822575      51.79585648      25.90887833
H       18.74498558      53.86699295      23.41714668
H       13.13946056      52.36075211      23.60016823
H       18.24357414      53.43913651      25.64022827
H       14.82021523      52.94597244      22.07463264
H       16.45810318      52.13073349      27.30713654
H       14.14500523      51.32614899      27.53479195
H       17.16558838      53.74507904      21.62714577
C       28.38308716      52.39147186       2.37322760
C       28.58437347      47.61701202       0.69336921
C       27.40073776      51.49888611       2.00173211
C       29.50839424      48.56103516       1.05882001
C       27.74201775      50.19987869       1.55190074
C       29.12209129      49.86716461       1.48356318
C       26.79434586      49.17804337       1.16448712
C       30.19050789      50.81082535       1.69895935
C       29.83015442      52.06536102       2.13097548
C       27.26389503      47.95180511       0.76293391
H       28.17243385      53.43114090       2.74206591
H       28.87728500      46.73947144       0.12840290
H       26.36594963      51.82432938       1.97759211
H       30.57536316      48.43654633       1.15335429
H       25.82664108      49.53903961       1.23992574
H       31.22687531      50.53055954       1.44399357
H       30.64270973      52.73563766       2.43326187
H       26.62266350      47.11017609       0.54313791
C       -1.29786563      34.41493225       6.00225687
C       -1.25529504      38.62345123       8.63526535
C       -1.53409755      35.68736267       5.63802290
C       -1.37740922      37.37874985       9.00400639
C       -1.51691639      36.70382309       6.63882446
C       -1.36451244      36.34398270       7.99171877
C       -1.45174229      38.13255692       6.28635359
C       -1.42272639      34.98443222       8.32598019
C       -1.26551247      34.00858688       7.37209368
C       -1.22917008      39.04072189       7.22811127
H       -1.16977501      33.65265656       5.31060791
H       -1.32552040      39.48023224       9.25784206
H       -1.64928699      35.92855072       4.57859564
H       -1.52745521      37.04845810      10.03055096
H       -1.51544762      38.48685837       5.26674891
H       -1.55146849      34.68409729       9.37171555
H       -1.26126146      32.91795731       7.61855698
H       -1.10620177      40.14055634       7.17693710
C        3.90855265      52.06502151      13.39269638
C        3.56526184      55.92855835      10.17225075
C        3.39786816      53.34001923      13.42983723
C        4.09763432      54.69651794      10.09679508
C        3.38724136      54.27297974      12.38674355
C        4.02228832      53.84691238      11.20460320
C        2.87568736      55.55311584      12.43579578
C        4.44681740      52.50494003      11.06698036
C        4.41426468      51.62437820      12.13303661
C        2.90667748      56.37432098      11.34155273
H        3.94570875      51.43197632      14.29129124
H        3.60430861      56.52069473       9.26720619
H        2.79215407      53.65913391      14.25576591
H        4.39545107      54.39377213       9.15398121
H        2.23677087      55.81454468      13.27493858
H        4.65746880      52.07507324      10.07507896
H        4.79289007      50.59775543      12.02346706
H        2.48344779      57.45726776      11.44241333
C       11.40966320      57.46455765      13.25975323
C        9.62222862      58.85606384      17.71762085
C       11.65624428      56.95465088      14.51806831
C        9.48355389       0.37643418      16.42686462
C       11.07242393      57.61931610      15.66404629
C       10.24547005      58.71736526      15.38875580
C       11.36816216      57.29295349      17.03911018
C       10.08680820       0.30920902      14.08658600
C       10.63749123      58.62130356      12.98580265
C       10.71326447      58.01295471      18.03765678
H       11.74167061      56.83471680      12.44801712
H        9.07153606       0.27794775      18.59535217
H       12.06395245      55.97518539      14.66184330
H        8.71461773       1.15923929      16.24588585
H       12.21323872      56.63046265      17.15431786
H        9.47882080       1.15130985      13.98554707
H       10.36199570      58.89852524      11.92554760
H       10.92111969      57.61119080      19.03199768
C       -7.11489391      56.40852737      24.54110527
C       -9.52348328      52.71652603      26.75467300
C       -6.67221069      55.40311813      25.37433434
C       -9.86988544      53.71272659      25.86813545
C       -7.61201191      54.43646240      25.71028900
C       -8.99292660      54.63945770      25.29057503
C       -7.25913286      53.29652405      26.43348312
C       -9.38601112      55.76209641      24.63425446
C       -8.42130470      56.62782669      24.24403954
C       -8.14742374      52.44585800      26.92830658
H       -6.39675713      57.20626068      24.27417755
H      -10.23372746      52.10473251      27.29337883
H       -5.64127636      55.15435410      25.61109924
H      -10.92323780      53.85863495      25.68426895
H       -6.29730129      52.97465134      26.68575668
H      -10.39761162      55.95491028      24.47081375
H       -8.82784081      57.46084976      23.62845230
H       -7.67493153      51.63568115      27.56183052
C        2.65772939      43.93294525      27.37721252
C        7.13524675      41.97721481      28.45070267
C        3.84082270      44.45070648      27.74274063
C        5.95538139      41.37327576      28.17733192
C        5.02298689      43.57299423      27.93363953
C        4.86420059      42.19647598      27.82678032
C        6.29291677      44.15371704      28.12796593
C        3.67598033      41.72301865      27.26579857
C        2.61079741      42.55705643      27.07932281
C        7.34900856      43.34494019      28.38865852
H        1.74502552      44.58428192      27.19329071
H       26.76569176      41.30204391       0.01473910
H        4.05264854      45.58077621      27.78463554
H        5.89720535      40.26552582      28.23341560
H        6.37936115      45.22938156      28.06430626
H        3.46520567      40.65378952      26.99649048
H        1.74856508      42.11044312      26.65426254
H       27.04365349      43.85835266       0.11048315
C       15.09414959      40.81122208       8.49879265
C       18.74880981      40.44902039      11.87568569
C       15.88539600      39.76781845       8.87604427
C       17.85777283      41.44635773      11.53885460
C       16.85844803      39.97507858       9.82835960
C       16.91001320      41.21855164      10.53331375
C       17.73598480      38.98344803      10.24012089
C       16.08784103      42.31326675      10.08481789
C       15.09110451      42.09235382       9.11774540
C       18.70297813      39.24382019      11.17529678
H       14.44712067      40.72899246       7.67042494
H       19.57241821      40.75269699      12.55224323
H       15.75378513      38.84412766       8.34046745
H       17.92268372      42.49510193      11.76222038
H       17.86998749      37.96661377       9.92691231
H       16.30741310      43.33221817      10.42453766
H       14.43450832      42.87498093       8.85898972
H       19.27587318      38.32314682      11.47527790
C       23.63737679      28.19385338      13.46803284
C       21.57932854      30.71524620      17.35423088
C       23.00392532      27.80955887      14.59904385
C       21.93054008      31.11964798      16.11053658
C       22.51584625      28.77338028      15.58294010
C       22.51091003      30.12153435      15.15046310
C       22.14285851      28.38303757      16.89050674
C       23.01423454      30.47996140      13.88008881
C       23.55109596      29.54615784      13.01268578
C       21.68184471      29.34247589      17.75422859
H       23.99135208      27.44510651      12.91077137
H       21.05300140      31.37859726      18.02579117
H       23.12098885      26.80742836      14.86662865
H       21.87991714      32.16779709      15.99509811
H       22.21209335      27.39551544      17.31960678
H       22.88060761      31.48899651      13.50639248
H       23.92617035      29.76169777      11.99471664
H       21.40072823      28.98274803      18.80681038
C        0.45644924      38.01808929       1.23639536
C        2.57441521      34.21673203       3.67337346
C        0.98292297      36.83781815       0.81240082
C        1.79734409      35.25920486       4.14178848
C        1.46176291      35.88034439       1.73725283
C        1.19492137      36.10229874       3.09899879
C        2.26980925      34.74609375       1.38747501
C        0.63957500      37.23734283       3.58266997
C        0.22539736      38.17721558       2.65052366
C        2.81602740      33.94466019       2.30423450
H        0.23939541      38.82027817       0.63504499
H        3.15009165      33.59402084       4.38076735
H      -17.65763283      36.58137894      28.32478714
H        1.62598848      35.53637314       5.17241812
H        2.62279630      34.64411926       0.43821728
H        0.42524958      37.33400726       4.65272570
H       -0.08387827      39.12444687       2.95814204
H        3.60705400      33.21895218       1.95819795
C        6.10785246      54.51228714       6.97242880
C        1.14908922      54.68993759       5.84257841
C        5.10559464      53.65298462       6.64079666
C        2.08353400      55.69335938       6.28180265
C        3.77092671      54.00382614       6.49610138
C        3.42106962      55.35935974       6.55469847
C        2.81949234      53.04297638       6.10378218
C        4.44060469      56.25833511       7.01095438
C        5.76932096      55.86387253       7.29048395
C        1.53780782      53.33177567       5.92098379
H        7.10694885      54.22607040       7.01861715
H        0.15440038      54.89189529       5.55460024
H        5.38629484      52.64624405       6.37415600
H        1.90271902      56.76554108       6.15511751
H        3.18607759      52.06570053       5.90192652
H        4.09360456      57.30533600       7.16456985
H        6.53679037      56.58530808       7.55888128
H        0.77771759      52.50093842       5.85619688
C       10.86729622      46.87275314       3.83652377
C       15.45519638      48.81078339       4.67773581
C       11.50611973      48.01865387       3.44362879
C       14.78551197      47.70504761       5.18070030
C       12.84320831      48.27823257       3.91460586
C       13.49511528      47.35279083       4.66374254
C       13.50505447      49.50477219       3.50610042
C       12.77231693      46.24776840       5.18006372
C       11.47227287      46.00035858       4.76381254
C       14.77677250      49.73545456       3.86270857
H        9.91465473      46.63507462       3.45239091
H       16.54165077      48.84246826       4.85859537
H       11.04569912      48.71212387       2.72613859
H       15.35756016      47.10714722       5.85334444
H       12.98333645      50.12438965       2.78100300
H       13.17619991      45.50612640       5.82724905
H       10.75961971      45.27485657       5.24011755
H       15.27268219      50.65878677       3.53695059
C       17.27889824      57.30856705      11.83385181
C       18.46410561      58.47922897      16.65134239
C       17.64345169      58.44674301      12.51929951
C       18.30553627      57.26564789      15.97475052
C       17.84723091      58.51559448      13.93632030
C       17.95806503      57.23056412      14.56881046
C       18.11171150       0.81773806      14.60306835
C       17.63344765      56.07863998      13.80505943
C       17.23428345      56.07694244      12.50167274
C       18.36287498       0.80691159      15.93522930
H       17.10811424      57.23693085      10.74190712
H       18.72374916      58.54388046      17.72911453
H       17.74485588       0.39325005      11.94889069
H       18.34119606      56.31370163      16.44817162
H       18.13406181       1.76817155      14.11779022
H       17.64062309      55.19322205      14.41727734
H       16.95243645      55.18270111      11.94421864
H       18.54211044       1.74534178      16.54202080
C       -7.49710226      55.04376602      17.68160057
C      -11.57838917      55.73472595      20.46656036
C       -7.75421381      54.91969299      19.00391006
C      -11.40983486      55.81779861      19.12017059
C       -9.01478958      55.19589996      19.44637299
C      -10.04343033      55.61116028      18.57098579
C       -9.26559734      55.21548080      20.85438347
C       -9.74021244      55.78596878      17.17352486
C       -8.41681004      55.60307312      16.80488777
C      -10.53465939      55.37156296      21.37486839
H       -6.48103237      54.80178833      17.44403458
H      -12.63764858      55.98609924      20.80727959
H       -6.99236679      54.49268723      19.60953522
H       27.55728340      56.09378815      18.40561867
H       -8.46874428      55.12433624      21.60078239
H      -10.56986046      56.17452621      16.62117958
H       -8.16888428      55.96355057      15.83889580
H      -10.65531158      55.29242706      22.38946533
C       -3.60698581      38.71070099      23.03657532
C       -1.60832322      34.48441315      21.11480141
C       -2.60579515      38.40270996      22.25381851
C       -2.47639799      34.75071716      22.03000450
C       -2.29405260      37.13923264      21.78182793
C       -2.81716895      36.06018829      22.42859077
C       -1.29406178      36.86278152      20.79995537
C       -3.90989065      36.30731583      23.33454704
C       -4.37721872      37.59092331      23.58100700
C       -1.03513324      35.59362793      20.44148445
H       -3.96050000      39.75634384      23.21643829
H       -1.34096003      33.45299149      20.85206032
H       -2.00848389      39.20164108      21.73007011
H       -3.07054520      34.05256653      22.59990120
H       -0.83682412      37.72826767      20.44675636
H       -4.39291096      35.53176880      23.87386703
H       -5.20735788      37.75323868      24.30523872
H       -0.31857753      35.34825134      19.68041992
C        6.99061775      47.37282944      13.29285240
C       11.56050110      47.79126739      15.12525082
C        8.22235680      47.34125137      12.73691177
C       10.33093643      47.54362488      15.72357273
C        9.33601856      47.43786240      13.53046227
C        9.20928955      47.42331314      14.89629173
C       10.70290661      47.64839935      12.97423077
C        7.95366764      47.31341934      15.47712612
C        6.82894278      47.40131760      14.72687149
C       11.75394821      47.83560562      13.80244350
H        6.14001989      47.25698853      12.73789787
H       12.36121845      48.16056824      15.72453880
H        8.34594250      47.33660126      11.69780159
H       10.30624485      47.74389648      16.78044891
H       10.88156605      47.75967789      11.84760475
H        7.94318819      47.30730820      16.57479858
H        5.81891823      47.48837662      15.19517708
H       12.61621380      48.29018021      13.41255760
C      -13.95972729      45.40710831      24.47902298
C       -9.31513405      44.15434265      22.75046921
C      -13.17900944      44.22921371      24.44911385
C      -10.14536476      45.21933365      22.49139786
C      -11.92284107      44.20874786      23.82025719
C      -11.44527912      45.29178238      23.12148285
C      -11.08075905      43.05627823      23.91192818
C      -12.19688129      46.45766449      23.12342453
C      -13.38762951      46.53439713      23.83701706
C       -9.81007481      43.08760452      23.50728035
H      -14.89135456      45.29742050      25.05924606
H       -8.25056362      44.04764938      22.55474281
H      -13.53006554      43.33652878      24.90091515
H       -9.85192490      46.12461472      21.90611649
H      -11.48512650      42.13899994      24.38057899
H      -11.81728458      47.28955460      22.53656578
H      -13.98440075      47.44612122      24.10694885
H       -9.08967400      42.33680344      23.79822540
C       28.89669228      43.05048752       8.72737408
C       28.87646675      40.78297806      13.13422108
C       28.40426254      43.38660049       9.90092087
C       28.98194504      40.21789551      11.94727612
C       28.38810158      42.50175476      10.96448898
C       28.80180168      41.12859726      10.75421143
C       28.26310730      42.96503448      12.26497364
C       29.20743752      40.78047943       9.52861500
C       29.34517097      41.70635986       8.48191071
C       28.59291077      42.19205856      13.35686493
H       29.18854332      43.82010269       8.04182434
H       29.01307487      40.16472626      14.09120655
H       28.21640968      44.40788651      10.19364643
H       29.05217171      39.14924240      11.84357548
H       28.03460503      43.97951508      12.44730473
H       29.64318848      39.81724167       9.27047825
H       29.81275177      41.32692719       7.60834074
H       28.61715889      42.63877106      14.34586239
C       33.34283066      43.70843124       4.68537998
C       28.36961937      43.91100311       5.61137724
C       32.52380753      44.64495850       5.35135317
C       29.14583778      42.87092209       5.28332376
C       31.13764381      44.37960815       5.60804462
C       30.58801651      43.10090256       5.19301224
C       30.28155518      45.30990219       6.18361235
C       31.51300430      42.10921097       4.73632526
C       32.84704590      42.40842438       4.51509905
C       28.91215324      45.13965225       6.01229477
H       34.29141998      43.94740677       4.29063034
H       27.32901573      43.96612167       5.66245890
H       33.02840424      45.50987244       5.65650940
H       28.78025818      41.85916138       5.02636719
H       30.68109703      46.17029572       6.66796732
H       31.04500961      41.16501236       4.51892090
H       33.41754532      41.62261963       4.00016356
H       28.14974213      45.77758789       6.42725849
C       18.45963860      53.86519623       3.68964171
C       15.66868973      54.69424820       7.79523945
C       18.54250717      54.69958878       4.69364786
C       15.70606613      53.73062134       6.85398054
C       17.50288582      54.87492752       5.66676283
C       16.48697281      53.88238144       5.69774771
C       17.39144325      55.95541000       6.61792088
C       16.43665695      52.94803238       4.60068560
C       17.40172577      52.98371124       3.64409328
C       16.57719421      55.81002426       7.68460464
H       19.21682930      53.81692886       2.89443588
H       15.27049732      54.47271347       8.70976830
H       19.29379082      55.45260239       4.76955557
H       15.04200649      52.88674545       6.95769548
H       18.14922142      56.77718735       6.64887142
H       15.66857433      52.20053864       4.48702478
H       17.41368103      52.25537109       2.83565927
H       16.52012634      56.62307358       8.40576553
C        2.44525099      31.10182762      24.32836342
C       -0.63706720      31.43159485      20.42388916
C        2.72022510      31.08403015      23.02234268
C       -0.83483726      31.36070061      21.77657127
C        1.56714392      31.10461044      22.14147186
C        0.22371286      31.22500038      22.69519615
C        1.73039269      31.09850502      20.74597549
C        0.12324661      31.44650841      24.11028862
C        1.18367660      31.41125298      24.89370728
C        0.68945479      31.28399086      19.89291573
H        3.32316136      30.94298172      25.01126862
H       -1.45822883      31.75140190      19.77680206
H        3.59564662      30.76001739      22.60258293
H       -1.77970397      31.68188095      22.09918404
H        2.77263880      31.08340454      20.42339516
H       -0.73995364      31.89336014      24.51502991
H        1.12381446      31.65037346      25.95948601
H        0.75668085      31.25227928      18.80488777
C       11.35015965      45.84866714      26.34848976
C       12.81224155      41.04724884      27.05945587
C       12.70373821      45.29726028      26.80366707
C       11.68582439      41.70941925      26.81435585
C       12.80210018      43.96210098      26.83693314
C       11.52890968      43.17750168      26.45089912
C       13.95861816      43.20146179      27.20695877
C       10.22164631      43.79569626      26.91799927
C       10.15201092      45.08875275      26.86552238
C       13.98935699      41.84949875      27.31988907
H       11.28059769      46.90066910      26.55669022
H       12.89276791      39.99623489      27.20785713
H       13.47601604      46.00436783      27.01170731
H       10.81458282      41.06564331      26.85185432
H       14.84903049      43.84778976      27.44495583
H        9.50483322      42.96913528      26.88781738
H        9.22666264      45.67657089      27.06463051
H       14.85118866      41.27678299      27.60413933
C       17.47490501       0.35383391       4.54737091
C       18.26735687      55.94810486       0.82612461
C       16.99068069      58.02238464       4.26939154
C       18.91307831      57.09051132       1.18096995
C       17.33925247      57.32160568       3.07754874
C       18.47975922      57.83909988       2.32759571
C       16.70745659      56.10449600       2.66649961
C       18.96508789       0.21176614       2.60384274
C       18.44323730       0.94144154       3.67285585
C       17.17291641      55.41314316       1.56964767
H       17.06427574       0.81836391       5.46768141
H       18.69015884      55.34141541       0.01851326
H       16.16437340      57.54866791       4.75221443
H       19.74067497      57.27376938       0.51730436
H       15.87380219      55.67333984       3.17763448
H       19.72938919       0.57418478       1.89100933
H       18.78738976       1.92195308       3.98261309
H       16.66383171      54.47175217       1.37518597
C       26.01909637      45.47092438      11.00221443
C       21.66501808      47.71345520      10.22937107
C       25.54307175      46.64585114      11.27428532
C       21.99545860      46.41805649       9.95732021
C       24.19061661      47.01790619      10.94974136
C       23.36322212      46.03535080      10.35668564
C       23.81666565      48.41485977      11.07867241
C       23.84779930      44.69731522      10.29034042
C       25.13660812      44.41237259      10.56746960
C       22.50349998      48.71520996      10.91625881
H       27.00404167      45.14077377      11.31498337
H       20.64529228      48.04160309      10.08137226
H       26.19526863      47.45724869      11.68995953
H       21.39105225      45.61736679       9.56642818
H       24.52462196      49.06031799      11.52461529
H       23.05177307      44.00523758       9.98872662
H       25.36240959      43.36698151      10.37958050
H       22.04695129      49.66668320      11.23347473
C       25.66938591      44.87876129      14.63955212
C       25.98264694      39.83197784      14.60809612
C       25.20257187      43.94907379      13.79409409
C       26.14279938      40.76430893      15.59248352
C       25.38456917      42.57830429      14.11144638
C       25.94879913      42.10702896      15.31892300
C       25.09045792      41.55292511      13.13916111
C       26.18690491      43.11103821      16.30309105
C       26.09370232      44.45619965      15.96464443
C       25.43856430      40.25289917      13.40386486
H       25.71216583      45.87623596      14.29862976
H       26.19831085      38.77527618      14.77530766
H       24.65654373      44.28071213      12.91679668
H       26.54027557      40.58190155      16.60523605
H       24.72558594      41.77693176      12.16642761
H       26.63561821      42.84422302      17.29102707
H       26.50862694      45.20617676      16.59621429
H       25.12587929      39.57208633      12.67158031
C        4.89340734      49.33902740       4.14008522
C        3.83459401      44.63486481       2.52290583
C        3.72341847      48.60983276       4.07978153
C        5.01150179      45.35463715       2.60658669
C        3.79725814      47.33699036       3.45629621
C        5.07590532      46.69474792       3.14853072
C        2.66750002      46.60806274       3.28775620
C        6.23296642      47.38049316       3.44168878
C        6.12770700      48.70183182       3.95003557
C        2.66065812      45.31739426       2.85649776
H        4.92432213      50.33493423       4.54428911
H        3.90018868      43.55198669       2.27358341
H        2.81443858      49.13518906       4.12865877
H        6.02494955      44.85039139       2.45463109
H        1.70189834      47.13597870       3.52938652
H        7.25160789      47.01997375       3.46550536
H        7.04078293      49.24884415       4.14954233
H        1.71606362      44.84107971       2.84674931
C       11.00490952      46.56628418       8.56397820
C        7.73077488      49.67758179      10.66999435
C        9.65223885      46.53468323       8.67260265
C        9.06307602      49.71567154      10.55401516
C        8.98920250      47.63470078       9.30063343
C        9.72196960      48.75499725       9.82379913
C        7.60958624      47.59803009       9.41199589
C       11.11877251      48.79041672       9.52731419
C       11.75825977      47.73028946       8.98549557
C        6.96646452      48.60222244      10.08844090
H       11.63318634      45.70551300       8.31733418
H        7.21841526      50.35884476      11.33210182
H        9.17594910      45.51297379       8.50981808
H        9.65645218      50.51893997      10.99784374
H        7.09275961      46.75030518       8.86531830
H       11.60650444      49.59189987      10.03560925
H       12.78607368      47.82432938       8.71052361
H        5.95609760      48.73023224      10.13321209
C       -9.35691071      56.19586182      28.22901535
C        9.24819279       0.08296642       3.97514200
C       10.13173771      57.22799683       0.20660117
C        8.34273148      58.20025253       3.33846045
C        9.81201267      57.94474792       1.39944267
C        8.58685589      57.61680603       2.01790142
C       10.66835690       0.01762632       1.97552752
C        7.71236944      56.75500107       1.31988311
C        8.07286739      56.08052063       0.23162606
C       10.44489288       0.48111126       3.25874519
H       -8.93888950      55.49699402      27.56284904
H        8.89387321       0.39324787       4.95104027
H       -7.82132578      57.61466980      28.28119087
H        7.35264540      57.98642349       3.82344580
H       11.46487617       0.38207799       1.31319225
H        6.76491261      56.69532776       1.82452726
H      -11.47768402      55.45550537      28.25379562
H       11.02374744       1.32219005       3.62553358
C        8.65196991      48.55286789       0.72528964
C      -14.37660789      49.13411713      26.54659081
C        8.10288429      49.65555573       0.05943830
C      -13.71654701      48.10511398      27.16275406
C      -11.92792988      49.52180099      27.91855621
C      -12.53738594      48.23910904      27.93629837
C      -12.64469719      50.51237869      27.22984695
C        6.78281689      47.10329819       0.13840914
C        7.94226599      47.22956085       0.81892413
C      -13.84527206      50.41663361      26.61314392
H        9.61918163      48.57463837       1.06406522
H      -15.38097858      48.96149826      26.07187843
H        8.68894863      50.59251785       0.04049322
H      -14.16332245      47.14568710      27.14959908
H      -12.15083218      51.52842331      27.26455688
H        6.14347219      46.23941422       0.25281534
H        8.33978558      46.44732666       1.41678572
H      -14.25528526      51.31357574      26.07859230
C        3.42499876      34.80669403      13.11463261
C        3.54546404      33.75407028      17.97218132
C        2.93214154      35.38210297      14.23278618
C        4.12027979      33.16176605      16.90693665
C        3.16757464      34.87031555      15.45812225
C        3.98156571      33.78227234      15.62745380
C        2.67650604      35.56131363      16.63517952
C        4.54958153      33.17609406      14.41982555
C        4.20701790      33.67808151      13.18795490
C        2.82064724      35.00670242      17.83799934
H        3.36453104      35.35295868      12.09483337
H        3.53183699      33.19739151      18.91735268
H        2.44654751      36.34538269      14.16489601
H        4.78985453      32.34759903      17.11860466
H        2.00051594      36.38243484      16.36861610
H        5.05093670      32.24768066      14.40249157
H        4.59205294      33.17085266      12.32399368
H        2.40376997      35.46709442      18.74896812
C        8.15467262      34.36062622       5.35520029
C        6.97498131      33.02685547       0.71596450
C        8.77501965      33.59106827       4.43625212
C        6.46743441      33.92368317       1.58978927
C        8.28330898      33.35700989       3.17325783
C        7.07259798      34.05592346       2.83913207
C        8.68591499      32.30633926       2.25959373
C        6.56675673      34.90279007       3.77837873
C        6.98727131      35.10113907       5.07452250
C        8.04823399      32.12409973       1.11977375
H        8.56760216      34.33182907       6.31071186
H      -12.21038914      32.90512848      28.20716858
H        9.57454681      32.90781784       4.81894827
H        5.56223774      34.55801773       1.39389074
H        9.37659550      31.66639519       2.69159436
H        5.66160727      35.47977448       3.53278565
H        6.58114290      35.85934448       5.63945150
H        8.34911633      31.35685349       0.49167106
C       21.27259445      47.72639084      27.88169861
C       -0.41720074      42.94089508       0.79292393
C       20.20176506      46.94792175      28.02534294
C        0.71006405      43.63222504       0.53831488
C       20.30591774      45.58615112      28.49458885
C        0.59615934      45.01676559       0.22039419
C       37.97866058      44.71523285       0.06458103
C        1.69282711      45.92217255       0.14775378
C      -17.22518921      47.22668457      28.22678757
C       38.12267303      43.39810181       0.42136475
H       21.20837975      48.79651642      27.66549683
H       -0.34395012      41.97132492       1.17806304
H       19.16882515      47.26747894      27.75908661
H        1.62983656      43.14953232       0.83237177
H       18.14232063      44.99505234      28.34921646
H        2.74571729      45.56132889       0.24328201
H      -16.34126854      47.89154816      28.06713676
H       37.25665283      42.75046158       0.26986018
C       -4.73892689      41.65748596      10.56850433
C       -6.93720388      38.76406479      14.01047134
C       -5.42915630      41.93592834      11.69981384
C       -5.86858797      38.57052994      13.19194412
C       -5.85489607      40.91847229      12.63275719
C       -5.34488964      39.67845917      12.40496349
C       -6.86685133      41.15351868      13.67489147
C       -4.57189131      39.36515808      11.27005005
C       -4.28204918      40.32570648      10.40753841
C       -7.43888330      40.01888657      14.20359898
H       -4.57786131      42.35728455       9.77504730
H       -7.44414043      37.86141968      14.51041794
H       -5.96080685      42.87844849      11.76626968
H       -5.44168806      37.56275177      13.19582844
H       -7.27703428      42.13539886      13.94814396
H       -4.23233891      38.36338425      11.09988689
H       -3.68570304      40.09546280       9.51188850
H       -8.23214245      40.08062744      14.94069386
C        8.41171741      35.68978119      15.78519058
C        4.57622766      38.24748611      13.74503708
C        8.21471405      36.24528503      14.59401798
C        4.84185743      37.80204391      15.01703739
C        7.03907633      37.02369690      14.34949970
C        6.01167822      37.05040359      15.34236622
C        6.81235504      37.64756393      13.09986687
C        6.32770538      36.48826218      16.61348152
C        7.55582953      35.95876694      16.88908386
C        5.60130358      38.12438202      12.67015076
H        9.27338219      35.17789078      16.01600456
H        3.75573468      38.91364670      13.54993248
H        8.97721958      36.00025940      13.79571819
H        4.02064228      37.86968613      15.72372055
H        7.62725782      37.57375717      12.36972809
H        5.50899363      36.46740341      17.40136528
H        7.84343290      35.49037170      17.94005775
H        5.49726486      38.48810196      11.63181591
C       32.86268234      40.76931763       7.91389322
C       31.52607536      44.11029434      11.37812042
C       32.96753693      42.10352707       7.93857479
C       31.44846153      42.74811172      11.26207542
C       32.50210190      42.80649948       9.11095715
C       31.96588135      42.07634735      10.14303493
C       32.50627899      44.24704361       9.14491463
C       32.02178192      40.60586166      10.10937119
C       32.51553726      39.98532104       9.03452778
C       32.11580658      44.81755447      10.30221367
H       33.01772308      40.20751572       6.97924948
H       30.92876244      44.67514801      12.05096436
H       33.23012543      42.71693802       7.17649269
H       30.88232422      42.12600327      11.99189663
H       33.03437042      44.68699646       8.36078453
H       31.76103020      39.96982193      10.97531414
H       32.45408249      38.92770767       8.89925575
H       32.19029999      45.92212677      10.35561371
C       -5.48705435      29.22768211      24.89006615
C       -5.84754419      34.14905167      25.59115219
C       -4.59263563      30.22643280      25.09717178
C       -6.73387623      33.16214752      25.42605591
C       -4.94843721      31.52783203      25.47230721
C       -6.34326172      31.82041740      25.48639297
C       -4.07116127      32.52880478      25.63525581
C       -7.32601261      30.71666145      25.30694389
C       -6.83941412      29.46203995      24.92500496
C       -4.47698879      33.84877014      25.69921494
H       -4.96388197      28.38109779      24.55752563
H       -6.18924999      35.20206833      25.55521202
H       -3.52314925      29.93203354      25.01416397
H       -7.82846642      33.27364731      25.34877968
H       -3.05015421      32.26941681      25.40569115
H       -8.40009499      30.87398720      25.47914886
H       -7.60808611      28.68214417      24.88977623
H       -3.73161435      34.56414413      25.78498459
C       -6.50715971      53.42338562      14.81451702
C       -6.37815523      54.12084198       9.83078670
C       -7.11591339      54.30450058      13.97376347
C       -5.70964813      53.32366562      10.67791176
C       -6.83443880      54.31634903      12.61222458
C       -5.83563519      53.50310135      12.09855556
C       -7.56834602      55.23617935      11.64280510
C       -5.26723480      52.52414322      12.92086124
C       -5.66254854      52.45397949      14.23504066
C       32.53704071      55.16297913      10.31103992
H       -6.68742228      53.30136108      15.84974384
H       33.63881302      54.00876617       8.80993080
H       -7.93051195      54.90783691      14.31829166
H       -5.06560278      52.57075500      10.30261612
H       31.36690521      55.87169266      11.91451073
H       -4.64850903      51.72174072      12.49366474
H       -5.36771107      51.64580154      14.86318016
H       31.97052002      55.75650024       9.60424995
C      -14.79862785      36.54804611      26.11500740
C      -11.32178593      39.70178223      24.21129799
C      -13.90574265      36.50400543      25.05700684
C      -12.16964340      39.78758240      25.21945953
C      -13.22038555      37.66666412      24.60594177
C      -13.27509880      38.82861710      25.38050079
C      -12.38710785      37.74284744      23.44844437
C      -14.17781734      38.80456161      26.54443359
C      -14.99967670      37.75101471      26.82427597
C      -11.53931808      38.74361801      23.25278664
H      -15.25381660      35.62634277      26.48697472
H      -10.47812843      40.35836029      23.99075699
H      -13.82265186      35.66345596      24.34725380
H      -11.95336342      40.55044174      26.02247429
H      -12.48702145      36.91180801      22.75524521
H      -14.46518898      39.69563293      27.15761757
H      -15.78908634      37.82351303      27.52113914
H      -10.87066650      38.77780914      22.43306732
C      -14.45738029      40.79776001      22.12215996
C      -12.25609303      44.35387039      19.21492195
C      -14.38082600      42.16257477      22.22656059
C      -12.09864235      43.05513382      19.34124756
C      -13.73951340      42.97767639      21.20151329
C      -12.94454479      42.30466080      20.26891708
C      -13.84585476      44.36160278      21.08686447
C      -12.95732784      40.93543243      20.25875473
C      -13.71476078      40.09993744      21.13835335
C      -13.13055706      45.07802200      20.16102219
H       24.70697594      40.09767151      22.69026375
H      -11.80190182      44.96443176      18.42918205
H      -14.92169857      42.69112015      23.00676155
H      -11.60809898      42.47021866      18.55775833
H       25.29543877      44.91545105      21.82499504
H      -12.36889553      40.48879623      19.52555847
H      -13.67339611      39.03255081      21.06837273
H      -13.05025768      46.14024734      20.18199921
C        4.87743378      42.79531860      23.38569450
C        8.70551968      39.54225540      23.66330910
C        5.48073912      41.83236313      22.50674629
C        7.91322708      40.06267166      24.80022049
C        6.58131695      41.10120773      22.90111160
C        6.93899918      41.16685486      24.26078415
C        7.28952932      40.41683197      21.88273430
C        6.39489555      42.12807465      25.07845879
C        5.41926718      43.05668259      24.58446884
C        8.32931805      39.65151596      22.32198334
H        4.01126909      43.34354019      23.03217316
H        9.61363697      38.97427368      23.94007683
H        5.00615740      41.64068985      21.55870056
H        8.69126320      40.54961014      25.45267677
H        6.96337366      40.38068390      20.90069962
H        6.72152805      42.02122498      26.16042519
H        5.03892231      43.81921387      25.22715187
H        8.90419579      39.07872772      21.58006859
C        3.76600647      39.38061523      23.97065735
C        8.19369793      36.93308258      24.93224525
C        4.84480095      39.55706787      24.84501648
C        7.26076555      36.83661652      23.93538857
C        5.96146250      38.66127014      24.78709984
C        6.06042480      37.62445831      23.88624191
C        7.11117697      39.00304031      25.65290070
C        4.90297794      37.47216034      23.06251335
C        3.81401300      38.27771759      23.12499046
C        7.88267517      37.79627228      26.11109543
H        2.96219325      40.09127045      24.00348091
H        9.20024300      36.48162079      24.86000633
H        4.87290955      40.53065491      25.48015594
H        7.49518728      36.14948273      23.07972527
H        6.78293133      39.51354599      26.64776802
H        4.90732336      36.66693497      22.35978127
H        3.09773779      38.13487244      22.34603691
H        8.72801876      38.19221497      26.66765785
C       17.31203651      41.15190125       0.44551417
C       21.74277878      38.86981964       0.94475663
C       18.57359695      41.65735626       0.72520113
C       20.44635201      38.48635864       0.72711354
C       19.66061783      40.74469757       0.90803826
C       19.36992073      39.36350250       0.78427094
C       20.99727821      41.12490082       1.23163044
C       18.01576614      38.87754822       0.48990914
C       17.00402641      39.75681305       0.42090589
C       22.02442741      40.21564484       1.26193333
H       16.49985886      41.78192139       0.16154748
H       22.49748421      38.10500336       0.90146178
H       18.84101295      42.71618271       0.70806211
H       20.13620758      37.47258759       0.49273357
H       21.23039818      42.16919327       1.45127797
H       17.74526024      37.81124115       0.46123812
H       16.07643890      39.33092499       0.06153346
H       23.06439018      40.43220901       1.41719556
C       19.28493309      30.53111458      22.09690475
C       18.47329712      31.60964775      17.39025307
C       18.89987946      31.66772842      21.43597412
C       18.85728645      30.51871872      18.04882812
C       18.54761124      31.67579460      20.14004707
C       18.88578415      30.43136024      19.44742203
C       18.14008522      32.85557175      19.40050507
C       19.19293022      29.25497818      20.09579659
C       19.26593971      29.22000885      21.44071198
C       18.13939285      32.85876465      18.03735352
H       19.56456947      30.74986839      23.15770531
H       18.64163780      31.59786987      16.30186844
H       18.82940292      32.54978561      22.03339577
H       19.03369331      29.66548347      17.41076660
H       17.95092773      33.72940826      20.04203415
H       19.00210762      28.34325790      19.44882393
H       19.34335518      28.32924652      22.03531456
H       17.85265541      33.66082764      17.46810341
C        0.76942182      45.16481018      25.25981522
C       -2.06077480      44.66915131      21.13615990
C       -0.51327467      45.49571228      24.97499847
C       -0.84224027      44.18461227      21.52345657
C       -1.07642281      45.12593460      23.74412346
C       -0.23478040      44.47240829      22.77979660
C       -2.37596536      45.59110260      23.37218475
C        1.02638340      44.01121902      23.16558647
C        1.49937022      44.28813171      24.43669128
C       -2.80519724      45.41222763      22.04560280
H        1.12024343      45.65483856      26.15538216
H       -2.42198062      44.44970703      20.16870308
H       -1.04699743      46.07746887      25.68676758
H       -0.17094715      43.62291718      20.84088516
H       -2.93492746      46.18020248      24.13827133
H        1.50981951      43.14050293      22.57488441
H        2.47727656      43.95521164      24.79635620
H       -3.82184505      45.80145645      21.71970749
C        3.53659606      39.17732620      19.28956223
C        4.59679031      34.59090042      20.93108749
C        2.77621889      38.19918442      19.92007637
C        5.30993080      35.59038162      20.26561165
C        3.39713359      36.96326447      20.22059250
C        4.77814007      36.81854248      19.93188477
C        2.61690545      36.00623322      20.86555290
C        5.52176714      37.92539978      19.55866432
C        4.91713142      39.09246063      19.15476227
C        3.25303698      34.80536270      21.23313904
H        3.05105758      40.05401611      18.94703484
H        5.02182627      33.71473694      21.27590561
H        1.74484861      38.29621506      20.26035309
H        6.37055635      35.49522400      20.10562325
H        1.60846925      36.35317230      21.09560585
H        6.58082199      37.91122055      19.36015701
H        5.48014545      39.88779449      18.79654694
H        2.74208832      33.98920822      21.80922317
C       27.20232010      39.74231720       6.29956675
C       26.58052254      37.96992493      10.87675667
C       27.62022018      38.60795975       6.91366816
C       26.21995735      39.15233231      10.31928253
C       27.30690384      38.43422317       8.26229382
C       26.56109619      39.33158112       8.96030521
C       27.86626625      37.29921341       8.93474293
C       26.26599312      40.51478195       8.32170296
C       26.64143181      40.74407578       7.02335405
C       27.49775696      37.10344696      10.25197792
H       27.48420525      39.96900558       5.37196350
H       26.41331291      37.74612427      11.93661785
H       28.24863052      37.87779617       6.34948015
H       25.75831604      39.98705673      10.86826897
H       28.51992226      36.68948364       8.30270004
H       25.91545486      41.37854385       8.86595917
H       26.56681442      41.68974304       6.49247217
H       27.87831116      36.15475845      10.79293537
C       -4.28757095      35.14443207       7.49239731
C       -6.16264057      35.51921463      12.14538860
C       -4.51595449      34.22798920       8.47072411
C       -6.00096989      36.30193329      11.08216858
C       -4.97810793      34.67908478       9.73405170
C       -5.46372223      35.95383072       9.83079243
C       -5.23214054      33.78197861      10.77368164
C       -5.33279753      36.83123398       8.76516724
C       -4.70346403      36.49735260       7.62611389
C       -5.71760082      34.21356964      11.95265102
H       -3.92035270      34.78042603       6.49425650
H       -6.35774088      35.90687561      13.07410145
H       -4.27111626      33.22368622       8.25307655
H       -6.45740032      37.28240204      11.04422379
H       -4.86653757      32.73489761      10.79947376
H       -5.75423527      37.86831284       8.87294006
H       -4.49380302      37.23549271       6.82892418
H       -5.77845287      33.56880569      12.81446934
C       17.10504532      43.04822922       6.88254595
C       13.58449078      40.80377197       3.97324181
C       16.98897934      41.81306076       6.29267454
C       13.85821056      42.07383728       4.46414042
C       15.92059040      41.30823517       5.51250982
C       15.00476933      42.31340408       5.25416279
C       15.57825184      40.02843857       5.07262659
C       15.17582512      43.59677887       5.78736782
C       16.18803406      44.03268433       6.54491854
C       14.49990273      39.71484375       4.24680805
H       17.95193291      43.21541214       7.54575968
H       12.61548710      40.74343872       3.45273066
H       17.74113464      41.05271530       6.47070980
H       13.11852455      42.77294159       4.27902269
H       16.35522079      39.32687759       5.28593349
H       14.44685078      44.34321594       5.68479633
H       16.37149239      45.05958176       6.84218359
H       14.23955154      38.67807007       3.95370960
C       22.61864281      52.87934494      21.24884987
C       22.63516235      57.84535217      20.61839294
C       21.77512741      53.91853714      21.55122948
C       23.66455269      56.95146179      20.38400459
C       22.16061592      55.20582199      21.26311111
C       23.34552193      55.59338760      20.57945442
C       21.13801956      56.21092987      21.46127319
C       24.20897675      54.48659134      20.28289604
C       23.84535408      53.19858551      20.55409050
C       21.42274284      57.51153564      21.20509338
H       22.41394615      51.83142090      21.39011192
H       22.83605385      58.88785553      20.45220947
H       20.77623558      53.70613861      21.82023239
H       24.58466530      57.15457916      19.92676735
H       20.18447304      55.98408508      21.85042381
H       25.08498192      54.64923096      19.69490242
H       24.33273506      52.32379913      20.20073891
H       20.70273018      58.29629898      21.41439438
C       -0.25878099      32.34046555      16.84880447
C       -0.43283617      29.10741806      12.97390652
C       -0.90755749      31.16106796      16.59204483
C        0.22621787      30.29105949      13.18628883
C       -0.84770441      30.52136803      15.37117290
C        0.07983650      31.01326561      14.41921902
C       -1.56007934      29.32122040      15.11439228
C        0.78727418      32.23326492      14.67053127
C        0.67134219      32.87870789      15.85181332
C       -1.32039070      28.61077118      13.92134571
H       -0.47222292      32.79453278      17.79067612
H       -0.21892643      28.52384758      12.10655785
H       -1.53924835      30.72795105      17.35640907
H        0.99729806      30.66770554      12.50630283
H       -2.27473235      28.98305702      15.85008430
H        1.48716402      32.70083618      13.90630531
H        1.12439144      33.81388474      16.01455879
H       -1.70403194      27.59630203      13.85464191
C       30.18488884      30.58302498       3.22583485
C       35.24068069      31.26554298       3.13797498
C       31.11079979      31.02200508       4.12184286
C       34.36942291      30.86850357       2.13431692
C       32.50926209      31.19223213       3.77288795
C       32.93722916      30.83766365       2.45221233
C       33.46282578      31.53356552       4.77648878
C       31.91952133      30.57421875       1.50112975
C       30.63073349      30.42528725       1.91376293
C       34.79246902      31.59425163       4.42293882
H       29.13095474      30.28672218       3.63200164
H       36.29838943      31.32515907       2.80447865
H       30.74421310      31.07027054       5.08949184
H       34.77809143      30.79519272       1.11151195
H       33.17886353      32.05132675       5.76105070
H       32.19257736      30.45153427       0.42588264
H       29.91990280      30.14293098       1.12978268
H       35.43859100      31.91454124       5.23827362
C        3.20328689      45.73323441      20.45282173
C        0.18619516      42.25170517      18.64639664
C        2.04496312      45.86668015      19.69203758
C        1.20127630      42.22319794      19.59154320
C        1.34566879      44.66561127      19.33313370
C        1.82620406      43.48341370      19.83203506
C        0.13356827      44.62872696      18.57024002
C        3.07403922      43.36903763      20.58789062
C        3.72782540      44.49775696      20.90636826
C       -0.35077840      43.42910004      18.18080902
H        3.73304772      46.60451889      20.61614227
H       -0.38641846      41.41244125      18.25445747
H        1.66491115      46.85207748      19.39621162
H        1.74232447      41.31726074      19.98365593
H       -0.47243589      45.45544052      18.30046463
H        3.46157956      42.38755417      20.89171028
H        4.69335842      44.51002502      21.42427826
H       -1.29092777      43.42886734      17.66687584
C       26.48949623      52.40459824       7.90888500
C       27.22017479      47.55408859       8.08507824
C       27.65072632      51.69742203       7.81675529
C       26.14483070      48.36128998       8.33361435
C       27.57177162      50.29951477       7.97466660
C       26.29656982      49.73099136       8.20487785
C       28.68755341      49.46002197       7.72335815
C       25.11919212      50.49321747       8.19696331
C       25.20516205      51.80187988       8.08396053
C       28.48739815      48.12763596       7.70820856
H       26.45135498      53.52506256       7.99414349
H       27.15528297      46.40967560       8.20886612
H       28.59596634      52.16176987       7.85309696
H       25.11086082      48.05031586       8.66707993
H       29.71425247      49.85594940       7.58652925
H       24.15824509      50.01086044       8.42364788
H       24.38614655      52.42813110       8.32844639
H       29.12756157      47.35105133       7.27216721
C       35.98646164      48.58020401       1.14898217
C       32.65261841      44.72890854       1.30720830
C       36.08960342      47.24115753       1.33803415
C       32.51610184      46.11454010       1.22770560
C       34.93725204      46.48381805       1.46051776
C       33.60097885      47.09054184       1.34653306
C       34.99839401      45.00654602       1.58197665
C       33.57096863      48.44316101       1.00538099
C       34.76037598      49.23310852       1.05071592
C       33.97750473      44.16104889       1.35986114
H       36.87524414      49.17763901       1.48495829
H       31.76259232      44.15460587       1.28026330
H       36.97947693      46.67697144       1.47473168
H       31.43132973      46.44441986       1.26598024
H       36.01935196      44.82715225       1.93178916
H       32.57848740      48.89337921       0.99788207
H       34.58679962      50.28804016       0.88626885
H       34.11813736      43.02510071       1.27003098
C        8.58489418      30.03674507       5.53735256
C        8.74663448      29.94151115      10.48006535
C        9.11116886      29.13633347       6.40707541
C        8.00765419      30.72241783       9.67205429
C        8.93238449      29.37014771       7.75651169
C        8.08975983      30.46828461       8.21565723
C        9.39625645      28.47245598       8.78230000
C        7.42797041      31.29901886       7.27859783
C        7.58588266      31.03593445       5.91786814
C        9.29404640      28.74989319      10.07677555
H        8.83993340      29.89618111       4.49938440
H        8.75247383      30.32193184      11.56067944
H        9.87922955      28.44832993       6.06780958
H        7.63008738      31.64071083       9.89343643
H        9.63182640      27.41695213       8.45096970
H        6.78829241      32.11683655       7.68465662
H        6.93306637      31.61356163       5.22181797
H        9.68795490      28.00326729      10.79829693
C       -6.96215630      29.62759781      12.15563393
C       -4.90651989      29.44097519       7.53329563
C       -6.58024073      30.56944847      11.22631168
C       -5.20796061      28.48893356       8.50777912
C       -6.11666489      30.05446243       9.97895145
C       -5.94112492      28.70633316       9.73826504
C       -5.90410042      31.06063271       8.97952175
C       -6.04225254      27.80562401      10.78332996
C       -6.53895664      28.25848198      11.90968323
C       34.40499115      30.74474144       7.74599171
H       -7.42133665      29.77467728      13.12505054
H       -4.24066067      29.17389870       6.66783857
H       -6.71027851      31.65045738      11.26810837
H       -4.86445951      27.43049049       8.28749752
H       33.61808014      32.09064102       9.23353291
H       -5.56708574      26.84773064      10.58479595
H       -6.58400679      27.63303375      12.77978802
H       34.48478317      31.45730972       6.91150904
C       -1.40615213      32.92670822      11.68122387
C       -4.77748775      33.59190369      15.26275635
C       -2.33371997      32.10063553      12.31973648
C       -3.93766379      34.50811768      14.58370876
C       -3.30512357      32.62221909      13.17560863
C       -3.19358659      34.02836609      13.45427895
C       -4.21394396      31.78147316      13.84248829
C       -2.28054142      34.84682083      12.75732422
C       -1.33472407      34.27393723      11.92617798
C       -5.00213051      32.26600266      14.84896851
H       -0.82263768      32.43568039      10.93296051
H       -5.13347769      33.94903183      16.19738960
H       -2.41939592      31.02467346      12.20098209
H       -3.88135147      35.49660110      14.88652325
H       -4.28039837      30.76698875      13.56062031
H       -2.31360245      35.89275360      12.86989880
H       -0.70684409      34.98070145      11.36912918
H       -5.72414446      31.52982712      15.17287636
C       -2.86418867      53.55665207      20.53711510
C       -2.29879022      56.51916122      16.55102921
C       -3.40485644      53.48731995      19.24708366
C       -1.68044543      56.52935791      17.82596397
C       -2.94893241      54.53165054      18.36102295
C       -2.07191324      55.58191299      18.82052422
C       -3.54540277      54.58695984      17.05612946
C       -1.59797812      55.64345169      20.13903618
C       -2.00856972      54.53762817      20.97758484
C       -3.23791099      55.55062103      16.18083382
H       -3.15037465      52.77101898      21.24995041
H       -2.16328692      57.41130829      15.91154003
H       -3.94259906      52.66077805      18.97236061
H       -1.13223732      57.43389893      18.15727615
H       -4.14995766      53.72843170      16.73682785
H       -1.06462061      56.42773819      20.52879143
H       -1.50491142      54.37259674      21.89610672
H       -3.56824899      55.59010696      15.20103359
C       -1.81082046      54.69602203      13.67228413
C       -0.22575970      56.22904587       9.18977165
C       -2.12948132      54.29495621      12.41778755
C       -0.20340398      56.80112457      10.47952652
C       -1.62931418      55.03038025      11.31556129
C       -0.83493167      56.11840439      11.51998234
C       -1.83255374      54.60780716       9.94005013
C       -0.60451299      56.56382751      12.84325886
C       -0.99084765      55.79331589      13.89166355
C       -1.01501250      55.08108902       8.96005917
H       -2.11677003      53.99234009      14.49174595
H        0.28317356      56.73182678       8.36415863
H       -2.88629103      53.49885559      12.31119537
H        0.44640926      57.60788727      10.72680950
H       -2.48455214      53.72120666       9.89859772
H        0.10085148      57.39551926      12.95517921
H       -0.71761614      56.09936905      14.89355087
H       -1.08895457      54.66796112       8.01064587
C       31.78336143      34.28999329       2.69471812
C       31.01255989      38.22067642       5.88744688
C       30.90518188      35.37789917       2.68486619
C       31.85426521      37.20451736       5.78280592
C       30.96129990      36.39664841       3.63640881
C       31.88439178      36.33000565       4.67798758
C       30.03694916      37.48825073       3.77686882
C       32.87815094      35.34536743       4.59416389
C       32.81317520      34.32376862       3.65955257
C       30.08817863      38.36444092       4.83144188
H       31.72965622      33.55071259       1.99079990
H       30.90180588      38.91751480       6.71680975
H       29.99748611      35.32441711       2.03782201
H       32.66326904      37.06794357       6.49589825
H       29.26985359      37.50588226       3.01525950
H       33.80125809      35.49990845       5.06704903
H       33.50799942      33.51766586       3.66267514
H       29.32505226      39.18686295       4.80443954
C       17.29575348      53.00079346      18.94554901
C       19.53380775      51.41003418      14.65000725
C       17.08035469      53.13809204      17.56282616
C       19.77184486      51.14738464      15.95490360
C       17.86309052      52.53103638      16.58056259
C       18.93292427      51.66531754      16.92772102
C       17.58619118      52.80194473      15.20405102
C       19.09840775      51.44251251      18.29344749
C       18.30445099      52.07968140      19.26061440
C       18.45760155      52.24459839      14.29897308
H       16.64649582      53.43743515      19.69370651
H       20.26316643      50.95724106      14.04654503
H       16.44554520      53.93205261      17.10703850
H       20.70137405      50.62474823      16.20024872
H       16.69541931      53.29834366      14.83026218
H       19.90820885      50.88484573      18.71768761
H       18.44725037      51.88099670      20.30058098
H       18.20563507      52.39085007      13.24045277
C      -18.47021675      31.96492386      28.46448708
C       22.05804634      33.42750931      23.66155624
C      -17.88762093      31.37775993      27.36955452
C       21.82489586      34.08895111      24.80377197
C       21.99219131      32.05899429      26.09318161
C       21.72643089      33.47587967      26.04765701
C       22.42010498      31.39096832      24.95006943
C       21.15315247      34.09747314      27.21737099
C       20.85381699      33.32032013      28.28365135
C       22.32153320      32.06286621      23.75238991
H        0.22212048      31.55071068       0.92563570
H       22.13907051      33.99181366      22.72507286
H      -17.39541054      30.34115028      27.44043159
H       21.53838539      35.15645218      24.80342293
H       23.02899742      30.50372696      24.98248863
H       20.79004097      35.14862823      27.09127045
H       39.17280579      33.84417725       0.63384342
H       22.37950897      31.50812721      22.87582970
C       13.62663746      55.72207260       0.89386988
C       12.64220142      55.21702194       5.75811911
C       13.66348076      54.64289093       1.69626939
C       12.83121109      56.30146027       4.99322557
C       13.44960308      54.80791473       3.11673880
C       13.21308994      56.08021164       3.63217854
C       13.31415081      53.73742676       4.00633526
C       13.12218189      57.17693710       2.73185301
C       13.34373474      57.01765442       1.37967730
C       12.81732368      53.92028427       5.27555037
H       -4.87145042      55.43558502      28.40498543
H       12.43212605      55.36439896       6.86644459
H       13.73715878      53.64017868       1.26914704
H       12.75937176      57.24624252       5.42080545
H       13.42244911      52.69126892       3.70995402
H       12.77116489      58.09355164       3.00326276
H       13.20346642      57.87958908       0.79917485
H       12.58405113      53.05887985       5.85579014
C        9.33641243      44.75680542      19.73778152
C       12.81676102      42.82037354      22.39173698
C        9.29669762      43.71465683      20.66870880
C       12.44723797      44.25947952      22.66011238
C       10.26866722      43.59222794      21.64343071
C       11.30490589      44.56501007      21.73234558
C       10.47432804      42.47616959      22.68230629
C       11.30507660      45.58539963      20.89223099
C       10.38943291      45.63200760      19.84512901
C       11.78741360      41.94614792      22.33270073
H        8.64749718      44.92029572      18.90612412
H       13.88454723      42.55154800      22.38611412
H        8.52589703      43.04155731      20.64285469
H       13.31938839      44.83394241      22.54257202
H        9.66357994      41.74147415      22.45688820
H       12.12514877      46.36618042      20.98465919
H       10.42950344      46.44916534      19.12327003
H       11.88230133      40.91142654      21.96396828
C       12.03449440      54.03722382      17.23523331
C       14.99126339      50.08669662      17.58551979
C       12.13668156      52.88431549      16.57834053
C       14.87131023      51.16601181      18.36625481
C       13.01554680      51.93404770      16.96520615
C       13.84864807      52.12797546      18.05827141
C       13.21791172      50.79902267      16.12896156
C       13.68160057      53.32469940      18.73373413
C       12.75687313      54.31025314      18.36288643
C       14.13702202      49.87461853      16.49126434
H       11.24473190      54.68949127      16.91758728
H       15.79777622      49.40254974      17.67755699
H       11.52819252      52.90943527      15.70111275
H       15.33156109      51.26761246      19.30402184
H       12.55639267      50.52181625      15.34665489
H       14.33987522      53.48288727      19.59545136
H       12.84115601      55.29504395      18.78713608
H       14.37711430      49.06354141      15.78766727
C       22.82102585      36.38018799      20.23799515
C       21.53268623      37.55286026      24.87495041
C       21.66354752      36.26025009      20.95825386
C       22.69116020      37.68056107      24.14175415
C       21.54811287      36.79811478      22.25279999
C       22.72426033      37.32077789      22.81751251
C       20.31950951      36.80291748      22.91846275
C       23.92216682      37.46660614      22.08243370
C       23.94110107      37.02798462      20.77970123
C       20.29040718      37.14229584      24.28642654
H       22.85819817      35.99546814      19.27684975
H       21.57238388      37.80103683      25.90000534
H       20.80921936      35.68899155      20.68191719
H      -16.26018715      38.11139679      24.72420883
H       19.48085022      36.77953720      22.22628212
H       24.81734276      37.89548111      22.49728394
H       24.91223335      36.84454346      20.30882835
H       19.34137344      37.15289307      24.85719681
C       -7.75517416      34.23756027      15.55602074
C       -9.55439758      29.69287109      16.76201820
C       -8.04939651      33.11765671      14.84079170
C       -9.20376015      30.73661232      17.44744682
C       -8.58678913      31.98327637      15.39187622
C       -8.74039364      31.93672371      16.81545639
C       -9.17232323      30.92252350      14.68349648
C       -8.63435745      33.17529297      17.57682228
C       -8.01295090      34.34814453      16.95918846
C       -9.57952309      29.74392319      15.27657986
H       -7.30937910      35.10943985      15.13726330
H       -9.94038868      28.83784485      17.27469826
H       -7.70112228      33.28434372      13.86921692
H       -9.16778946      30.81069374      18.61389160
H       30.67250633      31.05995750      13.61102772
H       -9.01369667      33.22798157      18.60591698
H       -7.91506433      35.29965591      17.51343918
H       29.70059204      28.93106842      14.75991821
C        9.30913830      51.75417709      25.73124123
C       13.08455658      48.60890579      24.76731300
C        9.66433907      51.04251099      24.61095238
C       12.54701042      49.03816986      25.95882416
C       10.77045059      50.11093903      24.61936569
C       11.34130287      49.80070114      25.83148575
C       11.25008297      49.54478073      23.41401291
C       10.85798359      50.47760010      26.96679688
C        9.84856606      51.44646072      26.98092270
C       12.36960983      48.72232437      23.52418137
H        8.62897587      52.66812897      25.74694824
H       13.91906548      48.03424835      24.82450867
H        9.24083042      51.40036774      23.72154045
H       12.73759079      48.86153030      26.99105072
H       10.78165436      49.77142334      22.47505569
H       11.27265072      50.18954849      27.87568474
H        9.56452942      52.09572220      27.78053665
H       12.89358616      48.22018814      22.75382042
C       13.87824249      50.50747299      12.47737598
C       14.08561039      50.73569870       7.50446892
C       14.76471996      50.15853500      11.52847672
C       13.25377083      51.38451386       8.45113850
C       14.66274452      50.55526733      10.12205505
C       13.45293427      51.16633224       9.83162212
C       15.65851688      50.22670364       9.22067451
C       12.50475979      51.55879593      10.83064365
C       12.66848564      51.23443985      12.11571884
C       15.27086830      50.09430695       7.91228199
H       14.13570690      50.38682175      13.55034733
H       13.94885731      50.77181244       6.39032078
H       15.71025372      49.72508240      11.87613678
H       12.37187767      51.96678543       8.02768517
H       16.63338852      49.72952652       9.46364784
H       11.58708572      52.00988007      10.42713356
H       12.06132984      51.26869583      12.97476006
H       16.06501770      49.68743896       7.14189720
C       -2.42890406      50.61739731      17.77226830
C       -5.42703962      48.62844849      14.38510895
C       -3.52550459      49.77832413      17.94723892
C       -4.40316057      49.49762344      14.29090118
C       -4.17691898      49.36986542      16.72661591
C       -3.73798990      49.88430786      15.50142860
C       -5.27502060      48.38904953      16.74556923
C       -2.67418909      50.92410660      15.42757225
C       -2.07267475      51.30975723      16.59515381
C       -5.85411930      48.01079559      15.55408955
H       -1.83167660      51.02092361      18.62263870
H       -6.04441977      48.39825439      13.56151295
H       -3.69465423      49.25426102      18.87534714
H       -4.09816837      49.78988266      13.34416580
H       -5.55359077      48.06681442      17.72005081
H       -2.54785490      51.36905670      14.46971321
H       -1.34120369      52.07495499      16.44609642
H       -6.67687178      47.33130264      15.47681713
C       -2.26548290      52.64020157       7.27674437
C        0.35633719      48.93571472       5.20740318
C       -1.74121225      52.51101685       6.05789328
C       -0.39192352      49.01181030       6.38217449
C       -1.03644013      51.29105377       5.65301752
C       -1.10488784      50.24581909       6.60789204
C       -0.50849700      51.01903915       4.37453318
C       -1.75530195      50.38467026       7.86487818
C       -2.23857331      51.56844330       8.17553520
C        0.25188875      49.88512039       4.19543505
H       -2.72716880      53.55294418       7.56012917
H        1.01091826      48.07159042       5.02807856
H       -1.87003374      53.37187958       5.31006670
H       -0.41778871      48.25715256       7.21328115
H       -0.52334559      51.78493118       3.64348459
H       -1.86254847      49.49828720       8.52843094
H       -2.89849281      51.61457062       9.09065914
H        0.67497796      49.69988632       3.25976324
C        6.41892862      41.57920074       6.32185316
C        7.15079594      39.44977570       1.66982913
C        6.32246590      40.07033157       5.78557825
C        6.59707069      40.67173386       2.09690237
C        6.92155981      40.09258270       4.37655210
C        6.43780231      40.91749191       3.45222902
C        7.55358505      38.90217972       4.01265144
C        5.50018644      42.03033829       3.85957789
C        5.48123074      42.33829880       5.40912390
C        7.60830879      38.57019043       2.59145951
H        6.05339909      41.72771072       7.37442064
H        7.09639120      39.21402740       0.61578250
H        6.97524023      39.44615555       6.41219234
H        6.22203827      41.33840942       1.39485502
H        7.73935461      38.03145218       4.72943544
H        5.61489582      43.02637100       3.36298990
H        5.63379478      43.46518707       5.63869572
H        8.20228481      37.65206909       2.38548517
C       -0.15850221      37.57551193      17.49100876
C        1.39759481      38.94908524      12.89449310
C       -0.01129128      36.85272598      16.27344513
C        1.22722399      39.54425430      14.12337017
C        0.26236391      37.60485458      15.11758518
C        0.62149215      38.98100662      15.26277351
C        0.31190035      36.99460220      13.80314159
C        0.55448204      39.59374237      16.50489426
C        0.00895227      38.92707443      17.61052132
C        0.85495806      37.65271759      12.75384712
H       -0.30902764      37.04436874      18.41674995
H        1.95402896      39.45538712      12.21201229
H       -0.11863723      35.72985840      16.28132629
H        1.56423414      40.58118820      14.31334877
H       -0.04439029      36.01495743      13.64340878
H        0.77722335      40.64996338      16.42455673
H       -0.12870665      39.29302979      18.57622528
H        0.67135239      37.28832626      11.76881599
C       -8.70167351      34.91867828      20.99201775
C      -10.73136902      35.01297379      25.62425613
C       -8.21806049      35.29241943      22.24721909
C      -11.22347164      34.73745728      24.38039207
C       -9.07869148      35.36520767      23.35221291
C      -10.38889027      34.88449097      23.24482727
C       -8.68293190      35.75081635      24.69645691
C      -10.83663559      34.46864319      21.94502640
C      -10.04502487      34.48313904      20.83723068
C       -9.45217705      35.60729980      25.76269150
H       -8.02831268      34.96635056      20.11703682
H      -11.30183029      34.76337814      26.55520058
H       -7.19542694      35.62001801      22.31717682
H      -12.16942120      34.32411575      24.22986412
H       -7.62313271      36.05835724      24.91316795
H      -11.82805443      34.05936050      21.77463913
H      -10.41481209      34.08366776      19.91675758
H       -9.03434181      35.81268311      26.75662231
C       21.18878937      54.93949127      24.79994392
C       19.46584320      52.02041626      28.48184013
C       20.77158546      53.68224335      24.80132675
C       19.81449890      53.32516098      28.38349533
C       20.41196060      53.05402374      26.03417397
C       20.41371918      53.89828491      27.15276146
C       19.95249748      51.73926163      26.09353638
C       20.89370537      55.18000031      27.15008354
C       21.22293472      55.77645874      25.97309875
C       19.46009254      51.24620056      27.32317162
H       21.70424461      55.41085815      23.98800087
H       37.88195801      51.70423508       0.99114621
H       20.90150642      53.00933838      23.96799278
H       38.65209198      53.95212173       0.76219648
H       19.87586594      51.17723084      25.16909981
H       20.64991760      55.81637573      28.01835251
H       21.59908676      56.76996994      25.95307350
H       19.09113502      50.26318359      27.35949516
C       15.03294945      55.54977417      15.92154312
C       14.47319126      55.81401062      10.92622471
C       14.65419865      54.54764175      14.97852612
C       14.33371067      56.72929764      11.95221233
C       14.52369976      54.93995285      13.67518330
C       14.36715221      56.24810410      13.31127262
C       14.52159309      53.92594910      12.53684521
C       14.62370491      57.20299149      14.27224731
C       14.89306355      56.87794876      15.59910679
C       14.61151409      54.40378189      11.25846863
H       14.99936104      55.33209610      16.94663048
H       14.27062988      56.17028427       9.93165302
H       14.77600193      53.46950150      15.30811024
H       14.41022396      57.83608246      11.84215164
H       14.54118633      52.85542679      12.76859951
H       14.51861095      58.27297211      14.07071686
H       15.25395298      57.56620789      16.41651344
H       14.59459496      53.71884155      10.45804119
C       -0.11417570      55.73947906      25.35085678
C       -4.08464336      58.78360748      26.20860291
C       -0.55099320      56.92178726      24.81214714
C       -3.74133945      57.58277512      26.75096703
C       -1.70700729      57.57756805      25.36020088
C       -2.52616096      56.93207550      26.32608986
C       -2.06980252      58.85448837      24.86855316
C       -2.09707308      55.69741058      26.79419518
C       -1.00744140      55.05268860      26.19145012
C       -3.24221611       0.50746745      25.23593521
H        0.83002400      55.30902481      25.12177467
H       -4.91663504       0.43505967      26.52542877
H       -0.06460717      57.34181976      24.00866127
H       -4.39533663      57.10454178      27.46977234
H       -1.43869603       0.48699069      24.21808052
H       -2.73879218      55.17098618      27.54478264
H       -0.82965893      54.05220795      26.43833160
H       -3.47745514       1.46665025      24.95262337
C        6.80413628      33.30410385      11.32265282
C        6.31902838      37.55578613       8.68301296
C        6.13231945      33.62338638      10.20452213
C        7.11905432      37.16780090       9.76397038
C        6.24276400      34.88650894       9.64981651
C        7.16687822      35.82097244      10.21857738
C        5.48644543      35.32451248       8.55074310
C        7.90270901      35.42887115      11.37589836
C        7.75286102      34.18447495      11.88504696
C        5.57896280      36.56831741       8.03031635
H        6.66175365      32.32729340      11.73784161
H        6.22047043      38.59946442       8.54049397
H        5.43501377      32.94821548       9.74635124
H        7.74658775      37.98737717      10.22035980
H        4.93709517      34.44482040       8.12143898
H        8.68930721      36.03878784      11.66136265
H        8.29236126      33.85165024      12.74594212
H        5.08588600      36.84629440       7.12365770
C        0.34128436      54.02220154      17.51306534
C        1.59181678      53.97388840      22.49172783
C        0.30165356      53.07299805      18.46188927
C        1.73765218      54.85976791      21.43827820
C        0.72262430      53.38742828      19.83711815
C        1.36574996      54.58825302      20.10550690
C        0.57592767      52.52534866      20.93827629
C        1.57692468      55.49411392      19.03525162
C        0.96779811      55.23197937      17.80178070
C        0.98892629      52.70819092      22.20754051
H       -0.19302258      53.88238907      16.56295204
H        2.15727043      54.04149246      23.49969482
H       -0.21225061      52.10885620      18.26704216
H        2.13018632      55.87680435      21.74722099
H        0.16253656      51.59683228      20.68145561
H        2.01925802      56.49401855      19.24262238
H        0.91061920      55.99014282      17.03826523
H        1.10214150      51.97271729      22.96522522
C       12.83392715      57.54487228      28.21997643
C       17.11482811      56.83553314      25.67440987
C       13.06536198      57.34241104      26.86226082
C       16.84041595      57.36721420      26.93529892
C       14.37811565      57.16954803      26.46535873
C       15.43526173      57.48358917      27.33472824
C       14.76650715      56.46932983      25.27874565
C       33.95254135      57.71595764       0.14962110
C       32.64876556      57.58575439       0.68177956
C       16.07656670      56.29269028      24.91678619
H       30.64796638      57.48590088       0.14384139
H       18.18994141      56.77006912      25.32802391
H       12.24378681      57.17748261      26.23073387
H       17.63021660      57.73254013      27.54055405
H       13.98938084      56.22932434      24.55954552
H       34.78778839      57.83251572       0.82792556
H       32.63108826      57.55073166       1.75184596
H       16.24355698      55.89123535      23.93454170
C        6.67251253      30.61277580      19.83971024
C        8.63871574      30.43958282      24.39708138
C        7.77957726      30.03985977      20.40793800
C        7.68789625      31.29348564      23.85000610
C        8.08294296      30.28030777      21.70660782
C        7.27908516      31.16321373      22.51239586
C        9.14499664      29.56738472      22.25422287
C        6.05298567      31.61468887      22.01418114
C        5.82820797      31.42573166      20.62182808
C        9.27479458      29.50407219      23.59502792
H        6.47985697      30.49324989      18.75210762
H        8.88914394      30.52296257      25.45897293
H        8.40403938      29.47593689      19.73431969
H        7.15318537      32.04464722      24.39137459
H        9.74592018      28.84585953      21.68396568
H        5.38906288      32.16923141      22.56180382
H        4.90943384      31.76118851      20.09775734
H        9.99891949      28.81975555      24.06264687
C       15.83237457      37.33969116      23.57638168
C       11.39095879      37.92198181      25.59182167
C       15.00340557      36.55041504      24.32870865
C       12.18205547      38.78477478      24.86236572
C       13.77914333      37.06837845      24.80527306
C       13.39848900      38.35408401      24.40306664
C       12.81104183      36.17374039      25.38420105
C       14.25240135      39.15769577      23.69571495
C       15.51674938      38.64829636      23.30188560
C       11.64741230      36.54025650      25.81006813
H       16.72458267      36.87650681      23.08808708
H       10.49623966      38.36384201      25.97261620
H       15.24523354      35.58041763      24.63517952
H       11.82498455      39.74616241      24.66124916
H       13.12067318      35.09848022      25.48213577
H       13.88429546      40.20042801      23.47904778
H       16.11869049      39.25944138      22.61050415
H       10.89976883      35.87756729      26.17757416
C       17.95313454      30.35112190      12.89149570
C       20.89958954      34.07850647      11.20453167
C       19.05557823      30.95935440      13.33998489
C       19.83623314      33.42543793      10.59632492
C       19.63528442      32.02993774      12.62768173
C       19.20323181      32.33529282      11.29028225
C       20.61718750      32.76182556      13.26780605
C       18.07411385      31.64157486      10.81787205
C       17.38293266      30.78505135      11.63754272
C       21.19690895      33.82753372      12.57093811
H       17.45205498      29.56793213      13.48071098
H       21.35074234      34.80141449      10.62290192
H       19.44105530      30.68639374      14.30532360
H       19.54500771      33.45332718       9.51205444
H       20.88519669      32.48902893      14.26290894
H       17.71231842      31.98448181       9.85999870
H       16.39884186      30.38905907      11.40426350
H       22.00521469      34.32010269      13.18972492
C       -2.50520802      58.70224762       9.01221561
C       -5.21105528      57.34404373      13.00231838
C       -2.50233603       0.19547760      10.30449200
C       -4.80921507      56.60789108      11.86988544
C       -3.39214301      58.56295013      11.29434872
C       -3.96365070      57.34752655      10.91608334
C       -3.77632785       0.27347490      12.50233746
C       -3.86941314      56.87880325       9.58376217
C       -3.17903256      57.55145645       8.61685371
C       -4.72905588      58.63597870      13.31780529
H       -1.90506017       0.30124924       8.23969841
H       -5.89335394      56.78805161      13.64606094
H       -1.96463168       1.09763455      10.78043652
H       -5.15794563      55.65163803      11.67267418
H       -3.38892126       1.28105426      12.72500420
H       -4.08586264      55.80842590       9.50499630
H       -3.07600188      57.16674423       7.62310266
H       -5.08927202       0.22145560      14.16297436
C        9.75160694      36.99303436      21.71254158
C       13.53774643      34.63204193      19.66746140
C       10.96448135      36.64768982      22.20552635
C       12.27160358      34.87368011      19.28394318
C       11.87792492      35.87002945      21.45924950
C       11.47401047      35.58444977      20.14928818
C       13.16667271      35.54126739      21.80417442
C       10.21956062      36.01588821      19.64692879
C        9.31713963      36.69198227      20.42757225
C       14.03774834      34.99987411      20.92947578
H        9.13534069      37.50444794      22.47629166
H       14.18009281      34.00162125      19.02059746
H       11.25693035      37.10458755      23.15188789
H       11.77867031      34.61701584      18.33639717
H       13.59481430      35.74674225      22.82070160
H        9.93200207      35.77066422      18.60318947
H        8.37480259      37.05017471      19.93528175
H       15.09716415      34.90161896      21.17791557
C        8.69466114      58.31877899       7.44145107
C        5.71579170      58.09781647      11.57396221
C        8.77892494      57.69621658       8.72513962
C        5.53663731      58.67685699      10.29100895
C        7.77689600      57.80677032       9.67673206
C        6.59415531      58.50756454       9.35604572
C        7.91830063      57.22476196      10.97339916
C        6.50252104       0.25822887       8.11655426
C        7.54299879       0.14540954       7.15829992
C        6.90575075      57.44783020      11.87389088
H        9.58655930      58.11283875       6.86208105
H        4.89366055      58.09244537      12.28460312
H        9.61387634      57.11569595       9.00785542
H        4.59353542       0.25468451      10.01004887
H        8.93768215      56.92061615      11.06803322
H        5.62136984       0.84600437       7.84256077
H        7.42703390       0.57045710       6.18553925
H        7.08052540      57.07827377      12.87500858
C       -7.99847317      48.43127441      22.14651489
C       -9.85054588      48.97960663      17.46964836
C       -9.34227180      48.57461548      21.66606331
C       -8.60199928      48.57518768      17.99446869
C       -9.65678501      48.42281342      20.26943016
C       -8.51435661      48.31245422      19.39850616
C      -10.89009094      48.65607452      19.58887672
C       -7.25750351      48.11796188      19.97293472
C       -6.96804333      48.16101074      21.30453873
C      -11.03437614      48.96043396      18.29656982
H       -7.88291883      48.62010574      23.26004791
H       -9.92726612      49.45719528      16.51499558
H      -10.24315643      48.67750931      22.38293648
H       -7.65617180      48.47969437      17.31383324
H      -11.77786446      48.57505417      20.15353012
H       -6.40487194      48.20349121      19.28466415
H       -5.91595602      48.27402115      21.50535393
H       27.81193542      49.18981552      17.78364182
C       -4.02757120      55.78601837      23.44510460
C       -4.23187351      57.97581100      19.01729774
C       -3.45282578      56.89343262      22.91314888
C       -4.84699535      56.94657516      19.50258827
C       -3.84472799      57.35416031      21.64614677
C       -4.64797401      56.58426666      20.89777565
C       -3.20601511      58.45267487      21.07099915
C       -5.25411272      55.47872162      21.50287819
C       -4.93149662      55.06161118      22.72913361
C       -3.28031707      58.68114853      19.74913025
H       -3.78530097      55.42950821      24.41538620
H       -4.22929907      58.28438568      17.94546890
H       -2.75765967      57.50754166      23.49970245
H       -5.61843681      56.38192749      19.02880096
H       -2.37606955      58.88365936      21.61986160
H       -5.81969023      54.86060333      20.85779381
H       -5.45279741      54.19703293      23.12848473
H       -2.73025537       0.58291006      19.30035400
C        3.77986884      34.96335983      25.24821281
C        8.13244820      35.94843292      27.86773491
C        4.94886541      34.19473267      25.60136414
C        7.13889503      36.94015503      27.22476959
C        5.99912214      34.87223053      26.26255417
C        5.87921143      36.17822647      26.68883324
C        7.17135572      34.11488342      26.61089134
C        4.64696741      36.78869247      26.68155670
C        3.59659839      36.20215988      25.93259239
C        8.07498550      34.60527802      27.53309059
H        3.00857639      34.64887619      24.54691124
H       27.58656120      36.37326431       0.11938242
H        4.84696054      33.11320496      25.40262413
H        6.83270454      37.70706940      28.03263283
H        7.21724558      33.12575912      26.07772827
H        4.57663965      37.71934891      27.26461983
H        2.62891030      36.63392258      26.00222969
H        8.78606892      34.02687836      28.08473587
C       20.10360146      43.94868851       4.95739365
C       15.64836025      43.89963531       2.73918414
C       19.18139267      44.96955490       4.62528086
C       16.59096146      42.93704987       2.96769309
C       18.01821518      44.68753815       3.96694088
C       17.79516983      43.33974457       3.64396024
C       17.04557610      45.72946930       3.59066534
C       18.78355980      42.29550552       3.86870098
C       19.96690369      42.60147858       4.57656527
C       15.90366650      45.29108429       3.01391530
H       21.03252411      44.22900772       5.51484585
H       14.74340630      43.68888474       2.25165820
H       19.24173737      45.97293091       4.89588881
H       16.47565079      41.98176956       2.63669229
H       17.25761223      46.76217270       3.87101030
H       18.57942390      41.30209351       3.51411772
H       20.69603920      41.91569519       4.54027700
H       15.17819977      46.02091980       2.90719223
C       -2.41253185      52.72181320      24.36629677
C       -4.33766222      48.20073700      23.28141975
C       -2.27471542      51.89350128      23.31264114
C       -4.48935175      49.06039810      24.31382561
C       -2.93757010      50.64244843      23.39391518
C       -3.81239057      50.33444595      24.41896439
C       -2.82171917      49.75821304      22.29668045
C       -4.05133247      51.31814194      25.38313293
C       -3.34106183      52.45570755      25.34824753
C       -3.47907615      48.56575775      22.26259422
H       -1.96449029      53.76884842      24.41042900
H       -4.97809315      47.26969528      23.36154747
H       -1.55779362      52.20691299      22.52440071
H       -5.31443739      48.87052536      25.04881859
H       -2.22307372      50.03583527      21.46886635
H       -4.76910067      51.11466217      26.13677979
H       -3.67377400      53.21675873      26.06106567
H       -3.35549688      47.92163086      21.35558128
C       -9.90465736      40.92733383      19.77460289
C       -8.79441929      43.92131042      15.81831360
C       -9.33430672      42.18434143      19.66441345
C       -9.10241604      42.60847092      15.93723011
C       -9.04195404      42.73802948      18.35137558
C       -9.26066971      41.94479370      17.21818352
C       -8.66566467      44.06726074      18.25774193
C       -9.86122608      40.68174744      17.37365532
C      -10.14517403      40.13134384      18.59847641
C       -8.54447842      44.60685730      16.98929024
H       -9.84633923      40.32376480      20.63298035
H       -8.83393669      44.42206192      14.88234806
H       -9.12434578      42.84422302      20.56336784
H       -9.16842556      41.95746613      15.11751747
H       -8.64819813      44.66902924      19.09827614
H      -10.33382702      40.21890259      16.40523148
H      -10.56284809      39.10381699      18.81012344
H       -8.25275135      45.68980408      16.99748421
C       17.63670731      34.23351288      23.84892464
C       15.77875042      29.63353729      23.71772003
C       16.49635506      33.68603516      23.39565277
C       16.93447113      30.19214249      24.19904137
C       16.20595360      32.33847809      23.51383018
C       17.17412567      31.58068275      24.14998817
C       15.06489849      31.70870781      22.99905205
C       18.41253090      32.11864090      24.71430969
C       18.64921761      33.43813324      24.47124481
C       14.82476997      30.37566757      23.04506302
H       17.70000458      35.31933212      23.68557358
H       15.61355400      28.58568573      23.80632019
H       15.65109253      34.34122849      23.11364365
H       17.76715851      29.65319061      24.59947968
H       14.40122223      32.32916641      22.42693329
H       19.16156960      31.42588615      25.09333420
H       19.56250763      33.86697769      24.88225937
H       13.96754837      29.85030937      22.64855576
C        3.50331593      30.03756332      16.79253006
C        6.36981392      28.36237717      13.06793594
C        3.53254938      30.31323814      15.46671867
C        6.23957825      28.11313248      14.43381596
C        4.50633335      29.69482422      14.65671825
C        5.32276440      28.77093506      15.27550507
C        4.68198442      30.05680084      13.31536865
C        5.27502251      28.46463776      16.65291405
C        4.36913538      29.12283516      17.43721962
C        5.63691092      29.47695541      12.53741646
H        2.75871873      30.56336021      17.32872391
H        6.99805832      27.77424812      12.41697884
H        2.72096300      30.95815659      15.11131954
H        6.82619429      27.25267410      14.81610203
H        3.98094654      30.82339859      12.97503662
H        6.02424383      27.73169518      17.12545013
H        4.41387367      28.93651772      18.52751732
H        5.88560009      29.73791695      11.51604939
C       23.14319038      55.24879074       7.37486076
C       22.08992577      58.21825409      11.36567020
C       23.41174507      55.20396805       8.68291664
C       21.84946442      58.28675079      10.01264477
C       22.81972885      56.06614685       9.64624023
C       22.24379158      57.25778580       9.13192081
C       23.02834320      55.94717789      11.02288628
C       21.89094353      57.28520584       7.72182274
C       22.39482880      56.39318848       6.82429409
C       22.64802933      56.97303391      11.85394669
H       23.65047264      54.54377365       6.72174358
H       21.81488991       0.12745884      11.97588825
H       23.89275169      54.35336304       9.13746834
H       21.25893593       0.12267511       9.50170517
H       23.45075607      55.00626755      11.38200092
H       21.22834778      58.10462570       7.42482853
H       22.08561134      56.43349457       5.81858349
H       22.89082909      56.91709518      12.90652561
C       27.78834724      35.58292007       4.15908289
C       23.28454208      36.06983185       1.82218337
C       26.66971970      36.38076019       4.40406704
C       24.47448349      35.46980286       1.47512960
C       25.54313087      36.38136291       3.47104025
C       25.60181046      35.51020050       2.35560226
C       24.27098656      36.86567688       3.90612340
C       26.67741394      34.59196091       2.27568126
C       27.75391388      34.69053650       3.06937742
C       23.12950325      36.63426971       3.14532971
H       28.59232903      35.57653427       4.84705353
H       22.45695686      35.89556885       1.16017675
H       26.58291245      37.00087738       5.26853657
H       24.55118752      34.83058929       0.53996861
H       24.11684608      37.33388138       4.87231541
H       26.61767769      33.80462265       1.57394814
H       28.57592011      33.95030975       3.13267612
H       22.18463707      37.01854706       3.47747111
C      -10.48157215      52.26669312      21.09595108
C       -6.48078060      51.42332077      18.35766983
C       -9.23491287      51.90434647      21.39547348
C       -7.74811268      51.71537399      18.03042412
C       -8.33960342      51.61210632      20.34241295
C       -8.74614048      51.85613251      18.99278831
C       -6.95777941      51.39813614      20.65574074
C      -10.06791401      52.24074936      18.69577789
C      -10.85261536      52.41689682      19.76142311
C       -6.02591419      51.30902100      19.69150543
H      -11.15618610      52.43957520      21.95537376
H       -5.83532000      51.10164261      17.57144737
H       -8.87986088      51.94353867      22.39818954
H       -8.08440304      51.69327164      16.99457550
H       -6.71977568      51.37009811      21.74511719
H      -10.26717758      52.57823563      17.66463089
H      -11.88364124      52.74861908      19.63588524
H       -4.97231054      51.15084457      19.89318848
C       21.48030281      35.31113052      16.94941139
C       17.47657013      37.96100616      18.42961502
C       20.73243523      35.19606018      18.07952309
C       18.38171387      38.02400970      17.47695541
C       19.63571930      36.10203552      18.25049400
C       19.49722862      37.14708328      17.34464073
C       18.72957230      36.11032104      19.33975029
C       20.33701324      37.23208618      16.14614105
C       21.27161026      36.31282425      15.98376560
C       17.62113571      36.91398621      19.44691658
H       22.40699959      34.69164658      16.97005272
H       16.62807083      38.56752777      18.53279495
H       20.92411232      34.49091339      18.88912201
H       18.36503029      38.72686386      16.69222641
H       18.79279709      35.33620071      20.07937241
H       20.28418922      38.05215454      15.38119984
H       22.05298614      36.44808960      15.27793312
H       16.77126503      36.86532974      20.19731712
C       10.15658760      55.53508377      20.45040131
C        5.77119541      54.48424530      22.62185860
C        9.83742428      55.33378220      21.75688171
C        6.08837032      54.88620758      21.36083031
C        8.46121311      54.98178864      22.04513359
C        7.51089239      55.00916672      21.03954697
C        8.09579849      54.59416199      23.41301727
C        7.95736408      55.19654465      19.67111588
C        9.21318722      55.52385712      19.41770172
C        6.72417688      54.51072311      23.67436028
H       11.16659832      55.85266495      20.30310059
H        4.74957180      54.36226273      22.90821838
H       10.63113785      55.16780472      22.50561523
H        5.34694576      54.77824783      20.59704018
H        8.86711216      54.52954864      24.19216728
H        7.33245516      54.93525314      18.87304497
H        9.47914696      55.76150894      18.44115829
H        6.29038191      54.23290634      24.63810158
C       20.43124771      43.47312546      12.00672722
C       17.23434639      46.65446854       9.82621384
C       19.76606941      44.58575821      12.46248055
C       18.16041756      45.79141235       9.29458809
C       18.92620277      45.35280991      11.60960388
C       18.95945930      45.04367828      10.23011589
C       18.09353447      46.33638763      12.01526260
C       19.64295006      43.91646576       9.85735130
C       20.37624550      43.07817459      10.66786480
C       17.22128677      46.91340256      11.20866585
H       21.20285034      42.88543701      12.50949574
H       16.70512390      47.20954895       9.08511257
H       19.88047600      44.99568176      13.46797657
H       18.19113350      45.53653717       8.25604630
H       18.19365120      46.61650467      13.02657795
H       19.45533371      43.71196365       8.79701900
H       20.79755974      42.13143921      10.30417156
H       16.43246841      47.63767242      11.47690678
C       26.40408516      57.40789032       4.55095053
C       25.92541695      56.90054321       9.56112099
C       25.38858032      57.80930328       5.49075699
C       26.52036667      56.10593414       8.57892036
C       25.42457771      57.54860687       6.87966585
C       26.33917236      56.52915192       7.21809149
C       24.88196373      58.26599884       7.98260784
C       27.12378311      55.83405304       6.24964952
C       27.23011971      56.31172943       4.94462013
C       25.05977249      57.92301941       9.27180481
H       26.44173241      57.84862137       3.55302978
H       26.33466721      56.63197327      10.53581429
H       24.56311226      58.47796249       5.30101633
H       27.38455200      55.46583939       8.72491837
H       24.17331886       0.10606944       7.73873997
H       27.50866890      54.98115921       6.70631409
H       27.98940659      55.79642105       4.40884447
H       24.60977364      58.36088562      10.14011669
C       15.06972599      35.05583572       3.11565948
C       19.29169846      37.80876541       3.65731192
C       16.32411957      34.84561539       3.54865742
C       17.98580170      38.08851624       3.19261098
C       17.35132599      35.81785584       3.58897018
C       16.95513153      37.10853195       3.09572864
C       18.57929993      35.56266403       4.15856409
C       15.65487385      37.32273102       2.49223590
C       14.76005268      36.28972244       2.57236195
C       19.62755966      36.46726227       4.04993010
H       14.30468464      34.34603500       3.02304864
H       20.10139084      38.50708008       3.66801667
H       16.54530144      33.86645126       4.05312634
H       17.86993027      39.14390564       3.01464653
H       18.74763489      34.64809036       4.68204165
H       15.51657581      38.24068069       1.90349340
H       13.80868721      36.37812042       2.15650177
H       20.65346146      36.24554062       4.37573099
C       19.30068779      55.47106552       9.50848866
C       22.78626251      51.97359848      10.37643051
C       19.78125000      54.84798050      10.60223293
C       21.94705200      52.21485519       9.28911114
C       20.63060379      53.74990845      10.65235233
C       21.04768181      53.22101974       9.41343212
C       21.36474800      53.30620575      11.73926735
C       20.46245575      53.76173401       8.18849278
C       19.66845131      54.85708618       8.25924492
C       22.41656685      52.47473907      11.61267567
H       18.70280457      56.31753922       9.72034550
H       23.60350800      51.24713135      10.30175972
H       19.47200775      55.10727692      11.62738800
H       22.13175774      51.77710342       8.36015987
H       21.06405258      53.73657608      12.70810127
H       20.78670311      53.39738083       7.15131950
H       19.45748711      55.40845489       7.38579321
H       23.03252029      52.30142975      12.47737598
C       26.36887169      45.06205368       3.15683079
C       21.48727989      45.90354538       2.20948791
C       25.57980347      46.13468170       2.76885509
C       22.14391136      44.74362183       2.48368144
C       24.22369576      46.06208420       2.47741580
C       23.59561157      44.75136566       2.62752891
C       23.53220177      47.19393921       2.21107817
C       24.47171783      43.63678741       2.89109540
C       25.80618095      43.75716782       3.04609704
C       22.17499542      47.15391922       2.11193418
H       27.40002060      45.22121429       3.44910336
H       20.41657639      45.83592606       1.94490063
H       26.01702690      47.12105942       2.66272140
H       21.70058250      43.69364929       2.36247778
H       24.02851105      48.13857651       2.20225883
H       23.98721504      42.64525604       2.87345624
H       26.38591385      42.85768127       3.31044817
H       21.57885361      48.05740356       1.96585679
C       -2.41307569      47.00023651      17.03515434
C        1.23099840      49.81404877      19.20742416
C       -1.46124125      47.82942200      16.57505226
C        0.21365006      48.93561172      19.66279984
C       -0.40937707      48.33186722      17.39263916
C       -0.58461118      48.15626907      18.88245201
C        0.65582597      49.20258331      16.97746277
C       -1.69596195      47.36639404      19.31302643
C       -2.47564292      46.71586609      18.40208054
C        1.42980969      49.91777420      17.84404182
H       -3.15674186      46.64150620      16.31082726
H        1.76486778      50.29805756      19.97535706
H       -1.29346752      47.94068146      15.50556755
H        0.05909039      48.86840057      20.75422668
H        0.75694758      49.36426926      15.93023872
H       -1.81540668      47.15156174      20.36019516
H       -3.35949373      46.24302673      18.80100060
H        2.18899178      50.56357956      17.37507439
C       32.03068161      51.08773422       5.08514690
C       28.73587227      47.62031174       3.85354424
C       32.21028137      49.77719498       4.72742748
C       28.66113472      48.95221329       4.45130730
C       31.07252884      48.93237305       4.59185028
C       29.79004669      49.62975693       4.73365688
C       31.08317184      47.66222382       3.99429941
C       29.58361816      50.89160919       5.26020956
C       30.75485420      51.60014725       5.45798397
C       29.96071243      47.01124573       3.58134127
H       32.94466782      51.71050644       5.08800793
H       27.83675194      47.09769821       3.57399416
H       33.21573639      49.46020508       4.30695152
H       27.69815826      49.47762680       4.65623283
H       32.08000946      47.22633362       3.81391740
H       28.58520889      51.33705521       5.43655348
H       30.65717506      52.57941437       5.87247992
H       30.00705147      46.05282211       3.05821729
C       21.61342812      47.07745743      13.62700462
C       17.98534966      47.67422867      17.09317017
C       20.48436546      47.78099060      13.60246754
C       19.14016914      46.90910721      16.92160416
C       19.53737640      47.68577957      14.67731571
C       19.87367058      46.78362656      15.80175972
C       18.36946869      48.45659256      14.76280022
C       21.15334892      46.09707260      15.76433563
C       21.96126938      46.20066071      14.65603638
C       17.65434265      48.50294876      15.97312832
H       22.06711769      46.86838150      12.70515251
H       17.48589134      47.80291748      18.00228119
H       20.18439865      48.41909409      12.74849129
H       19.54427147      46.40602875      17.78040504
H       18.14850044      49.08381653      13.91076374
H       21.42642403      45.51122665      16.67943573
H       22.84653282      45.52840042      14.40010738
H       16.87551308      49.26140594      16.09673882
C        9.35124397      42.09692001       1.90529811
C       11.96527958      46.24255371       0.83165252
C       10.51538754      42.60464859       2.23838472
C       10.68317318      45.87224960       0.48346791
C       11.02721691      43.84412766       1.74018896
C       10.16784191      44.61760330       0.99252355
C       12.34038830      44.25225449       2.03114605
C        8.93981647      44.12880707       0.60633790
C        8.53683567      42.83360672       1.04235160
C       12.80648518      45.43567657       1.63774657
H        8.96044445      41.19565201       2.29118609
H       12.19774437      47.27037048       0.49053344
H       11.35322094      42.06358719       2.72957325
H       -8.59364128      46.62080383      28.41622925
H       12.90228558      43.70492554       2.73776770
H      -10.44456196      44.55332184      28.29706001
H        7.56130886      42.38356781       0.62268370
H       13.82061386      45.66109467       1.78078592
C       18.49176407      50.67062378      11.15682888
C       18.39051247      50.28900146       5.97966623
C       18.73328590      49.70972824      10.22059345
C       18.36698532      51.31043243       6.93703890
C       18.68513298      49.83379364       8.76512051
C       18.44813347      51.13305664       8.33759975
C       18.88959312      48.78832626       7.80944395
C       18.15037155      52.18966293       9.23038864
C       18.28312683      51.98012543      10.61592579
C       18.77758026      49.01294708       6.44624472
H       18.48501968      50.34349060      12.18297768
H       18.41610909      50.52616882       4.86615562
H       19.03723907      48.79342270      10.58803558
H       18.13866615      52.38063812       6.65698528
H       19.33266067      47.87759781       8.17872906
H       17.97330666      53.20716095       8.93466473
H       18.10098267      52.82996368      11.28613281
H       18.98869705      48.21138382       5.82183027
C       35.61139297      40.18135452       6.11802340
C       35.98807144      39.37396240       1.15731597
C       -3.34697342      40.54493332       5.09159756
C       35.19541550      38.77145386       2.11537981
C       36.34236908      40.02693176       3.78384829
C       35.37151337      39.06711197       3.49253106
C       37.20170975      40.50933838       2.81054974
C       34.54274750      38.58134460       4.49947071
C       34.71734619      39.12201309       5.74206686
C       37.04589081      40.22296143       1.42630041
H       -4.25352669      40.69740677       7.01610088
H       35.83477402      39.09717560       0.08501998
H       -2.57170105      41.34851456       5.22874212
H       34.46641922      38.01070404       1.79077208
H       -1.79963541      41.14931107       3.09656739
H       33.72751236      37.93882751       4.36232281
H       34.02848053      38.74605560       6.50484085
H       37.76224136      40.65938950       0.75111789
C       11.29081917      38.02393723       1.14854944
C       -6.28176165      42.65196609      27.94417763
C       12.35961914      38.85870361       1.27121019
C       -7.38762856      41.89083481      27.84090424
C       12.36749458      40.14413834       0.63845682
C       -7.57570410      40.59327698      28.46348190
C       13.53347874      40.91191483       0.66349500
C       -8.66143322      39.65605927      28.52395821
C       10.11839485      38.39732361       0.48551118
C       13.62829590      42.12922668       0.03532799
H       11.53779125      37.02978516       1.52039218
H       -6.41174221      43.68686295      27.62064934
H       13.33410931      38.48697662       1.64447677
H       -8.14376354      42.32718277      27.16414452
H       14.39527702      40.62506104       1.27166808
H       -9.56559372      40.11809540      28.09172249
H        9.23310661      37.82912827       0.42350647
H       -4.27848625      42.71522522      28.32008553
C        3.98343325      40.47652817       6.50261307
C        3.45337725      38.46115494       1.80887103
C        4.81634045      39.52488709       5.77280474
C        3.39509869      39.78677750       2.23217750
C        4.29816675      39.19240189       4.39789963
C        3.74107194      40.16311264       3.55572748
C        4.25052738      37.89746475       3.97437048
C        3.96630740      41.55265045       4.00122118
C        4.07550716      41.73978424       5.61322546
C        3.90220904      37.53701401       2.68800545
H        4.48975563      40.75659561       7.45450687
H        3.14587808      38.25213623       0.77966422
H        4.73348379      38.68308640       6.42916584
H        2.95107555      40.55714798       1.59420049
H        4.39957142      37.09709167       4.66606617
H        3.37211347      42.23618698       3.52782607
H        3.38358545      42.54168320       5.98130655
H        4.14183950      36.61271667       2.26330066
C       25.33058548      33.78195190       5.99927855
C       23.98151398      34.87551880      10.58743477
C       25.44127083      34.90515518       6.76610374
C       24.15452576      33.66604233       9.93246841
C       24.87614822      34.95720673       8.00208092
C       24.56733704      33.73306274       8.57760239
C       24.76983070      36.13768005       8.69444370
C       24.68269539      32.45943832       7.83993292
C       24.98424912      32.53337479       6.54134178
C       24.19043350      36.09734344       9.90071106
H       25.67487144      33.87602615       4.91572189
H       23.41547775      34.81115341      11.50463390
H       25.79560852      35.79921341       6.25453949
H       24.14514351      32.72473526      10.43471813
H       25.07868004      37.08929825       8.34460258
H       24.37345505      31.56602859       8.26068115
H       24.82784653      31.69145966       5.81279182
H       23.86379623      36.95842361      10.49512482
