7200
Lattice="39.763004303 0.0 0.0 0.0 58.9316482544 0.0 -18.8008785248 0.0 28.526468277" Properties=species:S:1:pos:R:3 step=0 time_fs=0.0 pbc="T T T"
C       32.04525757      24.30305099       3.05662060
C       32.89253235      26.70367432       5.60494900
C       36.23592758       1.26493585       4.98016977
C       36.01609802      26.95094681       3.23142886
C       32.75124359      25.17334938       2.27816010
C       32.09240723      27.61570358       6.22895241
C       35.40429306       0.51898575       5.75563335
C       36.51139832      25.99323845       2.38681912
C       33.09354401      24.84938622       0.94569498
C       31.60616875      27.39020157       7.53323030
C       35.05523300       0.95153481       7.07174778
C       37.13382721      26.35384178       1.16893697
C       28.93489838      25.47277451       7.29046583
C       36.75298691      28.70257568       1.74832344
C       38.85031128       0.30937010       0.78153133
C       32.75359344      25.24257660       7.51117134
C       -1.26386905       0.72195101       2.03434205
C       33.24311829      25.50224876       6.25609493
C       29.32804298      25.12480164       6.03237581
C       36.12150192      28.31821060       2.90030193
H       31.77980614      24.56758118       4.06170607
H       33.25507736      26.92975616       4.60705471
H       36.48121643       0.92912328       3.98942542
H       35.52566528      26.68935013       4.14791441
H       33.06539154      26.14698410       2.65772152
H       31.82081223      28.54093361       5.72238779
H       35.00036240      58.49340439       5.42514229
H       36.42604446      24.94615364       2.62700272
H       29.16050720      26.44524765       7.69998217
H       36.81544113      29.75762558       1.50302374
H       38.42812347      58.34660339       0.34917492
H       33.01450348      24.30999374       8.01064968
H       37.78668213       0.13300626       2.62044120
H       33.88606262      24.77704620       5.77760410
H       29.89075661      25.82061577       5.42016506
H       35.71382523      29.07746124       3.55317760
C       27.25543022      23.93635941      10.23184967
C       27.92595100      27.45761299      12.52767658
C       -7.62479544       1.74203730      12.19882488
C       30.60848618      26.85033607      10.08736420
C       27.89740753      24.86031342       9.45443249
C       27.24309349      28.35238647      13.29570293
C       -8.26379204       0.91429979      13.06182003
C       31.38338661      25.91942978       9.45984173
C       28.25633621      24.54750061       8.12271500
C       27.04043579      28.12341690      14.68798351
C       -8.56606770       1.34919119      14.37649727
C       31.92181778      26.16439438       8.18151474
C       24.57741928      25.54483032      14.71710968
C       30.81400681      28.34085846       8.21289825
C       34.19726181       0.20329000       7.91164970
C       28.26212311      26.02303505      14.43920422
C       -5.89974594       0.65256214       9.16001701
C       28.43953896      26.27493858      13.11283493
C       24.96338081      25.19431496      13.45555401
C       30.31410217      28.07754135       9.46118832
H       27.00904083      24.20104980      11.25930023
H       28.08072662      27.64578247      11.46824074
H       32.36404800       1.38963199      11.18594551
H       30.23177719      26.66429710      11.10846901
H       28.13971901      25.82857895       9.84680557
H       26.83773232      29.27548409      12.84593105
H       31.22012711      58.83404922      12.77742290
H       31.64285851      24.99811745       9.95879364
H       24.87562180      26.49223518      15.11921406
H       30.60507202      29.29534721       7.72803640
H       33.83881378      58.18268585       7.56998682
H       28.64383507      25.10349274      14.90080643
H       33.22111130       0.04511883       9.79768658
H       28.97088051      25.52770996      12.49564648
H       25.56471062      25.86432266      12.87705994
H       29.69413376      28.81769943       9.96460056
C       22.63918495      24.12370873      17.55837631
C       23.85432243      27.31346893      19.95709038
C      -12.48010540       1.45180678      19.53560257
C       26.64952278      27.59146118      17.41300964
C       23.41595459      24.98257828      16.83285904
C       23.16765404      28.16546631      20.77205086
C      -13.04121113       0.52589184      20.37008476
C       27.35842133      26.70505142      16.63866234
C       23.79465294      24.65834236      15.50705528
C       22.64438248      27.71393776      22.00624275
C      -13.24008751       0.80439478      21.73768044
C       27.56881905      26.94959450      15.26379013
C       19.78693390      25.63672638      21.62005615
C       26.29172707      29.01425743      15.49540806
C       -9.21158981       0.50400132      15.30456352
C       23.61865616      25.52428055      21.54689217
C       -9.57687950       0.96877265      16.53741646
C       24.06625366      25.97050095      20.33744431
C       20.12398529      25.24326324      20.35128212
C       26.10026169      28.75416374      16.81727409
H       22.34010696      24.40698242      18.57129860
H       24.23494530      27.66714096      18.99579620
H       27.45898819       1.21089494      18.50173187
H       26.50288010      27.38672447      18.45705414
H       23.74469185      25.93791962      17.25226593
H       23.00864220      29.19060898      20.46664619
H       26.43999290      58.47767639      19.98073006
H       27.77224350      25.80267334      17.07565498
H       20.10091400      26.61572838      22.01034927
H       25.87205505      29.88535881      15.05815125
H       -9.41277885      58.42303848      15.00279713
H       23.79907799      24.52907181      21.86406326
H      -10.05904198       0.30192983      17.24847603
H       24.58887863      25.29003334      19.67579079
H       20.70960617      25.89275360      19.73104858
H       25.52218056      29.45044518      17.41760254
C       17.91491127      24.32318497      24.55434227
C       19.50758171      27.12974167      27.27521515
C      -17.43097496       1.33096051      26.55952835
C       21.76839638      26.80843544      24.50668144
C       18.65621948      25.16224670      23.77610588
C       19.08844376      28.08541679      28.15017700
C       21.41127968       0.61637139      27.26934433
C       22.47640800      25.97084045      23.69817924
C       19.03173065      24.77764320      22.46040153
C       37.27142334      27.73889923       0.84725988
C        0.04895379       1.03604591       0.03352648
C       22.91558647      26.38817978      22.42137527
C       33.82913971      25.73349380       0.12570012
C       21.86040306      28.54607391      22.83690453
C      -13.69878387      58.76166916      22.65428162
C       37.62501907      25.38838577       0.25886804
C      -13.85261440       0.12737617      23.97694016
C       19.37831497      25.76354980      27.59305573
C       15.35360050      25.39113617      27.36773109
C       21.43499756      28.11176109      24.05689430
H       17.62241554      24.62762642      25.53893089
H       19.94953918      27.44558144      26.34750175
H       22.62820435       0.99286765      25.58597755
H       21.46358490      26.47576332      25.48108101
H       18.95282173      26.12160873      24.13571930
H       19.22945976      29.14496422      27.92825890
H       20.95310020      58.64656830      26.86081123
H       22.70088577      24.96467972      24.02427292
H       34.15253067      26.69518280       0.52715123
H       21.61946869      29.54656792      22.51575088
H      -13.92710114      57.75621796      22.29237938
H       37.55377579      24.35461235       0.53394818
H      -14.16855431      58.28483200      24.68811798
H       19.74479866      25.00707245      26.92475510
H       15.92666340      26.07428360      26.73579597
H       20.86125183      28.78436852      24.69226837
C       32.05237579       2.04418373       3.36732721
C       32.63152313       5.14855146       5.54377890
C       -2.85002446       7.27249861       5.45028067
C       35.82396698       4.68878269       2.94649410
C       32.81687927       2.88018274       2.59957719
C       31.89894295       5.94771767       6.37039423
C       -3.67076755       6.46188831       6.18222094
C       36.44584656       3.83479095       2.08827186
C       32.82892990       2.73256302       1.18763363
C       31.55646896       5.51190376       7.67685223
C       -4.03136635       6.79565573       7.50691700
C       36.75243759       4.23229504       0.76253259
C       29.21427536       3.38607621       6.36362553
C       35.72813034       6.38269615       1.24636209
C       -0.13172174       5.93477488       1.11948442
C       32.62017441       3.38730049       7.18319702
C       -0.48500282       6.24928617       2.39898300
C       33.03020859       3.86111760       5.97104025
C       29.28401375       2.79499555       5.13652945
C       35.45100403       5.98503208       2.52428293
H       32.07104111       2.12083507       4.44308901
H       32.91502762       5.49515629       4.55591393
H       -2.53938079       6.96568680       4.44741821
H       35.60148621       4.35463762       3.96461749
H       33.43615341       3.60832095       3.05237842
H       31.58001518       6.92558336       6.06149483
H       35.71067429       5.50679874       5.75807047
H       36.68525696       2.82441330       2.40102625
H       29.58119965       4.36085796       6.51320553
H       35.42309189       7.35258436       0.89134955
H       39.26919556       5.02242470       0.65848565
H       32.87442017       2.36783361       7.49042511
H       -1.11505830       5.59621477       2.94366026
H       33.63935471       3.22988582       5.32835770
H       29.72469521       3.30284858       4.30207062
H       34.92722702       6.66839647       3.20931697
C       27.77950096       2.66128278       9.71691036
C       27.95953751       4.76619053      12.51515007
C       -7.75502777       7.63008785      12.52524471
C       30.91794205       4.62149525      10.24591160
C       28.40679359       3.31751633       8.70134068
C       27.18867493       5.57686472      13.29972172
C       -8.57682133       6.78467417      13.21770191
C       31.57131004       3.78807998       9.38757420
C       28.63598633       2.69003344       7.45709991
C       26.93528938       5.22583437      14.65687466
C       -8.90409088       7.05604601      14.57131672
C       31.90954208       4.21232176       8.08465767
C       24.45608521       2.96737170      14.40438747
C       30.86037636       6.35464001       8.58066082
C       -4.86634636       5.97098351       8.30157375
C       28.23802185       3.18872333      14.31569386
C       -5.19266319       6.32590342       9.57112026
C       28.48851585       3.56013942      13.03351116
C       24.68617058       2.64056277      13.09823799
C       30.56150246       5.92449951       9.84506416
H       27.52159119       3.14051485      10.63614941
H       28.15329742       5.03895235      11.49083805
H       -7.51735258       7.40232658      11.48813248
H       30.66479301       4.28870821      11.24166679
H       28.70261765       4.34782934       8.82595348
H       26.76586151       6.51536894      12.93331814
H       30.76121902       5.92037249      12.73919392
H       31.82993507       2.78456140       9.71288204
H       24.42277908       4.01158476      14.73429489
H       30.60135841       7.34814310       8.26754951
H       34.52194214       5.06396341       7.85665464
H       28.64211464       2.26817989      14.72744942
H       -5.84250546       5.70074654      10.18117905
H       29.10332108       2.93260360      12.41865921
H       24.85341644       3.41854048      12.34149170
H       30.00662422       6.58915997      10.50656700
C       23.86888504       1.26593542      17.66000938
C       23.64264297       4.58079815      19.96701050
C      -12.26599121       7.35749388      19.71999741
C       26.47958183       4.51722574      17.31895256
C       23.98944855       2.26269436      16.73365021
C       22.86006165       5.43568373      20.68206215
C      -12.99293613       6.48796511      20.47894287
C       27.21960831       3.68393445      16.52080727
C       24.29677582       1.95956934      15.38522625
C       22.44429207       5.10618973      21.99578285
C      -13.31450272       6.78585672      21.82175636
C       27.45754433       4.02373552      15.16987515
C       19.71065903       3.34054875      21.60934448
C       26.18758392       6.07051420      15.50707054
C       -9.72025967       6.17240715      15.32017231
C       23.63014793       2.98891115      21.77674675
C      -10.03349113       6.44881153      16.61873627
C       24.04567337       3.34658980      20.52752304
C       20.17952347       3.02581954      20.36115837
C       25.95235443       5.71702814      16.80604172
H       23.56174660       1.49501169      18.69570923
H       23.96589661       4.83943939      18.95550919
H      -12.03280735       7.10046864      18.69257164
H       26.29890442       4.22895098      18.35077667
H       23.84030151       3.30114746      17.01718712
H       22.56016159       6.39621639      20.25621986
H       26.42904091       5.54330015      20.05491447
H       27.62011528       2.75446939      16.91828537
H       19.86437988       4.33371496      22.03938866
H       25.80516624       6.98274803      15.11742210
H       29.65857506       5.29405117      14.81443214
H       23.92189789       2.03346157      22.20844460
H      -10.67957878       5.76403475      17.18087196
H       24.70441627       2.69500971      19.98093224
H       20.73218536       3.76080632      19.79052925
H       25.37273598       6.37071848      17.45013809
C       17.84014702       1.78415692      24.40437889
C       18.54081917       5.07848310      26.68428040
C      -16.92814255       7.33391190      26.84529304
C       21.58997345       4.38439083      24.56252289
C       18.50653839       2.71410108      23.66016388
C       17.88963318       5.91913843      27.54245567
C      -17.72884369       6.49894619      27.55046844
C       22.36707115       3.51831675      23.83398247
C       19.01449776       2.39057875      22.38260269
C       36.38933945       5.52440071       0.33907342
C        0.68950969       6.79903841       0.35136229
C       22.81326866       3.85934091      22.54361725
C       33.71186829       3.47589421       0.35921323
C       21.66581726       6.00610733      22.78145218
C      -14.07969856       5.90665150      22.62920380
C       18.57748985       3.35530353      28.36787605
C      -14.41103840       6.24179316      23.91339874
C       18.87749672       3.77648926      27.10037613
C       15.05429268       3.16830349      27.56389809
C       21.24928093       5.64979410      24.02870750
H       17.42948341       2.02491069      25.39059448
H       18.74929810       5.41250277      25.68091202
H      -16.61163902       7.06967449      25.84200096
H       21.25441170       4.08964777      25.54043579
H       18.64079475       3.70982146      24.04731560
H       17.58127975       6.92189455      27.23730469
H       21.67336273       5.57071638      27.12471771
H       22.65604401       2.54021144      24.22253609
H       34.25799179       4.29217482       0.80419523
H       21.39995003       6.95987463      22.36347771
H      -14.41825008       4.97003412      22.20468330
H       37.62461090       2.34576082       0.14336333
H      -15.01704121       5.57999754      24.50618362
H       19.37497711       3.09889936      26.41398430
H       15.75354099       3.71964002      26.94334221
H       20.60530663       6.33925343      24.61938286
C       31.60743904       7.29987907       2.90643311
C       32.80206299      10.30994129       5.40971565
C       -2.94837403      12.76364231       5.45245361
C       35.81111145      10.14855194       3.10891366
C       32.41526794       8.15826225       2.21691751
C       32.03157806      11.16470242       6.14944601
C       -3.68024468      11.92176628       6.24554491
C       36.62310028       9.33014679       2.37698007
C       32.76834106       7.88041687       0.87264895
C       31.72699547      10.87386990       7.49698639
C       -3.99641371      12.27274132       7.58399200
C       36.94412994       9.63319969       1.03239036
C       28.97871780       8.96420097       7.15055943
C       35.60076141      11.65586281       1.23259497
C       -0.04115823      11.44791698       1.25724196
C       33.00203323       8.81752968       7.28660965
C       -0.38614154      11.81304359       2.52701068
C       33.29189682       9.12249851       5.98000860
C       29.28480911       8.59373093       5.86917973
C       35.28403473      11.32461262       2.52780414
H       31.36385536       7.52827120       3.90402222
H       33.03939438      10.53085423       4.37351847
H       -2.70469737      12.46610832       4.43305635
H       35.58193588       9.88701725       4.12251234
H       32.79325485       9.08997154       2.68085647
H       31.63989067      12.06964207       5.73824596
H       35.74029160      10.94575310       5.86291695
H       37.03482056       8.43840504       2.81603289
H       29.33251762       9.88760090       7.55412626
H       35.22351074      12.56695938       0.80390054
H       -0.33976433      10.49269104       0.89519483
H       33.37218857       7.91764784       7.73727703
H       -0.96969432      11.14645672       3.15743995
H       33.90187073       8.45277500       5.39973211
H       29.90211868       9.22936630       5.25115108
H       34.63516617      11.98866653       3.11392570
C       27.12508392       7.65043736      10.09178162
C       28.04797935      10.44992542      12.57839298
C       -7.70522881      12.87346840      12.59586716
C       31.13526917      10.24359131      10.16718674
C       27.88402748       8.47664547       9.31285000
C       27.27372932      11.26819801      13.35734463
C       -8.46539593      12.03053474      13.35049152
C       31.91591644       9.39615536       9.42731571
C       28.18395042       8.12813377       7.97261667
C       26.90813637      10.89390373      14.67500877
C       -8.79336357      12.35292912      14.69335270
C       32.22241211       9.68212318       8.07036972
C       24.12290573       8.77629948      14.40590572
C       30.93757057      11.74637699       8.29590130
C       -4.74624729      11.41993713       8.41380882
C       28.07050514       8.77787590      14.32019997
C       -5.07128954      11.78783894       9.69019890
C       28.44703102       9.18698692      13.07534695
C       24.44046974       8.45525551      13.12065411
C       30.63710785      11.42838287       9.58516788
H       26.91675949       7.95317078      11.13475800
H       28.34510612      10.75898170      11.58246613
H       -7.42739916      12.60196686      11.58421421
H       30.88343048       9.97885132      11.18724537
H       28.26460648       9.41219807       9.69315529
H       26.96548462      12.24702835      12.97610664
H       30.95002556      11.09491062      12.96334839
H       32.31357574       8.47422695       9.82383633
H       24.41747665       9.73186970      14.80656338
H       30.56568527      12.65829182       7.86819887
H       -5.07726336      10.47154617       8.02230835
H       28.36028671       7.82163095      14.68289471
H       -5.67819881      11.14646721      10.28843784
H       29.06306648       8.55002975      12.43757153
H       24.98057365       9.12846565      12.51091099
H       30.01434326      12.11450863      10.18033218
C       22.45528221       7.27458811      17.37107468
C       23.54399681      10.17688370      19.72977257
C      -12.26342869      12.85699654      19.75992966
C       26.24494553      10.10962582      17.28761482
C       23.10748482       8.17936707      16.58250809
C       22.79445648      11.03984928      20.48624802
C      -13.00107956      11.99106503      20.52662277
C       26.97409058       9.26257324      16.49016953
C       23.42967987       7.86998558      15.23421478
C       22.46913338      10.72737694      21.83010101
C      -13.34685612      12.31532574      21.86476326
C       27.31400490       9.62912083      15.16082096
C       19.74516296       8.86979675      21.53495979
C       26.16810036      11.74965000      15.52151299
C       -9.57143593      11.48484230      15.49916077
C       23.67825699       8.63006020      21.57027435
C       -9.88501930      11.82854176      16.78399277
C       23.99373245       8.95629120      20.28437805
C       20.10742378       8.49692249      20.26909447
C       25.83509827      11.36914444      16.79710388
H       22.21441269       7.51650906      18.40688896
H       23.77947235      10.43426132      18.69363594
H      -11.99936295      12.58245659      18.76674652
H       26.01287460       9.80883312      18.30088806
H       23.38320160       9.12925053      16.96599579
H       22.42889595      11.99037075      20.06029129
H       26.44520187      11.03396034      20.12209892
H       27.30675888       8.27431488      16.86317253
H       20.06637383       9.83448315      21.95164871
H       25.87810326      12.71186733      15.13985825
H       29.83066940      10.54730034      15.06626987
H       23.99788857       7.70745039      21.99419594
H      -10.49028778      11.14859295      17.38314056
H       24.56156731       8.28996944      19.70248795
H       20.73636627       9.16146946      19.69413948
H       25.26850510      12.06125545      17.42866135
C       17.73359680       7.57840300      24.37872314
C       18.77935982      10.30951595      26.91456795
C      -16.97992706      12.82366371      26.87533951
C       21.83552170      10.06224537      24.46934319
C       18.54599380       8.38423061      23.64486885
C       17.95968819      11.12111950      27.63533974
C      -17.72134399      11.97514343      27.63472939
C       22.58980942       9.20273209      23.71806908
C       18.94056129       8.02065659      22.33538246
C       36.43040085      10.80971718       0.45359063
C        0.71770304      12.32448959       0.44075844
C       22.91650772       9.51840687      22.37586975
C       33.58722687       8.76789951       0.12380647
C       21.69801521      11.60943985      22.63202095
C      -14.09477234      11.43308449      22.67398834
C       37.77305603       8.78470612       0.24443370
C      -14.45022869      11.77506351      23.94900322
C       19.28677940       9.11606884      27.48690987
C       15.14656544       8.46709347      27.36374855
C       21.38007736      11.28447723      23.92395401
H       17.42502403       7.86781120      25.35704613
H       19.03297806      10.57362747      25.89652443
H      -16.68893433      12.55974197      25.89460182
H       21.59434128       9.81398487      25.50308800
H       18.89332962       9.33895779      24.03290176
H       17.56506538      12.02953625      27.19191933
H       21.72461891      11.02387047      27.25771713
H       22.93775749       8.26753521      24.11502457
H       33.92567444       9.69049168       0.58585024
H       21.36447906      12.53534412      22.20211601
H      -14.38120174      10.47580147      22.25707817
H       38.14049149       7.87678957       0.69951850
H      -15.02514648      11.09815121      24.56126404
H       19.91221237       8.45686626      26.90657997
H       15.77895737       9.13294697      26.78647614
H       20.77776337      11.97945499      24.52050972
C       31.71885109      13.01356697       3.01884961
C       32.87744904      15.71167183       5.40823460
C       -2.91133642      18.14629173       5.49633741
C       35.64046478      15.45333004       2.97990918
C       32.47554016      13.86975574       2.26544619
C       32.08124161      16.52713585       6.15557814
C       -3.71942234      17.31850433       6.22868824
C       36.46316147      14.64387989       2.24912190
C       32.85217667      13.53161621       0.94419575
C       31.73312759      16.19027519       7.48632193
C       -4.05980396      17.63432503       7.55991411
C       36.85142899      15.00225449       0.92641985
C       28.90219116      14.32890320       7.20244169
C       35.57400513      17.05957222       1.17464721
C       -0.12604913      16.95211983       1.14561093
C       33.01108551      14.12554646       7.21502399
C       -0.48649776      17.31804466       2.41115999
C       33.34416580      14.48894215       5.94070673
C       29.23059463      13.98396111       5.92226553
C       35.18512344      16.68041420       2.43887496
H       31.41251946      13.29942894       4.02093983
H       33.15762329      16.00012016       4.40479469
H       -2.64374185      17.86568451       4.47561836
H       35.34344482      15.14710045       3.96748376
H       32.77384186      14.81289577       2.66159916
H       31.71049500      17.46077156       5.77579451
H       35.68523788      16.39654350       5.79520845
H       36.82597733      13.70898724       2.63402367
H       29.25372124      15.26365757       7.63250637
H       35.22397232      17.99017525       0.75570542
H       -0.43855733      16.01066208       0.71885496
H       33.33245087      13.20342255       7.63734961
H       -1.10141563      16.64325905       3.01060939
H       33.97037506      13.84049511       5.33481503
H       29.84010887      14.64538002       5.32963324
H       34.50757599      17.30281639       3.01176476
C       27.00065613      12.94930363      10.08889389
C       28.16151810      15.74629211      12.59247684
C       -7.66221190      18.31196594      12.64427757
C       31.10570526      15.47791481      10.12321472
C       27.77850723      13.78804779       9.34572792
C       27.43189049      16.60860062      13.36383152
C       -8.44290257      17.48357773      13.40336800
C       31.88100624      14.63963127       9.36249924
C       28.11553764      13.46759129       8.00577831
C       27.09930420      16.28663826      14.69658566
C       -8.76838779      17.82219124      14.74102497
C       32.20738602      14.96750450       8.01957417
C       24.28193283      14.40344715      14.37539673
C       30.95993233      17.04650116       8.29847527
C       -4.87347794      16.78149986       8.35066032
C       28.26438713      14.16680241      14.40221596
C       -5.20940733      17.11960220       9.62895489
C       28.57041359      14.50436592      13.12222767
C       24.60628510      14.06186485      13.09484768
C       30.63539886      16.70234680       9.58041573
H       26.75292397      13.22629833      11.08718967
H       28.41556168      16.02319145      11.56717777
H       -7.40888739      18.02833939      11.61938381
H       30.87293243      15.22415829      11.13961029
H       28.15107727      14.71637249       9.76100159
H       27.09940720      17.58541489      12.95377064
H       30.95524788      16.54643440      13.00251579
H       32.25660706      13.72002983       9.77123260
H       24.65353775      15.34021568      14.79700088
H       30.61801910      17.98559380       7.88613558
H       -5.21475124      15.86734104       7.92800236
H       28.57825279      13.21939659      14.80182457
H       -5.83610153      16.46615601      10.21847725
H       29.15500069      13.82451344      12.51169109
H       25.22348213      14.71099186      12.51192379
H       30.03467369      17.38291740      10.17643261
C       22.45148849      13.00447941      17.30535316
C       23.54647446      15.75579166      19.77420998
C      -12.19532967      18.36491394      19.78693771
C       26.47834778      15.59384537      17.34166718
C       23.19536972      13.86052608      16.52874756
C       22.80799103      16.60340309      20.55330086
C      -12.98235321      17.52722359      20.51067734
C       27.20841408      14.72686481      16.57386780
C       23.50613213      13.54317188      15.18847179
C       22.46587753      16.25792122      21.88344765
C      -13.34643173      17.84542084      21.84167862
C       27.52156830      15.04198551      15.23146725
C       19.67555237      14.43129826      21.52408981
C       26.37201500      17.16822052      15.52656651
C       -9.54409218      16.96063614      15.56111622
C       23.63764191      14.14306450      21.55951881
C       -9.87051201      17.32563019      16.83717537
C       23.96072769      14.50752354      20.28343582
C       20.02753830      14.07675934      20.25206947
C       26.05858803      16.83308220      16.81232452
H       22.21744156      13.26028633      18.32022095
H       23.79518318      16.03384781      18.75933075
H      -11.90287781      18.08326721      18.75563812
H       26.24982834      15.31877327      18.34393311
H       23.55065727      14.78253937      16.92922783
H       22.44904137      17.55841637      20.18351746
H       26.42981911      16.57651901      20.08757210
H       27.53760529      13.77973557      16.95811462
H       20.00024223      15.38031387      21.93333054
H       26.06324959      18.12260056      15.12046623
H       -9.88739777      16.01447868      15.15954208
H       23.94425774      13.18061543      21.96366882
H      -10.48726082      16.66606140      17.44259453
H       24.57095909      13.83392906      19.66457176
H       20.64011574      14.76410770      19.66196251
H       25.51461792      17.51014519      17.43353081
C       17.75237465      13.05259895      24.40151024
C       18.80377960      15.76268005      26.87461662
C      -16.94842148      18.28666687      26.81505775
C       21.76750565      15.47918129      24.48790932
C       18.52491760      13.90978336      23.65094948
C       17.99365234      16.58375740      27.60696220
C      -17.75343513      17.45779419      27.55235481
C       22.52328300      14.64614296      23.71289635
C       18.90093040      13.55867195      22.33471680
C       36.40370178      16.22491455       0.39592472
C        0.67106521      17.80727005       0.34545949
C       22.88394737      15.00414848      22.38979530
C       33.61520386      14.40344048       0.14188209
C       21.71279335      17.12185669      22.71427727
C      -14.14813995      16.98245239      22.63216400
C       37.67330933      14.15938854       0.14569628
C      -14.48883343      17.32624054      23.90522003
C       19.25374985      14.53839970      27.40980721
C       15.18019295      14.05677032      27.39880562
C       21.35352325      16.73766518      23.97192574
H       17.47122383      13.33206844      25.42773628
H       19.11280823      16.05291748      25.88039780
H      -16.67047119      17.98040771      25.81321335
H       21.47734261      15.18273067      25.46177673
H       18.86592102      14.86793995      24.03579712
H       17.61931419      17.52366066      27.20558548
H       21.67192841      16.51650047      27.14685059
H       22.84349823      13.68550110      24.09568405
H       33.91744232      15.35857677       0.56336451
H       21.40416336      18.06428146      22.33281136
H      -14.47478008      16.06264496      22.19285774
H       38.00532150      13.23276043       0.56458610
H      -15.11684513      16.66174507      24.49012566
H       19.90070534      13.89270973      26.82774925
H       15.76089859      14.74070835      26.78364754
H       20.76325607      17.42182922      24.58655167
C       31.73071289      18.50777054       2.99861526
C       32.74118423      21.17361641       5.36254072
C       -3.27211332      23.29319382       5.42525196
C       35.61728668      20.96902084       2.92827129
C       32.48090744      19.35265160       2.23537111
C       32.03514099      22.03077888       6.15638876
C       -3.96452069      22.49875450       6.30196095
C       36.42086411      20.14094734       2.19438457
C       32.84716034      19.01835442       0.90334964
C       31.74825287      21.68466568       7.49697876
C       -4.30322504      22.98281288       7.59472799
C       36.85838318      20.50518799       0.90232581
C       29.03370285      19.80941391       7.23424768
C       35.65867233      22.61268616       1.15398324
C       -0.00748091      22.53863335       0.96729362
C       32.91230774      19.57181358       7.15533113
C       -0.45539537      22.83203506       2.22140336
C       33.18848419      19.91965485       5.86365318
C       29.32113838      19.48067093       5.93703890
C       35.22256851      22.22436714       2.39137053
H       31.45632553      18.78987694       3.99629807
H       32.96355057      21.46578789       4.32987261
H       36.78042603      22.90331650       4.46123505
H       35.28429031      20.66250038       3.92663383
H       32.79990005      20.29937553       2.62616229
H       31.67673683      22.97956657       5.78656960
H       35.51760101      21.47861862       6.03843975
H       36.71873474      19.19274902       2.61001015
H       29.38549614      20.71409225       7.68292713
H       35.35585403      23.57053757       0.74426764
H       -0.21949601      21.59981537       0.51319468
H       33.24370575      18.62207794       7.51864910
H       -1.03730178      22.10373116       2.78643727
H       33.75251389      19.24280357       5.23230171
H       29.90829659      20.16039276       5.33021975
H       34.59556961      22.88218689       2.97002029
C       27.24923325      18.39859581      10.17241287
C       28.31488037      21.37565994      12.71601772
C       -7.72832775      23.67146301      12.50178909
C       31.19329262      20.95076179      10.14417171
C       28.00784683      19.24465370       9.41193771
C       27.63296509      22.24724388      13.51753044
C       -8.44775486      22.88132668      13.36019707
C       31.91333008      20.10275269       9.35210323
C       28.27677345      18.94420242       8.05970192
C       27.25265884      21.88704491      14.83218670
C       -8.79747009      23.35679054      14.64864159
C       32.18367004      20.44092941       7.99525118
C       24.45108414      19.86144829      14.54812145
C       31.01147270      22.55021286       8.34694481
C       -4.95854950      22.17480850       8.55360985
C       28.30661392      19.71921921      14.46472263
C       -5.26958227      22.66069031       9.78550816
C       28.65060425      20.09003067      13.20167160
C       24.81640053      19.51493073      13.28072739
C       30.73170090      22.18304443       9.64062214
H       27.05441666      18.64395332      11.22031879
H       28.60557556      21.66573524      11.71676254
H       -7.44228745      23.27800369      11.52052403
H       31.00316048      20.66542625      11.16702461
H       28.41481209      20.16571426       9.85022640
H       27.38179588      23.23890114      13.17240429
H       31.01219940      21.87071991      13.09571838
H       32.28902435      19.13388062       9.72008991
H       24.79499817      20.80876732      14.97392273
H       30.66772652      23.51289558       7.97146463
H       -5.19496298      21.16928482       8.26624203
H       28.57418060      18.74408340      14.86939812
H       -5.78459406      22.02169037      10.48616505
H       29.20669365      19.39099503      12.58048630
H       25.47680283      20.15042877      12.71658993
H       30.16183662      22.84829712      10.27150726
C       22.50004005      18.47019005      17.39602089
C       23.58151054      21.32146072      19.78319168
C      -12.40549660      23.94072342      19.67336464
C       26.54131889      21.10303879      17.42314911
C       23.28290176      19.32077789      16.65627861
C       22.85125542      22.17703056      20.54523468
C      -13.06871796      23.08772659      20.50131416
C       27.25036240      20.24349022      16.64156151
C       23.63758087      19.00512314      15.32275009
C       22.50599670      21.86179924      21.88687897
C      -13.43308926      23.49206734      21.81283951
C       27.60301971      20.60402298      15.31660843
C       19.75148773      19.93750763      21.57689476
C       26.54087257      22.76276970      15.68495560
C       -9.50181580      22.54796028      15.56870461
C       23.69644165      19.74357414      21.60974312
C       -9.84379768      23.01986313      16.80609894
C       24.01744652      20.07829094      20.31707191
C       20.09522820      19.58658409      20.29396629
C       26.16777992      22.37349319      16.94268608
H       22.23598862      18.73101234      18.40332413
H       23.86803246      21.58016586      18.76062012
H      -12.12555599      23.61365700      18.67718887
H       26.28979301      20.81371307      18.43083191
H       23.65057755      20.25987434      17.10732460
H       22.48430252      23.11866570      20.15407181
H       26.42515183      22.08779716      20.19141579
H       27.53818130      19.27786255      16.99271965
H       20.09394073      20.88492966      21.98763466
H       26.27015114      23.76330948      15.31058788
H       -9.76923180      21.54805183      15.26400757
H       24.02140808      18.79332924      22.04409218
H      -10.39450073      22.38979340      17.48018074
H       24.58702660      19.40749741      19.69718742
H       20.70313263      20.26049995      19.70243835
H       25.59809303      23.04852486      17.55306625
C       17.86337280      18.54817772      24.45719910
C       18.88395119      21.27575493      26.86539841
C      -16.83296967      24.11207962      26.77021790
C       21.83854485      21.14349556      24.50539398
C       18.63069344      19.39487267      23.71438408
C       18.08232117      22.11815262      27.59119797
C      -17.55261421      23.18614769      27.46955681
C       22.60033989      20.29373741      23.75028801
C       18.96637917      19.07413864      22.36882782
C       36.46539307      21.75709724       0.36912149
C        0.76553178      23.46883965       0.23797098
C       22.94049454      20.62364578      22.41607094
C       33.60729599      19.87752914       0.08726807
C       21.73843575      22.72985458      22.69256783
C      -14.10124779      22.61678314      22.71271133
C       37.67542267      19.65981865       0.11532813
C      -14.42196274      23.02551842      23.97489929
C       19.28849030      20.03473663      27.39920235
C       15.16946888      19.50849724      27.35241127
C       21.40409470      22.38110733      23.97312737
H       17.62190819      18.81458282      25.49023056
H       19.22557068      21.55664253      25.87982941
H      -16.46570587      23.85687637      25.77718353
H       21.57352638      20.87313080      25.51513672
H       19.01126289      20.30117798      24.12340164
H       17.75685501      23.08289909      27.17508507
H      -17.76307869      22.20981789      27.04897881
H       22.94852257      19.35507202      24.14805222
H       33.92808533      20.82236099       0.47625056
H       21.39373779      23.67947006      22.26318550
H      -14.35486317      21.59538460      22.35650826
H       37.96244812      18.69692421       0.52815914
H      -14.91912556      22.35829163      24.63084030
H       19.93008423      19.35241508      26.82399368
H       15.76047039      20.17602730      26.73465347
H       20.81304550      23.04601288      24.57844543
C       -0.14962974      24.08057785       2.81213760
C       -0.06715746      26.86866951       5.11084938
C        4.37092590       1.14199114       5.18793726
C        3.82756186      27.21056938       2.86689615
C        0.59475499      25.00444222       2.11868882
C       -0.90678585      27.57786751       5.91157913
C        3.44956231       0.53785855       5.99785185
C        4.55589199      26.33044624       2.11324668
C        1.05794942      24.73013496       0.81568021
C       -1.01837742      27.26989365       7.28892279
C        3.13217282       1.08079088       7.26972389
C        4.96619272      26.67613220       0.79544842
C       -3.29647899      25.11931229       6.98675871
C        3.86147404      28.83441544       1.08774149
C        7.15370369       0.95954430       0.60390317
C        0.54767352      25.44109917       6.95259809
C        6.86010981       1.35476363       1.88435245
C        0.67803073      25.79352379       5.63634300
C       -2.93398833      24.61559677       5.77114868
C        3.49504399      28.49345589       2.34928060
H       -0.51769817      24.33008003       3.81374049
H        0.02087728      27.12465477       4.05702305
H        4.63836908       0.70332754       4.23210049
H        3.51053643      26.93391800       3.87176013
H        0.82359844      25.96556091       2.56812501
H       -1.47714973      28.41515923       5.51901436
H        2.97849631      58.52756500       5.69055557
H        4.80960417      25.36088371       2.49824929
H       -3.07998896      26.13941574       7.25122118
H        3.61241508      29.79352188       0.68521571
H        6.61319971       0.13610290       0.16845323
H        1.08328772      24.59281731       7.33614922
H        6.11009884       0.82122654       2.43886232
H        1.37422717      25.22497559       4.99707508
H       -2.37809348      25.24574089       5.10083246
H        2.93476105      29.18286133       2.96351910
C       -4.91762829      23.98208046      10.14508629
C       -3.76681185      26.82842827      12.61639786
C       -0.30012378       1.55342925      12.38147545
C       -1.29727972      26.56382370       9.98138428
C       -4.26298237      24.78519058       9.24204826
C       -4.42666149      27.76317787      13.36590290
C       -1.19126761       0.81918889      13.12770653
C       -0.44858301      25.84613228       9.18894768
C       -3.95213795      24.31037521       7.95037746
C       -4.91332150      27.44220161      14.65587807
C       -1.48241770       1.17643607      14.46863174
C       -0.29254621      26.18233490       7.81378078
C       -7.68985367      25.46726418      14.11572361
C       -1.88802540      27.99021339       8.13561821
C        2.24474263       0.43561590       8.16133022
C       -3.84613490      25.25705910      14.43249512
C        1.98031986       0.96381015       9.38387108
C       -3.47836232      25.56076431      13.14555454
C       -7.34620237      24.97289085      12.89495945
C       -2.02748179      27.64861107       9.45408821
H       -5.16201162      24.38136482      11.11941242
H       -3.44620824      27.08505440      11.62089539
H       -0.10775886       1.26791739      11.35960579
H       -1.40547132      26.29989624      11.03596497
H       -3.98881364      25.82407761       9.48029423
H       -4.61135006      28.73222733      12.95692253
H       -1.67724013      58.88061905      12.69493961
H        0.10622554      25.00766373       9.57740593
H       -7.40793085      26.46307182      14.40136051
H       -2.43864250      28.83990669       7.70581579
H        1.75074017      58.41645813       7.85694885
H       -3.61127734      24.29186440      14.86079121
H        1.32152247       0.45585307      10.08917713
H       -2.95145535      24.81689644      12.54589844
H       -6.76504803      25.57896423      12.20439529
H       -2.67923093      28.24339485      10.07314491
C       -9.46844006      24.32752609      17.18868446
C       -8.82439423      26.83645248      19.64476395
C       -4.77661228       2.48850179      19.74140930
C       -5.85022688      26.70529938      17.18885040
C       -8.77533722      25.13184929      16.32385254
C       -9.65905952      27.64169884      20.36883736
C       -5.66804647       1.65318072      20.34131622
C       -5.03065252      25.86555481      16.52492714
C       -8.41413021      24.66962051      15.03552818
C       -9.81213188      27.43933868      21.76170921
C       -5.85085106       1.66145039      21.74447632
C       -4.57568359      26.18713570      15.21299648
C      -12.46265602      25.67219543      21.34807014
C       -5.78231907      28.30271530      15.38227463
C       -2.41378093       0.46018192      15.23787880
C       -8.30567074      25.52323532      21.60061646
C       -2.66748643       0.81270438      16.53409767
C       -8.15326977      25.75023079      20.25869560
C      -12.10127449      25.24862289      20.09889793
C       -6.27340317      27.92335892      16.59707642
H       -9.75258350      24.70152283      18.16805649
H       -8.68673611      27.02081108      18.58576965
H       -4.61593056       2.46871352      18.68440628
H       -6.21148300      26.45927238      18.18419075
H       -8.48476315      26.14729500      16.60817337
H      -10.16681862      28.48323250      19.89773178
H       -6.26326323       0.95896769      19.76319885
H       -4.71581697      24.91868019      16.93386078
H      -12.26908493      26.67343330      21.69261169
H       -6.09298897      29.22719383      14.94677067
H       -2.95062399      58.58017349      14.76591015
H       -7.83064175      24.68302727      22.08198738
H       -3.39133501       0.21364065      17.10981178
H       -7.52005291      25.09907341      19.66582489
H      -11.57733059      25.90973091      19.42795563
H       -6.97849703      28.57114792      17.11444283
C      -14.07156372      24.32739258      24.41194344
C      -13.09766674      27.38011169      26.71733665
C       -9.32376289       1.86343777      26.37992668
C       -9.99497795      27.07304764      24.53586769
C      -13.43564892      25.18766785      23.56928825
C      -13.81778431      28.26333237      27.46486473
C      -10.31855297       1.22842288      27.06568527
C       -9.22522068      26.21805382      23.79460526
C      -13.11266994      24.79500008      22.24055290
C        4.60110760      27.94229889       0.27507046
C      -10.63436222       1.61127007      28.38859749
C       -9.11263657      26.38185120      22.38258743
C        1.79081583      25.67942238       0.06023027
C      -10.62569904      28.29213142      22.55319214
C       -6.74864769       0.78027660      22.39571381
C        5.72417355      25.78916931       0.00080935
C       -6.99488926       0.92464548      23.73885727
C      -12.71536541      26.13281059      27.25356483
C      -16.55253029      25.37554932      27.33854866
C      -10.70267677      28.12233925      23.90620041
H      -14.28033352      24.65705490      25.42001724
H      -12.81926346      27.64187431      25.70367813
H       -9.08714676       1.58144331      25.38363647
H      -10.04928207      26.93615723      25.61962891
H      -13.18360424      26.20450211      23.88329697
H      -14.09962559      29.23174858      27.07676125
H      -10.85686684       0.41027823      26.62533379
H       -8.68765068      25.40927315      24.26117516
H        1.99743605      26.65058136       0.50622451
H      -11.15275955      29.10923195      22.09548187
H       -7.26068878       0.02727763      21.80497169
H        6.01581621      24.80055237       0.39641431
H       -7.71847582       0.28423834      24.21302986
H      -12.12540054      25.45682907      26.64579201
H      -15.97651291      26.10410690      26.77603340
H      -11.28952885      28.77691269      24.48854637
C       -0.67076993       1.87350583       2.59754634
C        0.66227651       4.47759342       5.15437889
C        4.85957336       7.14629316       5.23319483
C        3.50525165       4.08854961       2.79192019
C        0.23728693       2.59489655       1.89200449
C        0.09884766       5.38059950       6.01430988
C        4.04703188       6.30777216       5.92976046
C        4.13797903       3.32134914       1.84521973
C        0.61764628       2.20527482       0.58810484
C       -0.35427949       4.97934008       7.30231810
C        3.69012356       6.59358644       7.27610683
C        4.57522202       3.89728546       0.63006383
C       -3.30475402       2.91977644       6.72689295
C        3.70633650       6.04341507       1.38791704
C        7.64936113       5.90374136       1.13409662
C        0.30465624       2.70011497       6.74509048
C        7.33875513       6.24895668       2.41951299
C        0.75745106       3.11467719       5.52252626
C       -2.99844933       2.48449373       5.46229124
C        3.26822543       5.46451473       2.54298544
H       -0.93542606       2.17641640       3.60976195
H        1.00289869       4.80925083       4.18358517
H        5.12400961       6.91521597       4.20135260
H        3.16865563       3.62164927       3.73744798
H        0.68939054       3.49076486       2.33257079
H        0.00781756       6.42751694       5.75010109
H        3.66021299       5.38883734       5.46219730
H        4.28408098       2.26515198       2.01973629
H       -2.89723825       3.85686588       7.09589291
H        3.52443671       7.09414911       1.20888102
H        7.21503353       5.02645493       0.67723435
H        0.36367029       1.65469551       7.02373981
H        6.69274139       5.61037159       2.99129415
H        1.20327151       2.40535474       4.81616974
H       -2.35000253       3.07603145       4.84436417
H        2.73838329       6.07403374       3.28526449
C       -5.36248350       1.88169479       9.62406445
C       -3.75044632       5.15803909      12.60958385
C        0.24761713       7.20859385      12.64325142
C       -1.18679452       4.13335371       9.83696461
C       -4.51067829       2.60469747       8.85301495
C       -4.54952288       5.96146059      13.39477825
C       -0.49604043       6.37632179      13.42471123
C       -0.67614639       3.22169662       8.95700073
C       -4.16944361       2.16832614       7.55021715
C       -4.97261238       5.53641605      14.67452240
C       -0.80619526       6.72871494      14.76505661
C       -0.23642774       3.61885190       7.67344713
C       -7.57040548       3.50897884      13.82821465
C       -0.90808511       5.89484453       8.21411514
C        2.82961440       5.74515009       8.01274395
C       -3.83767271       3.41950893      14.26913548
C        2.47703385       6.05836868       9.29399681
C       -3.38535428       3.88168859      13.07412529
C       -7.24482775       3.04639292      12.59362125
C       -1.31241977       5.49206448       9.45779037
H       -5.58651638       2.20259404      10.61583614
H       -3.41160131       5.51980352      11.63536358
H        0.48447040       6.90712023      11.61712837
H       -1.48521924       3.82365131      10.82283020
H       -4.07893133       3.52747536       9.22425461
H       -4.85258245       6.92904806      13.04818630
H       -0.84240532       5.43402338      13.05167198
H       -0.57271284       2.17867732       9.23246765
H       -7.32736683       4.51414871      14.13064384
H       -0.99904370       6.94236660       7.93488502
H        2.44782090       4.85343313       7.55046368
H       -3.58264804       2.43133545      14.61365795
H        1.80601442       5.41651869       9.86005592
H       -2.74757957       3.25609660      12.47158718
H       -6.70657730       3.68470240      11.90704441
H       -1.72814310       6.21284437      10.16944313
C       -9.31924534       2.31298828      16.88409996
C       -8.71685123       4.74475336      19.50759315
C       -4.57033300       7.28348637      19.65554047
C       -5.79972363       4.62153721      17.19679260
C       -8.64749718       3.13058138      16.03465462
C       -9.30703449       5.61064053      20.37769318
C       -5.37328911       6.41596985      20.35026932
C       -5.05188084       3.80433846      16.38575745
C       -8.24835110       2.67420697      14.75402164
C       -9.65262222       5.20309067      21.69592667
C       -5.62845421       6.61609316      21.72556496
C       -4.62201548       4.24459982      15.11727905
C      -12.37766266       3.04601765      21.33796501
C       -5.74199963       6.36587048      15.52039528
C       -1.58888912       5.88491917      15.60767937
C       -8.83188057       2.97084379      21.13678169
C       -1.89552546       6.26270771      16.88487816
C       -8.46089840       3.39719224      19.90090752
C      -12.11771297       2.72961664      20.03609276
C       -6.15481758       5.91913033      16.75097084
H       -9.65426636       2.69056964      17.85053635
H       -8.45060825       5.05951118      18.50528908
H       -4.35827494       7.10945177      18.60894394
H       -6.11342049       4.25702286      18.14471436
H       -8.43205070       4.17326641      16.31298256
H       -9.51064205       6.63158512      20.08503914
H       -5.82939720       5.55461884      19.86171150
H       -4.79683113       2.81001282      16.70673370
H      -12.11468697       4.03364658      21.73132133
H       -6.00812817       7.35387707      15.17417336
H       -1.95096767       4.94798899      15.21333981
H       -8.70435333       1.93207645      21.43941879
H       -2.50352502       5.62145281      17.51823044
H       -7.99066067       2.72830534      19.21105766
H      -11.62067604       3.46001720      19.38982201
H       -6.74274349       6.54319954      17.39753914
C      -13.61131382       1.43713856      24.44943810
C      -13.23204899       5.13299418      26.83794975
C       -9.05035686       7.13669348      26.83661079
C      -10.30802917       4.32341814      24.26958275
C      -13.15847015       2.39954281      23.59149742
C      -13.95034599       5.86534977      27.73879051
C       -9.92314816       6.36081553      27.54911041
C       -9.75874901       3.44922662      23.37231445
C      -12.92751408       2.09270740      22.22610474
C        4.37765026       5.28010511       0.40153480
C        8.53499222       6.69765472       0.35590330
C       -9.41009521       3.86001229      22.06880188
C      -17.24945641       2.94823074      28.34437942
C      -10.23383617       6.08336639      22.61861992
C       -6.45543003       5.73077345      22.45828247
C      -13.59098816       3.13939142      28.13951874
C       -6.71506739       5.96343851      23.78687668
C      -13.05277538       3.74560571      27.04515457
C      -16.87337112       2.51954055      27.10729408
C      -10.54882622       5.66426945      23.88408089
H      -13.78214455       1.64072645      25.48003387
H      -12.82490540       5.59671068      25.95210457
H       -8.78264236       6.86196423      25.84172058
H      -10.54536915       3.99315929      25.26020432
H      -12.94773006       3.41372061      23.95049667
H      -14.13389492       6.90847301      27.53573418
H      -10.34378242       5.45042801      27.12453461
H       -9.59992218       2.40406394      23.64066124
H        1.96007526       3.83649993       0.25026110
H      -10.42741299       7.09549046      22.31193733
H       -6.86039162       4.86267424      21.95760345
H      -13.51944160       2.09677076      28.28711891
H       -7.36699057       5.27929068      24.34040642
H      -12.49521065       3.16772175      26.31839943
H      -16.14900398       3.08488894      26.52274513
H      -10.98398209       6.37903452      24.58767128
C       -0.01223756       7.45053959       2.98898458
C        1.03148055      10.24910545       5.40328884
C        5.03362894      12.69851303       5.44673204
C        3.95990205      10.10705662       3.06321812
C        0.78602058       8.29978657       2.27538323
C        0.27929413      11.09936714       6.17244148
C        4.25888491      11.85515976       6.18956470
C        4.75050879       9.28796768       2.31608963
C        1.14377141       8.00385666       0.93830961
C       -0.07470566      10.75033760       7.49846840
C        3.90215421      12.17606163       7.52797794
C        5.10576200       9.63990784       0.99132121
C       -2.74513745       8.85962105       7.26355696
C        3.84976006      11.70447731       1.25939417
C        7.94339085      11.39274979       1.29975176
C        1.05805683       8.62264156       7.17801094
C        7.58441544      11.78171253       2.56694317
C        1.41473842       8.99429893       5.91305494
C       -2.39278936       8.49730015       5.98706388
C        3.50178909      11.33925152       2.52827168
H       -0.29238880       7.69516230       4.00507069
H        1.30897188      10.55039310       4.38631773
H        5.28747749      12.42001534       4.43396139
H        3.67492080       9.82588196       4.07486677
H        1.12551272       9.20676327       2.71699858
H       -0.05918805      12.04754066       5.79010391
H        3.89827681      10.91898441       5.78180361
H        5.10273409       8.36438751       2.71666574
H       -2.40734792       9.79426479       7.68592596
H        3.52081347      12.64752102       0.83636951
H        7.63085270      10.41687870       0.90389013
H        1.36197090       7.65593719       7.57535124
H        6.98153257      11.11368942       3.18871713
H        2.01356316       8.30996704       5.29424667
H       -1.74623597       9.15767670       5.41240549
H        2.88632035      11.98439026       3.11847496
C       -4.69904566       7.53127336      10.13091469
C       -3.60715199      10.36087513      12.61554432
C        0.28483897      12.78536987      12.62488461
C       -0.73899889      10.02203465      10.12291336
C       -3.89050126       8.34772682       9.38635635
C       -4.41372013      11.18277645      13.35609627
C       -0.44111627      11.93678284      13.41001320
C       -0.02204061       9.15121746       9.34538937
C       -3.55599642       8.01049519       8.05803394
C       -4.74247408      10.85246181      14.68983173
C       -0.77050763      12.28388882      14.74215221
C        0.32402793       9.49303341       8.00686741
C       -7.57291508       9.08403873      14.43017197
C       -0.82933676      11.61599445       8.31878090
C        3.10813761      11.31197166       8.31101418
C       -3.46721458       8.79409981      14.43961716
C        2.75150275      11.66473770       9.58216858
C       -3.12644863       9.15320778      13.17107964
C       -7.24320364       8.79421520      13.14667797
C       -1.15658247      11.27069759       9.60400200
H       -4.94202852       7.81831360      11.13606262
H       -3.33806968      10.63925457      11.58559704
H        0.56266427      12.49048138      11.62112331
H       -0.99101341       9.78652477      11.14113712
H       -3.52406526       9.28499413       9.80265236
H       -4.77327204      12.11274624      12.95513153
H       -0.76755536      10.98228645      13.04912853
H        0.27871099       8.20721245       9.72287178
H       -7.20721865       9.97323227      14.90966320
H       -1.14742124      12.56956482       7.88948345
H        2.78787231      10.35745049       7.86864090
H       -3.10512567       7.87013054      14.85867214
H        2.11562848      11.00725079      10.18427753
H       -2.48628235       8.50631618      12.57756519
H       -6.59865713       9.47345448      12.59867191
H       -1.71898603      11.96770573      10.19676113
C       -9.51835728       7.61381435      17.24535942
C       -8.38733387      10.33312130      19.78445435
C       -4.41767311      12.76376057      19.81520271
C       -5.40954494      10.12467384      17.31298828
C       -8.71728897       8.46854973      16.54796982
C       -9.10782623      11.17410374      20.57181740
C       -5.12269354      11.88368130      20.58039856
C       -4.61377573       9.30637836      16.56967354
C       -8.39825153       8.20848751      15.18430233
C       -9.43726730      10.81988716      21.90392685
C       -5.47533035      12.21274090      21.92003059
C       -4.27391624       9.64333725      15.24082756
C      -12.12999249       8.90326500      21.55970573
C       -5.56486654      11.69708538      15.48931026
C       -1.49746406      11.41298199      15.58661079
C       -8.27885151       8.69838619      21.56055069
C       -1.83290446      11.77502537      16.86828995
C       -7.96858740       9.07293034      20.28665352
C      -11.82551289       8.58561516      20.27190781
C       -5.89566326      11.33640099      16.75802612
H       -9.74560165       7.81351757      18.26581573
H       -8.13149071      10.62308598      18.76894760
H       -4.16377687      12.50316429      18.78450775
H       -5.67967606       9.81976032      18.33481026
H       -8.29368877       9.35006428      16.98501015
H       -9.44024658      12.13701630      20.21595383
H       -5.42472696      10.93652344      20.18727303
H       -4.23042679       8.39059639      16.96885681
H      -11.79679108       9.83743954      21.98854256
H       -5.92486572      12.61677456      15.06464672
H       -1.80833662      10.43074512      15.20474815
H       -7.95950317       7.71833849      21.93293762
H       -2.39544058      11.10681152      17.50823784
H       -7.39193678       8.39128780      19.65037155
H      -11.24507809       9.27953053      19.63957596
H       -6.52630663      12.00890350      17.35587502
C      -13.96142006       7.47059870      24.46537972
C      -13.03757000      10.36777973      26.89054108
C       -9.03046799      12.76057720      26.88981056
C      -10.07936764      10.06616688      24.52465820
C      -13.19569015       8.31832504      23.71944427
C      -13.82919884      11.19075871      27.64093590
C       -9.75511074      11.90297413      27.67251587
C       -9.35155773       9.21165752      23.73594284
C      -12.87884617       8.01159763      22.37378883
C        4.63588572      10.85848045       0.45147237
C        8.69373512      12.26134682       0.46796033
C       -9.01497269       9.56927681      22.40406990
C        1.96158457       8.87417221       0.17235136
C      -10.18091297      11.68945217      22.74476624
C       -6.19363403      11.32019615      22.74096298
C        5.91331482       8.80266285       0.18450341
C       -6.55917597      11.67909813      24.00889587
C      -12.55917740       9.14437485      27.43422699
C      -16.47592545       8.54856777      27.42306900
C      -10.50216961      11.31066513      24.02121353
H      -14.22730923       7.72212791      25.49134254
H      -12.79863167      10.63271713      25.87938309
H       -8.76055908      12.45322418      25.90119934
H      -10.32365513       9.78006840      25.54717636
H      -12.81356239       9.26417351      24.12820816
H      -14.19554520      12.12612438      27.22676086
H      -10.08461952      10.93300343      27.29199791
H       -9.00566959       8.23017693      24.11564064
H        2.28756833       9.82371235       0.61785305
H      -10.49174595      12.65572453      22.35072517
H       -6.46889067      10.36788464      22.33195496
H        6.27333784       7.86229897       0.61997306
H       -7.11410713      10.99350071      24.63581467
H      -11.92908764       8.48836803      26.83357620
H      -15.81522274       9.21724796      26.86697578
H      -11.08155537      11.99813175      24.64450455
C        0.01640430      13.07240963       3.04043889
C        1.07946217      15.65676117       5.48791218
C        5.02878046      18.05222321       5.49553061
C        3.95095062      15.53917980       3.03410196
C        0.75437510      13.92033577       2.27623892
C        0.32968947      16.51892281       6.24336004
C        4.24065208      17.21929359       6.23976183
C        4.73943758      14.70387173       2.30146003
C        1.11510277      13.57291031       0.95213652
C       -0.03244523      16.18144798       7.57319260
C        3.87806749      17.54089355       7.57251501
C        5.10840178      15.04284477       0.97621363
C       -2.80279303      14.37160969       7.24612617
C        3.88585734      17.13358307       1.23915517
C        7.86778641      16.98349762       1.18291616
C        1.13527775      14.05438900       7.29161978
C        7.51209259      17.35820770       2.45747304
C        1.49796808      14.40705872       6.01868963
C       -2.49808216      14.00586605       5.96081829
C        3.51910901      16.77266312       2.50049758
H       -0.26113704      13.35817719       4.06353283
H        1.36864257      15.94436932       4.47595358
H        5.28902149      17.79595566       4.48494577
H        3.67807651      15.25586128       4.03928280
H        1.08097589      14.87892056       2.64458442
H        0.02247379      17.47093201       5.85700798
H        3.89261603      16.27194214       5.80486488
H        5.08256388      13.76909351       2.69264936
H       -2.47817993      15.31065178       7.63907719
H        3.55171967      18.08192825       0.79836100
H        7.56731987      16.01272202       0.78398013
H        1.42990375      13.12857532       7.69617367
H        6.92597437      16.67411995       3.06888390
H        2.09697866      13.72823143       5.42079973
H       -1.92461932      14.66267109       5.35180378
H        2.88459706      17.45123482       3.10776854
C       -4.63099718      13.03829956      10.19750309
C       -3.68163204      15.74052811      12.64569855
C        0.16245225      18.19363022      12.59144497
C       -0.78143138      15.43463135      10.17188740
C       -3.87264156      13.86363697       9.41367149
C       -4.45545340      16.58272934      13.39565659
C       -0.58183217      17.33930016      13.36045074
C       -0.01488585      14.59093094       9.41657829
C       -3.55574584      13.51668262       8.08800697
C       -4.80732441      16.25879860      14.72362709
C       -0.90418810      17.67422485      14.69481182
C        0.35782537      14.92549038       8.09738541
C       -7.59183073      14.44803619      14.41347885
C       -0.79327393      17.05827141       8.38572693
C        3.06554365      16.69936943       8.36302280
C       -3.58632016      14.15599060      14.47587490
C        2.69871521      17.04774666       9.62633038
C       -3.23248005      14.51641464      13.20116138
C       -7.26009560      14.10958004      13.13633728
C       -1.17240787      16.69346237       9.65032864
H       -4.87507200      13.35251808      11.21179199
H       -3.40879178      16.03025055      11.63989830
H        0.42287126      17.92001915      11.58904648
H       -1.09986472      15.13948822      11.17452908
H       -3.52398419      14.81521606       9.79971600
H       -4.79318190      17.50741768      12.99713612
H       -0.92393696      16.38128281      12.97417259
H        0.28901953      13.60081100       9.82374382
H       -7.28847790      15.40573311      14.82022858
H       -1.09122145      18.01143074       7.97686338
H        2.71908545      15.76041985       7.93554497
H       -3.27683330      13.21426582      14.88150787
H        2.03741503      16.41174889      10.19830036
H       -2.62000322      13.81653786      12.60887623
H       -6.65670586      14.78791904      12.53367329
H       -1.76121664      17.36012840      10.25557327
C       -9.43328094      13.05237389      17.32507324
C       -8.29903698      15.77028465      19.75983047
C       -4.36923790      18.36103439      19.75114441
C       -5.48567581      15.55843258      17.35056305
C       -8.68862152      13.90033150      16.56175995
C       -9.02947903      16.63936234      20.52545547
C       -5.13639307      17.51898384      20.50540161
C       -4.72763586      14.70274735      16.60351372
C       -8.35033226      13.58335590      15.22663116
C       -9.38253498      16.30725861      21.86116028
C       -5.50306368      17.88744545      21.83327675
C       -4.37293816      15.02311230      15.26508904
C      -12.19432354      14.44663715      21.57906532
C       -5.57677793      17.13360023      15.52990532
C       -1.65046406      16.79673576      15.52792645
C       -8.21059799      14.18301678      21.57174873
C       -1.96637380      17.14794540      16.80276299
C       -7.87674379      14.53282642      20.29002380
C      -11.85435581      14.09671211      20.30035782
C       -5.91793442      16.79515648      16.79975319
H       -9.69869900      13.33409786      18.34065628
H       -8.04426670      16.03992081      18.75139046
H       -4.07106256      18.05634499      18.74886513
H       -5.76156282      15.28547955      18.36106300
H       -8.34008121      14.86839867      16.98210716
H       -9.36807823      17.59529114      20.15054512
H       -5.48654079      16.58118057      20.13654137
H       -4.37205076      13.75413704      17.00219917
H      -11.88104916      15.39380074      21.99341774
H       -5.90102100      18.07993507      15.10133743
H       -1.97082484      15.86103249      15.11892223
H       -7.88803339      13.24540520      22.00306320
H       -2.53542662      16.45969391      17.42974663
H       -7.29896402      13.85731411      19.68412590
H      -11.24258804      14.80808735      19.70796776
H       -6.52687216      17.49104691      17.40930748
C      -14.05741596      13.03084183      24.47778511
C      -12.99227715      15.76211643      26.88791847
C       -9.07372856      18.35735321      26.80063248
C      -10.08131695      15.58617496      24.47099304
C      -13.31307220      13.89087200      23.71522522
C      -13.75644875      16.61270142      27.63667679
C       -9.81413269      17.49898529      27.56754875
C       -9.31507969      14.72991467      23.71949577
C      -12.94962502      13.55947399      22.39033127
C        4.67641211      16.27533531       0.43860811
C        8.61718750      17.85597610       0.35681233
C       -8.96785641      15.06676006      22.38786888
C        1.88446081      14.44010258       0.13397580
C      -10.13450623      17.18226433      22.67557335
C       -6.26981544      17.01258469      22.64159584
C        5.90183735      14.17473507       0.17742702
C       -6.61769915      17.37839127      23.91470528
C      -12.55840874      14.52918530      27.42424202
C      -16.56542969      14.07883072      27.39183426
C      -10.49102116      16.83083534      23.94846153
H      -14.35479641      13.31155682      25.49266624
H      -12.69685555      16.04379082      25.87529564
H       -8.79066849      18.06938934      25.78015518
H      -10.34888077      15.31215763      25.48313522
H      -13.01138401      14.85291958      24.11203575
H      -14.09708214      17.55535507      27.25495720
H      -10.11943817      16.52380371      27.19082832
H       -8.98793602      13.79685974      24.11159515
H        2.20077300      15.40045547       0.51792461
H      -10.43728447      18.14003754      22.27503586
H       -6.57139444      16.06634712      22.22654533
H        6.23792410      13.22793961       0.60295087
H       -7.24834967      16.69391632      24.52164268
H      -11.95126343      13.87143803      26.84565163
H      -15.96281338      14.74737740      26.78316689
H      -11.09288597      17.51517677      24.54663086
C       -0.05355573      18.55083275       2.94974875
C        0.89594084      21.26372719       5.32218456
C        4.52030087      23.41531181       5.32025194
C        3.89511108      21.11810684       2.85237408
C        0.73501968      19.38405609       2.19987655
C        0.10809173      22.07794952       6.07716894
C        3.98524404      22.55483055       6.23770714
C        4.69558430      20.28252983       2.11578012
C        1.11094296      19.04026604       0.88268799
C       -0.19610038      21.76146698       7.41950274
C        3.52457690      23.04137421       7.49087906
C        5.09800959      20.64520264       0.80497843
C       -2.79623508      19.70077133       7.33493328
C        3.90408111      22.75811195       1.08978212
C        7.80127954      22.59954453       1.04683352
C        1.10571110      19.71522903       7.16011333
C        7.39593363      22.87483025       2.31952143
C        1.40441227      20.05677795       5.87316990
C       -2.44580507      19.36049843       6.06288958
C        3.49181843      22.36265373       2.32986116
H       -0.32740742      18.83749580       3.97205091
H        1.12851882      21.53097534       4.30617809
H        4.91927910      23.04334641       4.36413193
H        3.59265232      20.82979202       3.85646796
H        1.07322347      20.33670235       2.59941721
H       -0.29346848      22.99294662       5.66554499
H        3.93004298      21.49771309       6.03992319
H        5.03684855      19.33278656       2.50201631
H       -2.45020413      20.63128471       7.75920916
H        3.61272287      23.72025871       0.68667698
H        7.52746344      21.66016579       0.58650303
H        1.50657749      18.80261421       7.57803679
H        6.80340433      22.15698051       2.88239813
H        2.03707671      19.40155029       5.26326370
H       -1.84224057      20.02415848       5.46902370
H        2.86076093      23.00565338       2.93061328
C       -4.72791386      18.33071899      10.19666862
C       -3.73821855      21.15792847      12.56029797
C       -0.09706019      23.55717659      12.42486191
C       -0.80335695      21.04951668      10.05777550
C       -3.93611598      19.15778542       9.46741772
C       -4.49860668      22.03507423      13.29195690
C       -0.75440079      22.74741364      13.31014061
C       -0.00298492      20.23062706       9.31202698
C       -3.59333920      18.84027100       8.12928677
C       -4.84456730      21.74114799      14.63613892
C       -1.10641670      23.22571182      14.60056686
C        0.30901164      20.55923462       7.96525860
C       -7.53200483      19.89528465      14.45495129
C       -1.01433992      22.59376144       8.21739483
C        3.01836729      22.16379166       8.47551823
C       -3.62382793      19.64220810      14.42900085
C        2.60316825      22.62911797       9.69431400
C       -3.28886890      19.94608879      13.14330864
C       -7.19508505      19.53338051      13.17901325
C       -1.32713115      22.23873901       9.50269794
H       -5.02193213      18.61330986      11.20823669
H       -3.47164512      21.40036774      11.55695915
H        0.18018644      23.17671776      11.43312836
H       -1.04693222      20.77488708      11.08245659
H       -3.55677629      20.08825874       9.89251328
H       -4.83643150      22.95369911      12.85899448
H       -1.01522195      21.72279167      13.06410313
H        0.40379143      19.33468437       9.71300507
H       -7.20230293      20.85720825      14.86898136
H       -1.41009915      23.50764656       7.78262997
H        2.97099400      21.10823822       8.23240185
H       -3.26475644      18.73098373      14.88181400
H        2.17511964      21.93091774      10.40787601
H       -2.69730186      19.26213074      12.55398178
H       -6.58128452      20.18450165      12.58069801
H       -1.96806502      22.89175034      10.09039593
C       -9.42224789      18.56137848      17.36019135
C       -8.46171951      21.42326736      19.63209915
C       -4.64015007      23.80751610      19.62607765
C       -5.51282358      21.09641838      17.28620529
C       -8.65184021      19.39362335      16.60252380
C       -9.20459080      22.28757668      20.39249039
C       -5.34535122      23.02256775      20.50576591
C       -4.74056625      20.23988152      16.55511856
C       -8.32134914      19.04342842      15.26910877
C       -9.47838402      21.98855591      21.75156403
C       -5.56826925      23.45763779      21.83362770
C       -4.40766811      20.52808380      15.20640278
C      -12.11650944      19.93380928      21.60589790
C       -5.63786268      22.62682152      15.41467190
C       -1.76284218      22.39563370      15.54671192
C       -8.26237774      19.89494133      21.48565865
C       -2.10730052      22.88428879      16.77072334
C       -7.98457098      20.21426773      20.18050766
C      -11.75372219      19.58785820      20.34252167
C       -5.97482586      22.30446434      16.69827461
H       -9.67743206      18.84674454      18.36023140
H       -8.24527073      21.66213608      18.62514305
H       -4.47144651      23.45086861      18.63277435
H       -5.78282166      20.85643387      18.31518745
H       -8.29363155      20.35195160      16.98618317
H       -9.57719040      23.21425629      19.97968674
H       -5.72930145      22.07709885      20.19485474
H       -4.39193487      19.31644440      16.96617699
H      -11.81310844      20.87887001      22.02665710
H       -5.97251272      23.54404831      14.96526814
H       -1.97826052      21.38703156      15.25989151
H       -7.90831709      18.97006226      21.93245316
H       -2.63679218      22.25596809      17.49016762
H       -7.42237902      19.50606728      19.58603096
H      -11.13063049      20.26216888      19.75552940
H       -6.60615396      22.97835159      17.27240944
C      -14.03852272      18.53196335      24.46637344
C      -12.89726830      21.43925858      26.76783562
C       -9.07874870      24.16926002      26.80290794
C      -10.04382133      21.34359360      24.41329575
C      -13.25914192      19.38473892      23.73281479
C      -13.66775417      22.27979660      27.52386475
C       -9.82757950      23.26449394      27.50694275
C       -9.30404186      20.47930717      23.65911293
C      -12.90766430      19.07065010      22.39721298
C        4.70746374      21.91499329       0.28437555
C        8.55774212      23.53323936       0.30083814
C       -9.01580238      20.78030586      22.30191803
C        1.92272830      19.89156914       0.08449765
C      -10.23415089      22.87813568      22.56650734
C       -6.28676176      22.66960526      22.76000214
C        5.87917805      19.79337120       0.00009839
C       -6.51818085      23.12469101      24.02599335
C      -12.51551628      20.16823769      27.27997398
C      -16.51098442      19.51880074      27.35256004
C      -10.51401615      22.55890656      23.85980415
H      -14.30574036      18.78896904      25.49347687
H      -12.57032490      21.74840164      25.80212784
H       -8.74798679      23.93520546      25.78923416
H      -10.27323723      21.10040474      25.44349670
H      -12.90462685      20.32336807      24.15401459
H      -13.96300888      23.25140572      27.13548660
H      -10.09703827      22.31836700      27.06040573
H       -8.94734764      19.55894279      24.06515694
H        2.27227354      20.82444954       0.51019043
H      -10.58889198      23.80427551      22.14906883
H       -6.65772247      21.70311546      22.44969749
H        6.17757988      18.83722496       0.39785373
H       -7.10079622      22.51872635      24.73392105
H      -11.91178703      19.50785255      26.67319489
H      -15.86910343      20.17152023      26.76975822
H      -11.10943985      23.25709152      24.47766876
C        7.75865602      24.10283852       2.91489935
C        7.47519255      26.75287437       5.15053892
C       12.78347683       1.60328412       5.18962526
C       11.74898434      27.18662834       2.85549212
C        8.50710583      25.02557945       2.23475194
C        6.57737494      27.34983253       5.99074888
C       12.19207954       0.66908747       5.99630070
C       12.58948803      26.39850807       2.12145400
C        8.90804005      24.76750183       0.89823848
C        6.55141926      27.02690697       7.36552429
C       11.96104240       0.94985574       7.37095022
C       12.88685799      26.70971107       0.76727998
C        4.04184628      25.29669189       6.75453377
C       11.41090775      28.64599800       0.96124870
C       15.79471970       0.26149410       1.46568024
C        8.31964970      25.40189552       6.96025324
C       15.26784611       0.80209321       2.60502124
C        8.37442780      25.79234886       5.65003729
C        4.52753019      24.80385399       5.58035517
C       11.15172482      28.33095932       2.26915121
H        7.41724825      24.32097054       3.93886328
H        7.47952318      27.05521202       4.10777378
H       12.93841171       1.38820338       4.16196871
H       11.51035595      26.93312645       3.87375879
H        8.80898762      25.95875549       2.69511867
H        5.89671373      28.09149742       5.63581467
H       11.86874962      58.64694595       5.60561752
H       13.05823326      25.52139473       2.55765414
H        4.01369333      26.34128761       6.94450045
H       10.94247913      29.51476860       0.50386912
H       15.54719830      58.17674255       1.18488431
H        8.94988823      24.60693741       7.31799078
H       14.60969353       0.21482137       3.20763898
H        9.10095882      25.32341576       4.98081017
H        4.92197895      25.49700737       4.79934549
H       10.47270966      28.93608284       2.85461020
C        2.70469499      24.00478172       9.98344707
C        3.58588052      26.34232521      12.64394283
C        8.27953720       2.73242712      12.23607159
C        6.43433428      26.24087143      10.06004238
C        3.16862273      24.88061714       9.03634548
C        2.76932502      27.11526680      13.40377617
C        7.31411171       1.93909323      12.76839542
C        7.31306076      25.62481499       9.21598911
C        3.59107184      24.41273499       7.76611233
C        2.56049752      26.82320023      14.78430462
C        6.94370317       2.06775737      14.13910484
C        7.40563297      26.00927162       7.84931612
C       -0.15606508      25.38110161      13.99352455
C        5.66775846      27.65993500       8.26320267
C       11.40090752      58.91840363       8.23925400
C        4.06641722      24.91724777      14.52585697
C       11.12671852       0.31053489       9.53249168
C        4.24736643      25.22924423      13.20922852
C        0.19912045      24.88726616      12.76606178
C        5.61588717      27.28010559       9.56884861
H        2.38812447      24.39718437      10.96486187
H        3.71969819      26.55556297      11.60348034
H        8.61632347       2.59345841      11.20986748
H        6.36651897      25.94590378      11.09852791
H        3.22138524      25.93608665       9.25127125
H        2.25167465      27.97834587      12.96251774
H        6.82671070       1.13423467      12.17613888
H        7.93655825      24.82691383       9.56662369
H        0.06366370      26.37929344      14.26930237
H        5.02590132      28.43866730       7.86990595
H       11.17467213      57.91846466       7.83702278
H        4.55347395      24.06908989      14.95191097
H       10.64954948      58.51379776      10.18870163
H        4.90224409      24.62087631      12.58095455
H        0.73717493      25.52367210      12.05855179
H        4.93647051      27.76131058      10.25900364
C       -1.80282450      24.21949577      17.12043762
C       -0.79634941      26.55408669      19.78669167
C        2.66456509       1.36821735      19.98011780
C        2.06448770      26.06318665      17.42409706
C       -1.17476225      25.03803062      16.23112297
C       -1.51010585      27.45032310      20.53025055
C        2.30420065       0.39585400      20.87490463
C        2.93939781      25.34024811      16.67220688
C       -0.80052507      24.54602242      14.94384766
C       -1.57053661      27.33110046      21.93973541
C        2.29900384       0.67041713      22.26424599
C        3.20885372      25.69478607      15.33293629
C       -4.35034418      25.50259209      21.31009674
C        1.69633460      27.58751297      15.59841633
C        6.06097794       1.16824389      14.77578068
C       -0.20852862      25.31771088      21.76000786
C        5.71954489       1.34767485      16.08166885
C       -0.13382439      25.47218323      20.41003418
C       -4.14506340      25.06346703      20.03777504
C        1.44087732      27.20781898      16.88135338
H       -2.10039783      24.59142494      18.08925247
H       -0.74231762      26.68167305      18.72255898
H        2.68391061       1.14605343      18.90373802
H        1.83534217      25.76196289      18.44184113
H       -0.94039339      26.07344055      16.45915031
H       -2.01619363      28.27399635      20.05193710
H        2.04166722      58.32772827      20.53736114
H        3.43117094      24.46537972      17.07837868
H       -3.96491146      26.44230461      21.64341164
H        1.20773721      28.45469475      15.18038273
H        5.66544342       0.33464867      14.21901226
H        0.24109875      24.44113922      22.25386047
H        5.01510096       0.67978865      16.55848885
H        0.41008008      24.77227402      19.81189728
H       -3.59208584      25.66989326      19.33037567
H        0.77408820      27.79739189      17.49707031
C       -6.01528788      24.37358856      24.44576645
C       -5.40141821      27.36071587      26.62325096
C       -0.66539872       1.23576403      27.27079010
C       -1.67397118      26.99703407      24.72801208
C       -5.29411793      25.14633560      23.57162666
C       -6.25639629      28.13650894      27.35231972
C       -1.48746610       0.47476599      28.04433632
C       -0.98360330      26.09977341      23.96412086
C       -5.07211018      24.71420860      22.23918915
C       12.27573490      27.84143639       0.18463233
C       16.71422768       0.99862462       0.68686444
C       -0.91326523      26.25204849      22.56130219
C        9.67283821      25.69727135       0.14434010
C       -2.29308200      28.24209595      22.75471497
C        2.05243683      58.59923172      23.22874069
C       -5.04650736      25.90164948      28.50735664
C        2.06508636      58.90485001      24.55843163
C       -4.78163099      26.23627853      27.21185684
C       -8.72478008      25.40665436      27.40348625
C       -2.33498311      28.08332443      24.11263466
H       -6.17579651      24.72128868      25.44394875
H       -5.19389391      27.63541222      25.58387756
H       -0.23680891       0.80556184      26.35634041
H       -1.73983550      26.87909317      25.81044579
H       -4.88242579      26.08910751      23.88180923
H       -6.74024487      28.99014854      26.89560318
H       -1.70283210      58.38428497      27.78840446
H       -0.48407361      25.25772095      24.41911697
H        9.90785789      26.64821625       0.61233091
H       -2.82451582      29.04086304      22.27329636
H        1.86578143      57.59643555      22.90631104
H       14.21244621      25.01689720       0.43768540
H        1.87074530      58.14528656      25.29317665
H       -4.10073090      25.61323738      26.63529587
H       -8.11961269      26.11562347      26.86332703
H       -2.86578369      28.76348305      24.73210144
C        7.57776165       2.40677333       2.48463702
C        9.04145813       4.34274054       5.26124334
C       12.91316223       7.14117002       5.30190325
C       11.86252213       4.06169653       2.78121352
C        8.56893444       3.04388595       1.79414308
C        8.22870159       5.17042780       5.97563219
C       12.09870434       6.28190517       5.98618698
C       12.61164188       3.28860688       1.95070112
C        8.87780666       2.66862655       0.46217391
C        7.70777798       4.76913214       7.22630835
C       11.70565701       6.56064892       7.31320667
C       13.08689308       3.78758025       0.71814883
C        4.69926786       2.89760399       6.80592775
C       11.97094345       5.90304756       1.24146092
C       15.86781883       5.83799171       1.24314475
C        8.84920120       2.62783551       6.95206356
C       15.47269726       6.16414785       2.50271821
C        9.36958408       3.05824757       5.76459455
C        5.00124073       2.33210993       5.59648180
C       11.53899288       5.39496231       2.43032193
H        7.36389828       2.70424962       3.51068950
H        9.44968128       4.66642761       4.32673883
H       13.19086361       6.90630865       4.28943777
H       11.50379944       3.66541862       3.71992970
H        9.12804794       3.85277557       2.23622918
H        7.98565674       6.17502737       5.63773680
H       11.75453758       5.37188101       5.51017094
H       12.88518715       2.27594566       2.24042082
H        5.19756937       3.82483006       7.13277340
H       11.73530865       6.90886545       0.95272630
H       15.55408573       4.87753820       0.79533952
H        9.10676765       1.65366244       7.36230421
H       14.86395168       5.47358799       3.09392071
H       10.04380512       2.42375278       5.22593737
H        5.71639156       2.79744697       4.95421553
H       10.90838146       6.00355148       3.07264400
C        2.59543037       2.17541862       9.79152966
C        3.87729764       4.67870045      12.34417820
C        7.95510149       7.25638771      12.37448597
C        6.65072298       3.89624357       9.67103767
C        3.48172808       2.79600120       8.96138191
C        3.27059340       5.50176096      13.25387955
C        7.12402296       6.45813465      13.11521244
C        7.42002106       3.04278469       8.94015312
C        3.76458478       2.26906371       7.67675161
C        2.88035941       5.01946020      14.52628422
C        6.83586884       6.78368998      14.46708107
C        7.99156809       3.46529603       7.71031332
C        0.05655154       3.05237722      14.24345303
C        6.90450048       5.63002729       8.02020645
C       10.87226772       5.68362093       8.04603100
C        3.67336440       2.82063007      13.86335754
C       10.45574093       6.00601053       9.30863190
C        4.08292770       3.30472708      12.65823841
C        0.32185143       2.68985319      12.94941616
C        6.40055513       5.21155310       9.21188354
H        2.40116882       2.59471202      10.75693035
H        4.17782068       5.05756998      11.38970470
H        8.18283272       6.97188139      11.36545658
H        6.23069715       3.57264972      10.60811520
H        3.96732259       3.69550467       9.26829624
H        3.08374190       6.55666208      13.00902843
H        6.69492817       5.56414890      12.68519402
H        7.61086750       2.04028511       9.29020309
H        0.52457803       3.92853475      14.68000031
H        6.70578575       6.63143158       7.66699982
H       10.54441452       4.76040888       7.57799101
H        3.76616645       1.76463497      14.10112190
H        9.81721783       5.33593559       9.84226513
H        4.55759573       2.65349960      11.94537067
H        0.99075598       3.29144931      12.37103844
H        5.76465368       5.88368988       9.82948589
C       -1.98445034       1.89561522      17.13506889
C       -0.61570501       4.34631395      19.69319916
C        3.41165352       7.16217041      19.71777725
C        2.12369609       4.01173449      17.02770615
C       -1.08336890       2.61541867      16.40289879
C       -1.09837651       5.25981665      20.58619308
C        2.70150995       6.36716461      20.56961441
C        2.72431421       3.17816997      16.12308502
C       -0.82635087       2.28271508      15.04474926
C       -1.32272041       4.90366697      21.93601608
C        2.47939134       6.78694487      21.91421700
C        3.10984278       3.66474605      14.84905910
C       -4.25034809       3.49750495      21.86641312
C        2.25781345       5.85819244      15.47906971
C        6.00439739       5.95400381      15.26560974
C       -0.54139280       2.66009736      21.40769196
C        5.71218204       6.29703140      16.55720139
C       -0.34930170       3.02515054      20.10449600
C       -4.04749203       3.41665626      20.51338959
C        1.86915457       5.36221218      16.69315147
H       -2.16717482       2.16070843      18.17683411
H       -0.46692988       4.61896038      18.64610863
H        3.58166599       6.82835197      18.69534683
H        1.81956041       3.63528657      17.98287582
H       -0.55721390       3.46530819      16.84054375
H       -1.32706857       6.28847122      20.27966881
H        2.27782345       5.40943623      20.26592445
H        2.89305925       2.13673711      16.37132072
H       -3.77186251       4.22150755      22.46213531
H        2.05667973       6.90237093      15.21267033
H        5.61033344       5.05338049      14.81961346
H       -0.30817622       1.62522662      21.73215103
H        5.08269930       5.66117764      17.15487099
H        0.02943456       2.29235840      19.38738632
H       -3.36253500       4.09702539      20.02436638
H        1.35352492       6.02159977      17.40549278
C       -6.32109451       1.90821528      24.48905373
C       -4.85859299       4.84422112      26.78863716
C       -0.98643905       7.28480530      26.96163750
C       -1.73975646       4.14783287      24.60242081
C       -5.40611935       2.72050452      23.88926125
C       -5.62774706       5.60595655      27.62378502
C       -1.74090970       6.39798117      27.67560959
C       -1.21373022       3.24129462      23.72252464
C       -5.15300655       2.62012625      22.51170731
C       12.74187279       5.10847092       0.35063747
C       16.64632607       6.71584129       0.47673684
C       -1.01568270       3.58974767      22.35791588
C       -8.92811584       3.33856297      28.24402428
C       -1.89047349       5.81453609      22.86341667
C        1.73257303       6.00487804      22.83589363
C       -4.90577126       3.01502728      28.36625099
C        1.49406123       6.45296955      24.09529877
C       -4.48229885       3.52752948      27.17682838
C       -8.62640190       2.94551182      26.96289253
C       -2.10851002       5.44268560      24.15674210
H       -6.52258682       1.99130583      25.51679420
H       -4.53744936       5.22635794      25.84406853
H       -0.67988551       7.03142643      25.96242523
H       -1.88472056       3.85667944      25.63081360
H       -4.89281893       3.47496843      24.45328331
H       -5.90679932       6.61480284      27.34005547
H       -2.04028463       5.45759773      27.26617050
H       -0.92931044       2.24914932      24.04696083
H       10.37372112       4.19987965       0.16525920
H       -2.18200588       6.77235746      22.50733566
H        1.32730341       5.03692389      22.51670456
H       14.18899059       1.98992372       0.14235060
H        0.88616550       5.83370733      24.77086639
H       -3.86113358       2.92404914      26.52625847
H       -7.87979460       3.48519373      26.39936256
H       -2.57165980       6.13957882      24.84791565
C        7.90472841       7.40596819       2.99469996
C        8.90311146      10.16071320       5.30205059
C       12.99407387      12.69987297       5.46283436
C       12.03672695      10.00921822       3.07899523
C        8.74904919       8.19722271       2.27514052
C        8.13903332      10.99023342       6.07205820
C       12.22181320      11.84987068       6.19678593
C       12.80902386       9.18793106       2.32160521
C        9.09047413       7.86079931       0.93461597
C        7.78442860      10.62227726       7.40668297
C       11.87375736      12.15501118       7.53250265
C       13.13645744       9.52345657       0.98459798
C        5.01395559       8.63357830       7.12430811
C       11.87749386      11.59241772       1.26532686
C       15.84936523      11.43636799       1.36007380
C        8.96333790       8.52748585       7.06617165
C       15.49089432      11.82643509       2.62031388
C        9.32900047       8.90858269       5.81304646
C        5.35185432       8.34055710       5.83048534
C       11.55736256      11.23009014       2.54663610
H        7.65404129       7.67512846       4.00167561
H        9.18113041      10.45896626       4.30607986
H       13.23972130      12.43082237       4.43126678
H       11.79161358       9.73748112       4.10497761
H        9.20105171       9.08911419       2.71618128
H        7.77397108      11.94829369       5.70309496
H       11.85703754      10.92360115       5.79346752
H       13.18127823       8.23753357       2.72951078
H        5.38074970       9.52573681       7.60579968
H       11.50309372      12.52148342       0.85218287
H       15.54928970      10.47984600       0.97068572
H        9.26565933       7.55458927       7.46322441
H       14.88062954      11.15245342       3.23139381
H        9.93307877       8.24471664       5.18033981
H        5.99644947       9.01272964       5.27112722
H       10.94821930      11.89122200       3.15806532
C        2.98250866       7.23035717       9.90264606
C        4.13646221      10.33749390      12.56487179
C        8.25685692      12.72840405      12.56674385
C        7.12023878       9.85601807      10.01477623
C        3.81770778       8.06628704       9.21393299
C        3.41106725      11.19138813      13.35362339
C        7.46045733      11.90807533      13.31010437
C        7.85642052       9.00937366       9.22028637
C        4.18491173       7.77159595       7.87171698
C        3.07471943      10.84368229      14.68381596
C        7.11463356      12.25131416      14.64622593
C        8.20632172       9.37971687       7.90005255
C        0.40969005       8.81180191      14.43941689
C        7.03818989      11.48328876       8.23686409
C       11.07276249      11.28899765       8.31849670
C        4.18110991       8.71029758      14.34503078
C       10.74384785      11.61621857       9.60663128
C        4.51691818       9.07183552      13.06903839
C        0.71259356       8.44876003      13.16005039
C        6.71218014      11.11599922       9.50906658
H        2.69995689       7.47427368      10.93184185
H        4.39472055      10.60916424      11.55093002
H        8.52664089      12.45088577      11.56796455
H        6.86966467       9.56638241      11.00611305
H        4.20354223       8.96277905       9.65183926
H        3.10242057      12.17113209      12.96570396
H        7.10654068      10.98307705      12.89332008
H        8.16541290       8.04811478       9.58008480
H        0.75626492       9.76062012      14.84710026
H        6.73120403      12.43643570       7.82813358
H       10.71273232      10.36243725       7.87921715
H        4.46771526       7.73298073      14.74822235
H       10.10921288      10.94044018      10.19847202
H        5.08592844       8.38878345      12.45604420
H        1.32163608       9.11518097      12.52768135
H        6.11953497      11.79812622      10.13827705
C       -1.40741289       7.48908901      17.40474510
C       -0.43846482      10.20749283      19.75391769
C        3.42418575      12.87096214      19.70129395
C        2.40595889      10.10897255      17.30540848
C       -0.64460158       8.31310844      16.61949158
C       -1.19837654      11.02975750      20.52655029
C        2.70294547      12.02289391      20.48120308
C        3.12827945       9.24082470      16.51879120
C       -0.34336415       7.95361090      15.27594566
C       -1.51440549      10.69145870      21.86484146
C        2.37178969      12.37636185      21.81947136
C        3.46542859       9.59481239      15.18617058
C       -4.26134491       8.63323402      21.62455177
C        2.34298086      11.72247314      15.51534271
C        6.31191778      11.40660191      15.44647789
C       -0.27709070       8.62017155      21.56187820
C        5.96240473      11.77413750      16.71650505
C        0.03479670       8.97899055      20.27746201
C       -4.00798273       8.40905285      20.30410957
C        2.00685239      11.36360359      16.78657341
H       -1.63706541       7.78322172      18.42222214
H       -0.20181806      10.48393822      18.73971367
H        3.66352320      12.59685707      18.67438316
H        2.15836215       9.82906342      18.32331276
H       -0.27393299       9.24455643      16.98133850
H       -1.56030965      11.97180557      20.12495041
H        2.37176633      11.05308628      20.10977364
H        3.42378545       8.28348923      16.88847351
H       -3.86270308       9.50053978      22.12555313
H        2.04609704      12.69100666      15.11751938
H        5.96227741      10.47189617      15.02779198
H        0.07611541       7.68776131      21.96485710
H        5.33843994      11.13860130      17.32194901
H        0.62310940       8.32109070      19.64957809
H       -3.39728737       9.10094738      19.74343109
H        1.44270730      12.05765057      17.40701294
C       -6.15638161       7.09712791      24.42714310
C       -5.03215647      10.25258064      26.88325500
C       -1.07585669      12.75638103      26.95890999
C       -2.08352232       9.97893620      24.51000786
C       -5.34387970       7.95337629      23.74463463
C       -5.81069469      11.07712173      27.63969994
C       -1.82541585      11.91695690      27.73428726
C       -1.33520889       9.13789463      23.73659515
C       -5.05789614       7.74247742      22.36853027
C       12.66775990      10.74154091       0.45331350
C       16.61566925      12.28796864       0.52541548
C       -1.03606558       9.47187614      22.38727760
C        9.95840549       8.67150688       0.16207102
C       -2.27409720      11.55133915      22.69218063
C        1.66886568      11.49134636      22.66431236
C       13.92971992       8.67785645       0.17904302
C        1.36175275      11.84129620      23.95273590
C       -4.55111790       9.03198814      27.42919159
C       -8.50644016       8.31854343      27.41461945
C       -2.56725216      11.20079899      23.98193550
H       -6.37691021       7.26534700      25.47537041
H       -4.78831911      10.50235844      25.84357262
H       -0.80632901      12.45363712      25.94723892
H       -2.32219553       9.69527340      25.53344917
H       -4.89877701       8.79867554      24.23910713
H       -6.18541908      12.00042057      27.23029900
H       -2.17616248      10.96245289      27.35333824
H       -0.95567900       8.22543907      24.12991333
H       10.35040855       9.59254646       0.58332193
H       -2.62205958      12.47246647      22.27842522
H        1.36462462      10.52365875      22.26418495
H       14.27941704       7.74975443       0.59383404
H        0.83507681      11.15939045      24.60155296
H       -3.92697215       8.37047005      26.82702827
H       -7.81670189       8.93040752      26.84856415
H       -3.16536117      11.86182308      24.61578369
C        7.99868441      13.02864265       3.06868649
C        8.98904228      15.64554214       5.48035192
C       12.96009159      18.04080582       5.47787809
C       11.90748692      15.55869293       3.03465533
C        8.75530434      13.87157822       2.29311299
C        8.25977421      16.48754311       6.27747011
C       12.17180729      17.20870399       6.23945379
C       12.69876575      14.72802448       2.30621052
C        9.09856987      13.51428223       0.97082549
C        7.92360830      16.10623932       7.60746908
C       11.84492302      17.54959106       7.57361078
C       13.04023838      15.05628681       0.96916765
C        5.14871931      14.26172066       7.27570963
C       11.76356220      17.12002754       1.20485532
C       15.77242661      16.99611092       1.12894440
C        9.07644463      13.98601723       7.22296095
C       15.43054104      17.34620285       2.40070987
C        9.40907955      14.39338398       5.96088552
C        5.49014330      13.91891479       6.00498199
C       11.43209743      16.77764702       2.49063706
H        7.74333620      13.34062195       4.06888866
H        9.24087048      15.94476128       4.48844624
H       13.20456028      17.77777672       4.45406389
H       11.64997673      15.29285717       4.06105614
H        9.06084538      14.82428360       2.69055510
H        7.93641853      17.45565414       5.92988491
H       11.80152988      16.27661896       5.84494591
H       13.07354641      13.79521084       2.73182583
H        5.50146914      15.18582344       7.71522474
H       11.39861012      18.05877686       0.77803874
H       15.46905994      16.05761909       0.73236191
H        9.38696766      13.03186798       7.58888054
H       14.81095886      16.65705681       3.02731299
H        9.99664307      13.70725441       5.32978010
H        6.09433746      14.58641243       5.41984892
H       10.78719711      17.43471527       3.07247639
C        3.21408749      12.89611530      10.13886070
C        4.17255688      15.70558643      12.60666561
C        8.24785614      18.09258080      12.59564018
C        7.27490473      15.28998566      10.20337105
C        3.99964595      13.72020626       9.41190338
C        3.40863252      16.53948975      13.37105846
C        7.44915915      17.27213097      13.34144497
C        7.99859333      14.45877647       9.40353203
C        4.34811878      13.39984226       8.07298851
C        3.10948348      16.22115517      14.71785450
C        7.11284447      17.60833549      14.67799950
C        8.33535957      14.84283161       8.08194065
C        0.37058163      14.40768909      14.41053200
C        7.19832897      16.95439720       8.46582699
C       11.04879379      16.70153236       8.37995529
C        4.33860207      14.12520504      14.42069149
C       10.71027374      17.06724930       9.65001392
C        4.64301300      14.48034477      13.13983727
C        0.69504410      14.04140759      13.13024044
C        6.86408377      16.55767822       9.73435497
H        2.91648197      13.16071892      11.13683033
H        4.40354204      15.96679020      11.56970692
H        8.49010658      17.81634521      11.59115314
H        7.01398182      14.96551609      11.19457436
H        4.35960293      14.64985180       9.83526421
H        3.03107929      17.47751808      12.96127319
H        7.07012033      16.35513115      12.92344761
H        8.32659912      13.49152470       9.74044991
H        0.66810447      15.37038422      14.78340149
H        6.88750267      17.93216705       8.09607983
H       10.70466805      15.76009083       7.94384003
H        4.68752527      13.18364525      14.82688332
H       10.06573486      16.42104912      10.24120140
H        5.22974825      13.80460644      12.53607559
H        1.25881553      14.72594166      12.51224327
H        6.28968477      17.22702408      10.39151001
C       -1.40999246      13.03439808      17.36595917
C       -0.47167343      15.81744862      19.75491524
C        3.50216174      18.34916878      19.76447105
C        2.50465870      15.49977970      17.35057449
C       -0.68356377      13.88252735      16.58796120
C       -1.21518683      16.67607498      20.51863480
C        2.70217633      17.53666878      20.51205635
C        3.25605726      14.66384220      16.59380722
C       -0.35643563      13.53436661      15.25042439
C       -1.56989968      16.33626938      21.84741592
C        2.37918448      17.86819839      21.85353661
C        3.57005668      14.99532413      15.25042725
C       -4.35097551      14.36418343      21.60942268
C        2.35959435      17.07741928      15.54034042
C        6.30863571      16.75748062      15.47807980
C       -0.41483057      14.21332169      21.54536247
C        5.98861361      17.10348511      16.75582314
C       -0.06111778      14.56537628      20.27904129
C       -4.01877260      14.02073669      20.32996750
C        2.05157232      16.73059845      16.83452415
H       -1.66843462      13.30682373      18.38318825
H       -0.18636304      16.11044884      18.73894882
H        3.75679326      18.06780434      18.74992371
H        2.23761678      15.22509575      18.36793137
H       -0.36726326      14.83090305      16.94408798
H       -1.53050494      17.63229370      20.13010216
H        2.28992748      16.61095047      20.11271858
H        3.63089061      13.72549248      16.98837662
H       -4.06515932      15.31305790      21.99246216
H        1.99688494      18.01425171      15.14043903
H        5.97426462      15.82122135      15.04831123
H       -0.11780384      13.25475407      21.93841743
H        5.36635208      16.42242813      17.37239647
H        0.53229153      13.91327953      19.65040779
H       -3.45445752      14.70430279      19.71486664
H        1.45318174      17.38911247      17.42319298
C       -6.17843914      12.93906498      24.52911758
C       -5.12370205      15.74202251      26.86227036
C       -1.16058755      18.38122749      26.75946999
C       -2.25871396      15.61511421      24.45733261
C       -5.45040369      13.80719185      23.76253128
C       -5.90545177      16.58085251      27.60430717
C       -1.90688503      17.52662659      27.51847076
C       -1.51690626      14.75390530      23.69577599
C       -5.08270693      13.47134495      22.43186951
C       12.56577873      16.26578712       0.41586885
C       16.53453445      17.87223053       0.31945866
C       -1.16784739      15.08591652      22.36486244
C        9.84616280      14.37880611       0.13819788
C       -2.32278299      17.21150398      22.65899086
C        1.57498050      17.02286911      22.65691757
C       13.83802509      14.19471264       0.17219019
C        1.27396035      17.36221695      23.94681168
C       -4.65020800      14.52703667      27.41068840
C       -8.61299896      14.01365757      27.38998985
C       -2.67247319      16.86270523      23.93254662
H       -6.47229958      13.23846912      25.52787781
H       -4.87180328      16.00557327      25.84256744
H       -0.87604421      18.09813118      25.77603531
H       -2.52997756      15.34232140      25.46294403
H       -5.15504313      14.77983379      24.12132263
H       -6.27014971      17.52140808      27.17459679
H       -2.23647642      16.59004402      27.12213707
H       -1.18168819      13.80805492      24.09982109
H       10.13742161      15.35771942       0.53142560
H       -2.61492872      18.17633629      22.22768402
H        1.21220577      16.11105347      22.23966599
H       14.18033218      13.28463650       0.59711164
H        0.63389122      16.71854019      24.55037880
H       -4.03113508      13.85522175      26.82623100
H       -8.03622913      14.67979622      26.76775169
H       -3.23268652      17.51243019      24.53874779
C        7.89304018      18.62786865       2.95800567
C        8.80269527      21.27350426       5.27203226
C       12.48382378      23.36119080       5.31546640
C       11.69250202      21.21479034       2.84423661
C        8.62296200      19.47833824       2.17954206
C        7.95241404      22.05256462       6.00567341
C       11.97921848      22.52145386       6.26017857
C       12.47253323      20.37319565       2.12235045
C        9.00457382      19.12772179       0.86748475
C        7.66390228      21.73890305       7.36040640
C       11.48160076      23.03500938       7.48062277
C       12.93764400      20.73010635       0.82959563
C        5.14911366      19.60140991       7.33475733
C       11.81104088      22.88151741       1.09904039
C       15.80212879      22.64866829       0.87165117
C        9.08233929      19.75813484       7.12227154
C       15.32290459      22.96063995       2.11471581
C        9.36397362      20.10844994       5.83754444
C        5.48115969      19.26251411       6.05700159
C       11.35147095      22.49157333       2.32497025
H        7.59923649      18.91699791       3.95000768
H        9.02248192      21.54448700       4.24160147
H       12.91277504      22.98518753       4.38841486
H       11.33675003      20.92164803       3.81905270
H        8.90824890      20.45057106       2.53483820
H        7.49554920      22.94679260       5.56740999
H       11.97670841      21.46249008       6.09111881
H       12.73529339      19.39007378       2.51983380
H        5.49829483      20.54306984       7.76624918
H       11.53847599      23.85563469       0.70465350
H       15.60149002      21.69967461       0.41641665
H        9.49042988      18.85554695       7.56893587
H       14.70737934      22.23093605       2.64149427
H       10.01221752      19.47125816       5.25314045
H        6.09330750      19.94558907       5.46208286
H       10.73643112      23.16693115       2.92128253
C        3.16155219      18.26917267      10.17912865
C        4.08370399      20.98499298      12.49208450
C        7.82956123      23.36956596      12.47974968
C        7.08930969      21.02475166       9.99558449
C        3.98574638      19.08512306       9.45298195
C        3.29895353      21.84536552      13.19411850
C        7.19251490      22.54878807      13.36316013
C        7.93353033      20.24335289       9.26737118
C        4.33828735      18.74789619       8.13228321
C        2.97686577      21.59497261      14.54642582
C        6.91988230      22.99717331      14.68606758
C        8.23676491      20.57613564       7.92135143
C        0.26910061      19.78016853      14.38973236
C        6.79989672      22.53678703       8.13789654
C       11.00507927      22.17704582       8.51546383
C        4.29446983      19.54423141      14.41352081
C       10.60290718      22.67627335       9.71182060
C        4.58698463      19.81538200      13.10574341
C        0.59437168      19.43171310      13.10509491
C        6.50067139      22.18532753       9.42426872
H        2.87513065      18.53202057      11.17623234
H        4.30440044      21.19764137      11.46327019
H        8.03684711      23.00643539      11.47180271
H        6.83763504      20.74380112      11.03463078
H        4.35749149      20.00601387       9.86177826
H        2.87348700      22.74099541      12.72423649
H        6.86746359      21.56906891      13.09964275
H        8.37973499      19.35218811       9.69936371
H        0.58129436      20.72256470      14.79246426
H        6.33547497      23.41169739       7.69412470
H       10.97410202      21.13802528       8.31143665
H        4.66019201      18.63746071      14.89377689
H       10.24463177      22.04642487      10.47851181
H        5.21274424      19.14477730      12.55300999
H        1.17166173      20.11304855      12.50174236
H        5.83608389      22.80229378      10.00222588
C       -1.52740443      18.39246750      17.33283234
C       -0.49504539      21.39904785      19.63071823
C        3.36938596      23.66477013      19.69571877
C        2.35980177      21.02439880      17.22316170
C       -0.80002385      19.23858070      16.55788231
C       -1.22492516      22.26655388      20.39075470
C        2.69500160      22.87979889      20.59382248
C        3.16683555      20.18028450      16.52399635
C       -0.47397456      18.90334892      15.22090149
C       -1.51032054      21.97615242      21.74471664
C        2.44624114      23.34582329      21.90539551
C        3.48167849      20.43242073      15.16500378
C       -4.29060841      19.98108482      21.54428291
C        2.14096522      22.45828438      15.30491734
C        6.26642323      22.16210938      15.63213539
C       -0.32224405      19.86755943      21.48803711
C        5.97953844      22.62208176      16.89398766
C       -0.01895754      20.17433929      20.19099045
C       -3.93457675      19.59932327      20.27386665
C        1.83406079      22.17970657      16.60171890
H       -1.79242170      18.65487289      18.37067413
H       -0.27700552      21.63874054      18.60101891
H        3.56181860      23.29525185      18.70347214
H        2.12719607      20.80383873      18.26398659
H       -0.45345387      20.20513344      16.95045280
H       -1.59342289      23.19888306      19.97445488
H        2.35542226      21.89264679      20.33127785
H        3.60651135      19.28108025      17.00107765
H       -3.95114923      20.92747307      21.94814110
H        1.74151552      23.34304047      14.80645943
H        5.98827410      21.14164162      15.33254528
H        0.01413899      18.95801544      21.91019058
H        5.47394514      21.98606300      17.59021568
H        0.57020634      19.47467995      19.57499123
H       -3.33391476      20.25256157      19.65793610
H        1.17392528      22.83233261      17.17588615
C       -6.18378544      18.60790443      24.44972229
C       -4.98777580      21.49719238      26.81174278
C       -0.82745165      24.15180969      26.77974892
C       -2.11542845      21.31672859      24.39484978
C       -5.41538572      19.45819283      23.68669319
C       -5.73055887      22.36378670      27.54851913
C       -1.65032244      23.27157974      27.41495514
C       -1.37739551      20.44199753      23.64549637
C       -5.07043743      19.11650848      22.35747337
C       12.59937382      22.00047112       0.31466040
C       16.60660362      23.57475662       0.15712921
C       -1.07247281      20.75312805      22.29872322
C        9.76435661      19.99680519       0.03979287
C       -2.24839664      22.87625313      22.56727028
C        1.76806474      22.55220604      22.86060524
C       13.71316433      19.84500122       0.03811270
C        1.53824854      23.02292061      24.11957359
C       -4.66626644      20.22095108      27.32201576
C       -8.67575455      19.60777855      27.30276871
C       -2.54868793      22.54955864      23.85651207
H       -6.44086504      18.91041565      25.44856453
H       -4.62459564      21.79472923      25.82725334
H       -0.41263622      23.88363838      25.82312775
H       -2.37461734      21.04466438      25.43021011
H       -5.08655357      20.42584419      24.10193062
H       -5.98245478      23.35718346      27.18088150
H       -1.88785660      22.30767632      26.94775581
H       -1.03693080      19.49701309      24.05809212
H       10.06958389      20.95942497       0.44268987
H       -2.57603407      23.81198692      22.15010452
H        1.43511200      21.58570671      22.58257294
H       13.97183800      18.86037064       0.42304200
H        1.01147568      22.39414597      24.83120155
H       -4.06175423      19.54619598      26.73456192
H       -8.08489895      20.29033852      26.68387604
H       -3.12380886      23.22228622      24.44577980
C       15.61435413      24.20808601       2.70148921
C       15.81596565      26.63858986       4.85141563
C       21.05619431       1.43147349       5.55570316
C       19.98156166      26.99872398       2.68652844
C       16.37737656      25.12366295       2.01683283
C       14.95715618      26.74408913       5.90869999
C       20.06184196       0.78512800       6.24179077
C       20.75866127      26.18476868       1.91778266
C       16.90319061      24.82536697       0.74070328
C       15.29668427      26.19443321       7.16178799
C       19.66966057       1.22902668       7.52092838
C       21.11156654      26.55732536       0.59407544
C       11.90102005      25.26940918       6.65352821
C       19.82964706      28.61903954       0.90280604
C       23.30011368      58.86406708       1.31982696
C       17.42267418      25.45966530       6.21653557
C       23.14696312       0.18811764       2.65238690
C       17.04445648      25.95686150       5.00858593
C       12.42378044      24.75641251       5.50467825
C       19.50403786      28.22638512       2.16972780
H       15.23791027      24.44686317       3.67853618
H       15.55335808      27.08949661       3.90076375
H       21.36727715       1.02117062       4.59156609
H       19.74614143      26.73488808       3.69899130
H       16.60040092      26.08994293       2.42876077
H       14.01023102      27.26805878       5.78243065
H       19.61612701      58.84333420       5.83014441
H       21.10746765      25.25537109       2.30896640
H       11.81369305      26.33835602       6.79464912
H       19.48107910      29.58638000       0.50712854
H       22.85968018      57.98445129       0.87201005
H       18.38925743      24.97822380       6.31841135
H       22.60418129      58.44464874       3.28405738
H       17.72199821      25.85219192       4.17834902
H       12.79912376      25.41364861       4.74414015
H       18.88877869      28.87903023       2.78168821
C       10.66885185      24.06674576       9.95644283
C       11.57645226      26.45593071      12.78093052
C       15.32337570       1.73141551      12.39291859
C       16.12085152      25.33660698       9.69481564
C       11.08654594      24.92383957       8.97840500
C       10.78786278      27.29410934      13.52583122
C       14.48118305       1.17563617      13.31675720
C       16.96562576      25.20829964       8.63250160
C       11.48838806      24.43094063       7.71097803
C       10.53748226      27.02832222      14.89838791
C       14.53439999       1.57550299      14.67773724
C       16.56777573      25.60976982       7.34138346
C        7.95643282      25.11835480      14.12347698
C       14.42564964      26.25829124       8.27465534
C       18.66399574       0.56843787       8.27504635
C       11.95623684      25.04567337      14.69520283
C       18.26883507       1.05965853       9.48432446
C       12.18560314      25.32466507      13.37751007
C        8.22554398      24.66518974      12.86832523
C       14.80853939      25.83461952       9.51247406
H       10.37697029      24.44326782      10.93960285
H       11.74916649      26.67564201      11.73343945
H       15.26912117       1.40301549      11.35664368
H       16.45161057      25.06248856      10.67022610
H       11.10214806      25.99143028       9.13568115
H       10.35941696      28.17897415      13.08335114
H       13.74809074       0.43504417      13.02397633
H       17.97032166      24.83729362       8.76147270
H        8.27278233      26.10214996      14.43589401
H       13.44251156      26.69140434       8.10442638
H       18.19958305      58.63935852       7.86003494
H       12.42081356      24.17927551      15.16498661
H       17.48948097       0.59069973      10.04298687
H       12.83211899      24.69807816      12.77939701
H        8.71045399      25.32787514      12.13968182
H       14.14599228      25.92154884      10.33564186
C        6.35873985      23.93037796      17.26895332
C        7.09552526      26.47505379      19.72901344
C       11.05951786       2.48762751      19.41838264
C       10.06624603      26.42228889      17.59855270
C        7.00600147      24.73913193      16.38925743
C        6.26666403      27.33696747      20.38002586
C        9.90379143       2.05408788      19.98691750
C       10.84505939      25.58548737      16.84318161
C        7.30341148      24.29593277      15.07450485
C        6.13659096      27.29203224      21.79129219
C        9.65698147       2.24347019      21.37380981
C       11.11351204      25.87516212      15.48547459
C        3.48658848      25.46842194      21.29085922
C        9.73534775      27.88004684      15.70036030
C       13.68249607       1.00410759      15.64344215
C        7.62461615      25.36939621      21.79798889
C       13.72125626       1.42159688      16.94061279
C        7.78395557      25.47093391      20.44676781
C        3.75350475      24.97186661      20.04304886
C        9.50941277      27.58398247      17.01305389
H        6.11161280      24.30220413      18.25583076
H        7.19718742      26.54622459      18.65666008
H       11.23154736       2.34713221      18.35698700
H        9.90363598      26.21826744      18.63994598
H        7.31166935      25.75282478      16.71113777
H        5.71494865      28.10070801      19.84487343
H        9.13601017       1.57562506      19.36813927
H       11.30493355      24.70183373      17.27070999
H        3.77376294      26.47806168      21.55122375
H        9.33286095      28.77298355      15.26604462
H       13.01302052       0.22132131      15.34362316
H        8.10735321      24.57099342      22.34699821
H       13.07799149       0.98311108      17.67293167
H        8.41946602      24.76999474      19.90454292
H        4.21819592      25.60301208      19.30098343
H        8.90852642      28.28748512      17.60820770
C        1.98635292      24.30623436      24.49050903
C        2.98889446      27.34409714      26.52783203
C        5.96532774       1.55022502      26.83115578
C        5.93330145      27.16132545      24.57885170
C        2.62870765      25.10730553      23.58889198
C        2.19697189      28.15475273      27.28153229
C        5.30139446       0.65407848      27.61358833
C        6.68129683      26.23129654      23.91443443
C        2.86258292      24.63913345      22.27055550
C       20.64026642      27.79316330       0.08177608
C       24.03071785       0.82318664       0.48966989
C        6.81923628      26.28010368      22.51039886
C       17.75074577      25.72961044       0.05584796
C        5.34138966      28.22220039      22.50357628
C        8.49906826       1.77678561      22.00718308
C        3.11300302      25.72620773      28.30324173
C        8.29068756       1.99626017      23.33223724
C        3.45858908      26.11177826      27.04259682
C       -0.50187349      25.39610291      27.37937546
C        5.26994419      28.17875481      23.86109734
H        1.80685055      24.67689896      25.49203491
H        3.24110317      27.63258171      25.50623894
H        6.00439024       1.40674019      25.76011086
H        5.86939383      27.11118126      25.66981888
H        2.96457028      26.09324074      23.84581375
H        1.82916260      29.09060860      26.86901093
H        4.80973768      58.72584152      27.17852020
H        7.16165733      25.42735672      24.45853233
H       18.00315094      26.67715073       0.53312510
H        4.84380627      28.99061394      21.96902847
H        7.79671717       1.18815708      21.43041229
H       22.26103973      24.78177261       0.18800105
H        7.43525887       1.59143817      23.81332779
H        4.10010147      25.47218704      26.43353844
H        0.17601618      26.05946922      26.90559769
H        4.68691349      28.92190170      24.39576912
C       15.65846157       2.08996892       3.03680658
C       16.90147400       4.76766825       5.26211834
C       20.94988441       6.99718475       5.45288229
C       20.00656319       4.29927588       3.18376660
C       16.54946899       2.81353045       2.30610538
C       16.16996765       5.58854389       6.06755018
C       20.15892220       6.16007996       6.19305515
C       20.73643684       3.51877069       2.32416630
C       17.06354904       2.31189942       1.08483279
C       15.72346210       5.15015888       7.34310246
C       19.76291084       6.51341629       7.50859022
C       20.97555923       3.94086146       0.99687845
C       12.90761757       3.16991925       7.01143169
C       19.74213600       5.98847961       1.48354769
C       23.78014374       5.73455238       1.21276784
C       16.74780846       2.98996878       6.87745142
C       23.44403267       6.06727314       2.49670672
C       17.21136093       3.45115256       5.68191385
C       13.16373730       2.86103106       5.71212482
C       19.49346161       5.54365587       2.75022292
H       15.30532646       2.47364616       3.98593307
H       17.22852135       5.13737059       4.29647589
H       21.23356247       6.70792723       4.44125843
H       19.82491684       3.93135142       4.18937731
H       16.86481667       3.79719210       2.63698411
H       15.93126488       6.61883211       5.76964188
H       19.82564735       5.22460079       5.80175734
H       21.16214561       2.59149218       2.64749289
H       13.16131306       4.14560890       7.41306686
H       19.34428215       6.92872238       1.15857530
H       23.49811935       4.78355360       0.79308486
H       16.94638062       1.96524739       7.20169449
H       22.86976814       5.37255764       3.08779740
H       17.77777863       2.80508542       5.04263258
H       13.63465309       3.61241102       5.07269716
H       18.92833710       6.16157436       3.42197156
C       11.41403866       1.59477687      10.03626156
C       12.19585323       5.09470510      12.26802254
C       16.25073242       7.23680305      12.54025745
C       14.91946983       4.27018929       9.86729908
C       11.99253368       2.53108215       9.22709656
C       11.59859943       5.99466324      13.11369324
C       15.47013569       6.41083145      13.27907372
C       15.59272289       3.41062808       9.04005909
C       12.29484558       2.22473145       7.87423849
C       11.23815918       5.60994053      14.42109299
C       15.17711067       6.72237968      14.64119053
C       16.01721764       3.82885122       7.75330210
C        8.48813820       3.93275428      14.30245495
C       15.02561951       6.01428127       8.21451855
C       18.91275406       5.68304253       8.28388023
C       12.04426098       3.37006950      13.93301010
C       18.54965401       6.05429268       9.54521179
C       12.40525913       3.76183772      12.68577290
C        8.87215424       3.74396515      13.01417160
C       14.63282967       5.59126091       9.44859600
H       11.17678165       1.82919145      11.05732250
H       12.46978950       5.40139151      11.26737499
H       16.48124504       6.99946642      11.50449085
H       14.60352898       3.94898820      10.83774185
H       12.21684074       3.53407788       9.59529114
H       11.41048527       7.00691652      12.78443527
H       15.07112122       5.49422073      12.84934425
H       15.78811073       2.40996599       9.35752296
H        8.90853500       4.74130964      14.89564610
H       14.80657673       7.01940966       7.88172674
H       18.55658340       4.74867296       7.85926580
H       12.13602066       2.31164241      14.24404526
H       17.88162422       5.41682577      10.11874199
H       12.86905861       3.07366109      12.00221539
H        9.62689686       4.39771795      12.55848885
H       14.10112667       6.28123093      10.11293221
C        6.25109148       2.41281414      16.83101654
C        7.00054073       5.49728060      19.80463028
C       11.53846836       7.09580421      19.70464897
C       10.53840923       4.80635548      17.01747513
C        7.16677856       3.25041318      16.26417160
C        6.50269890       6.22914553      20.83359718
C       10.67741108       6.30690575      20.43598938
C       11.13315201       3.90835881      16.17192650
C        7.53342104       3.09012961      14.90917492
C        5.99151564       5.59510803      21.98901367
C       10.32621765       6.66092014      21.75065994
C       11.48390961       4.28852844      14.85281849
C        2.92225099       2.97268820      21.74313164
C       10.58541393       6.50305796      15.31191921
C       14.36949444       5.87261152      15.43859577
C        6.34847689       3.45338154      20.89904213
C       14.09860992       6.18779278      16.73428535
C        6.92099810       4.08956528      19.83126831
C        3.00481296       2.65705395      20.41560364
C       10.24384022       6.11214828      16.57976723
H        5.92341757       2.55369401      17.85057449
H        7.48329496       5.98457241      18.94821167
H       11.82081509       6.80735254      18.71422577
H       10.24733162       4.49015522      18.00692558
H        7.59220600       4.05852365      16.83776474
H        6.49543142       7.31880283      20.77275276
H       10.26152039       5.39916468      20.01595497
H       11.34235954       2.89530110      16.45005989
H        3.19239974       3.96753645      22.06490135
H       10.33643341       7.48344851      14.91395092
H       13.97207260       4.96001768      14.98568726
H        6.21561527       2.39588571      20.88210487
H       13.49100113       5.51931334      17.34087944
H        7.30986643       3.50675559      19.00630569
H        3.31428599       3.39967990      19.70378494
H        9.70995712       6.79158115      17.22062492
C        2.25337815       1.29973102      24.99563980
C        2.68828773       4.85320568      26.93218422
C        6.75115299       7.21724653      26.82018089
C        5.16470051       4.29513788      24.32463074
C        2.47687364       2.28919482      24.08119965
C        1.94675243       5.62641764      27.77643013
C        6.04792500       6.32187462      27.57875061
C        5.53389883       3.55238032      23.23245430
C        2.55749273       1.99043119      22.70108604
C       20.48155022       5.19592905       0.57527328
C       24.50440788       6.63560247       0.39323613
C        5.94514179       4.19318104      22.03892517
C       17.92748451       3.07848954       0.26525053
C        5.55391264       6.34233522      23.11832619
C        9.40981102       5.89269352      22.51411057
C       21.70441246       3.14065099       0.09031880
C        9.07332134       6.26845407      23.78656769
C        3.17507625       3.59905839      27.35661507
C       -0.36318740       2.56023502      27.63463593
C        5.14667845       5.70200348      24.25920868
H        2.21904325       1.53094828      26.05173492
H        2.89258838       5.21391582      25.92998695
H        6.99534941       6.94985199      25.78367424
H        4.87144661       3.79941463      25.23760605
H        2.61764956       3.31957531      24.37856293
H        1.55262244       6.59514093      27.47529030
H        5.72794390       5.37476826      27.16958427
H        5.49631262       2.47776866      23.27253151
H       18.17972946       4.10696268       0.57370925
H        5.55064392       7.42924309      23.05187607
H        8.98413467       4.98834610      22.06180954
H       22.06906700       2.17172456       0.42259830
H        8.37621117       5.65751410      24.34206390
H        3.74763393       2.98692441      26.68665886
H        0.27504498       3.12651324      27.00724220
H        4.81023598       6.27818632      25.09027863
C       15.87214851       7.39002991       3.07588005
C       16.97285080      10.17237091       5.49095964
C       20.94489670      12.71696949       5.48151064
C       19.86702347       9.98584747       3.16013932
C       16.65144920       8.26722527       2.35855126
C       16.19685936      11.02024269       6.23535824
C       20.23167801      11.86511517       6.27341509
C       20.62566376       9.13431740       2.40313911
C       17.04304886       7.95121861       1.03305805
C       15.85430527      10.69212532       7.57229662
C       19.87990189      12.23153210       7.59286785
C       21.00777054       9.47899342       1.08268905
C       12.97456360       8.65242863       7.18086720
C       19.82416153      11.59365273       1.35790205
C       23.74272728      11.48982143       1.27347827
C       17.06905746       8.60671616       7.32128239
C       23.37145424      11.88232231       2.53169274
C       17.41912460       8.94698715       6.03402710
C       13.36084747       8.34035969       5.90007782
C       19.45790482      11.23428726       2.62304330
H       15.56502247       7.65974855       4.05635262
H       17.25453186      10.45014095       4.48927784
H       21.22706795      12.43452644       4.45575380
H       19.57159233       9.69158840       4.16346741
H       16.97473717       9.20198822       2.76882386
H       15.88070393      11.96738338       5.82348633
H       19.92439842      10.89329052       5.90311527
H       20.95229340       8.18821239       2.79963064
H       13.30668354       9.56366825       7.64014816
H       19.50191498      12.55961800       0.94332075
H       23.41976547      10.54000950       0.88392091
H       17.37637520       7.66854668       7.73355675
H       22.73240662      11.23518944       3.12596393
H       18.02408409       8.27252007       5.44722271
H       14.00005913       9.02260017       5.37369442
H       18.84629631      11.89994907       3.22618413
C       10.89262772       7.21082878       9.90771961
C       12.27510834      10.30315876      12.62518311
C       16.38310432      12.75911427      12.64708805
C       15.21761608      10.02699471      10.21378040
C       11.72474098       8.06488609       9.23944283
C       11.45334530      11.11855793      13.35042381
C       15.67096329      11.90939236      13.44407177
C       15.95649529       9.15816879       9.45649433
C       12.14231777       7.76853561       7.91877556
C       11.16088581      10.83508587      14.70531464
C       15.32412910      12.29015255      14.76696587
C       16.28656387       9.47333431       8.12146282
C        8.23023224       8.77468395      14.24169827
C       15.09370613      11.57804680       8.37848377
C       19.13807487      11.35181713       8.44219685
C       12.56751919       8.86495590      14.53732586
C       18.79814148      11.74204445       9.70094204
C       12.83748722       9.15640831      13.23455334
C        8.51642132       8.42980099      12.94289684
C       14.77370262      11.25670242       9.66390228
H       10.54811764       7.46826458      10.89770412
H       12.48025227      10.52258015      11.58429909
H       16.65054512      12.44175434      11.63035297
H       14.98178673       9.77938747      11.24930668
H       12.05571651       8.98714256       9.69689560
H       10.99664211      11.98481846      12.91537571
H       15.37496185      10.91694355      13.11178493
H       16.29319382       8.23006058       9.88868618
H        8.65695477       9.66011238      14.66561413
H       14.78175163      12.52920437       7.92891788
H       18.83847809      10.39781380       8.05204201
H       12.97405338       7.96284008      15.00164318
H       18.22318459      11.07915783      10.32338333
H       13.48262596       8.48812294      12.65328693
H        9.15065575       9.03870583      12.36490726
H       14.20003986      11.95720387      10.26494884
C        6.25505638       7.47657251      17.11759377
C        7.46584606      10.52820683      19.69863510
C       11.75093842      12.77153206      19.83001900
C       10.58860207      10.23835373      17.38294029
C        7.08842087       8.26842022      16.37867737
C        6.63346910      11.31745815      20.45145798
C       11.01006126      11.94661140      20.62493324
C       11.42853069       9.42378616      16.67399597
C        7.39270353       7.94361115      15.03666592
C        6.38014221      11.01633644      21.81297874
C       10.60693073      12.36112976      21.92329788
C       11.72476864       9.69465637      15.31017590
C        3.70556331       8.83702087      21.41794586
C       10.31331444      11.67806244      15.47237873
C       14.60916042      11.41973877      15.63592339
C        7.84072542       9.07595634      21.58370972
C       14.26750088      11.82063580      16.89750481
C        8.07396030       9.39219284      20.28483963
C        3.91546822       8.40525055      20.14168358
C       10.02975082      11.37883472      16.77860451
H        6.03082466       7.75032949      18.13825035
H        7.65438175      10.78962517      18.68171310
H       12.05912018      12.44093800      18.84953117
H       10.38281155       9.99773598      18.40270424
H        7.52975702       9.17210770      16.81389618
H        6.15729094      12.20854568      20.03667259
H       10.73210907      10.95553589      20.31060028
H       11.87215233       8.52051926      17.12607765
H        4.09731674       9.78529930      21.73402214
H        9.91808414      12.56577301      14.98686886
H       14.32351685      10.43333912      15.23750305
H        8.30184364       8.20284367      22.04396820
H       13.73492146      11.16612053      17.53449821
H        8.72405720       8.75097466      19.69099236
H        4.49126863       9.03266239      19.44408226
H        9.37991333      12.03859806      17.35636139
C        2.00883842       7.69568491      24.52037048
C        2.93488741      10.21057987      27.01126289
C        6.88083267      12.81098557      26.90823364
C        5.84755373      10.33232784      24.47664261
C        2.74025273       8.46671581      23.66664886
C        2.16489911      11.06429195      27.75356293
C        6.10375643      11.98700714      27.66881371
C        6.70885086       9.56367874      23.74458885
C        2.98150563       8.03600216      22.33549118
C       20.59654617      10.72231674       0.54721260
C       24.53833199      12.34258556       0.46641341
C        6.98332262       9.87286568      22.39169693
C       17.82287979       8.85077286       0.26167765
C        5.53656721      11.81924438      22.60826111
C        9.86300087      11.51405525      22.77750969
C       21.78064728       8.60956097       0.28121728
C        9.45566177      11.94441986      24.00794411
C        3.34317946       8.96441174      27.54890442
C       -0.59860784       8.52763462      27.52021790
C        5.25782442      11.49109840      23.90382004
H        1.79637837       8.03534794      25.53011894
H        3.22621250      10.50061035      25.99155808
H        7.16237736      12.52518845      25.91917610
H        5.63458443      10.07953262      25.50359344
H        3.15754437       9.42811775      23.96623611
H        1.81199193      11.99736595      27.34652901
H        5.76573944      11.03865433      27.28705025
H        7.19677734       8.69367599      24.18660927
H       18.12915993       9.78984451       0.71859300
H        5.12305641      12.72582245      22.16878700
H        9.61711693      10.53166771      22.43712807
H       22.08407021       7.66353226       0.69614071
H        8.85967255      11.29349804      24.63830757
H        3.96704125       8.29864788      26.96115685
H        0.00483035       9.21871948      26.95668030
H        4.61850882      12.10881138      24.51264000
C       15.90654564      13.08385372       3.12193894
C       16.98335457      15.74894905       5.48578310
C       20.99301147      18.46228027       5.45703697
C       19.88032913      15.63641739       3.05468059
C       16.67225266      13.91241837       2.34773111
C       16.24544144      16.57611084       6.28743076
C       20.22289276      17.61202240       6.19661140
C       20.64703560      14.79530621       2.30396891
C       17.03100014      13.53949547       1.02535045
C       15.93930435      16.20850754       7.62315893
C       19.91966248      17.90552521       7.55072498
C       20.98682976      15.13250732       0.96626151
C       13.12948608      14.23284245       7.31640577
C       19.75101280      17.21841049       1.24498451
C       23.72275543      17.04917336       1.20305943
C       17.13480186      14.11379433       7.24741840
C       23.34934807      17.40597153       2.46204782
C       17.44389153      14.50294876       5.98293924
C       13.45099163      13.90730858       6.02699900
C       19.42577362      16.87112808       2.52770782
H       15.62887573      13.36323166       4.12487507
H       17.20930481      16.05750656       4.50146389
H       21.20562172      18.21546555       4.42562008
H       19.63314056      15.35776138       4.08437681
H       16.98812485      14.88920212       2.72602606
H       15.88762760      17.50947380       5.91735363
H       19.84764290      16.70678139       5.78703880
H       21.00577927      13.83122921       2.71318817
H       13.49721336      15.15433121       7.76727200
H       19.41262817      18.18063164       0.81256151
H       23.39753532      16.11331749       0.78040946
H       17.47567558      13.16188240       7.65103865
H       22.71608162      16.74003983       3.04834247
H       18.03143883      13.84875393       5.34501886
H       14.05632401      14.58107185       5.44709253
H       18.81530952      17.55364990       3.13830376
C       11.22747993      12.82553291      10.17211437
C       12.34593201      15.68773556      12.68286419
C       16.41108894      18.29395676      12.61431026
C       15.33274364      15.40368557      10.23829460
C       12.00687408      13.67324734       9.44060612
C       11.57177162      16.52519226      13.44707298
C       15.60896397      17.45547295      13.33714581
C       16.07849121      14.58744240       9.44450092
C       12.33911514      13.36878204       8.09813404
C       11.21450710      16.17462158      14.77039242
C       15.24601460      17.77331734      14.66339684
C       16.38920784      14.95702076       8.10809994
C        8.38018322      14.32458973      14.36860752
C       15.19809723      17.05431175       8.48640537
C       19.13732719      17.02721596       8.33903599
C       12.44063187      14.08506775      14.49391174
C       18.85560036      17.33120346       9.64444733
C       12.78411007      14.45202732      13.22303104
C        8.72662354      13.95189285      13.10536289
C       14.89149380      16.66371346       9.76155281
H       10.96057415      13.08212185      11.18283939
H       12.60657024      15.95753956      11.69994926
H       16.72825432      18.01951027      11.58234787
H       15.08838940      15.08610916      11.25222874
H       12.38817310      14.57871056       9.86215496
H       11.23413658      17.46274376      13.06529808
H       15.23329544      16.52720833      12.91754150
H       16.41206741      13.63668728       9.78964329
H        8.73000813      15.26309013      14.79745102
H       14.85734081      18.01052284       8.10663986
H       18.76096344      16.10897064       7.88586712
H       12.77166080      13.15789795      14.91049957
H       18.24483681      16.67236519      10.25222397
H       13.38222218      13.77720165      12.60563469
H        9.34757328      14.60480022      12.49213982
H       14.30997467      17.30549812      10.40277672
C        6.43838644      12.99878025      17.25291252
C        7.56135559      15.76644325      19.75184250
C       11.51520061      18.17192841      19.74891090
C       10.47309113      15.41352940      17.36275482
C        7.23162365      13.81590462      16.51221275
C        6.78949547      16.61346817      20.49725914
C       10.69772148      17.38864899      20.50528908
C       11.27227211      14.58578205      16.62373352
C        7.57646179      13.47362900      15.17985249
C        6.42381763      16.28307724      21.82414436
C       10.36179161      17.75033188      21.82861328
C       11.64766979      14.93650246      15.29582214
C        3.53517675      14.49165916      21.48912621
C       10.42632580      17.03115273      15.57507801
C       14.44181156      16.91505432      15.44808483
C        7.66162348      14.19376087      21.57646370
C       14.09624863      17.25549889      16.72349548
C        8.00381279      14.54343128      20.29785538
C        3.85400248      14.12437153      20.21355629
C       10.04420471      16.65703201      16.83979988
H        6.16710567      13.27931118      18.26678085
H        7.86458254      16.04741478      18.73735428
H       11.76390266      17.86333847      18.76612091
H       10.17672539      15.10565662      18.33912849
H        7.63178301      14.73948383      16.91687012
H        6.43868113      17.55292892      20.09872627
H       10.28415108      16.47491455      20.10754585
H       11.60145760      13.65028095      17.00972366
H        3.85212874      15.44668484      21.87785912
H       10.11364555      17.98579216      15.16100121
H       14.09244442      15.97336769      15.02060127
H        8.02184582      13.26462841      22.00496101
H       13.45815849      16.57496262      17.32391548
H        8.63645554      13.88911438      19.72341728
H        4.44141579      14.80512619      19.58653831
H        9.43296433      17.32190132      17.41558647
C        1.78667700      13.09505367      24.46001434
C        2.84134746      15.85975075      26.87026596
C        6.89484549      18.40108109      26.87916374
C        5.77133942      15.59664440      24.45431137
C        2.48346233      13.95989227      23.66703987
C        2.06917238      16.69566917      27.62897110
C        6.10184097      17.55882072      27.61959648
C        6.53022718      14.74430370      23.70863724
C        2.79738164      13.62420654      22.32646751
C       20.53241920      16.35950851       0.43392077
C       24.52331734      17.90000343       0.41322157
C        6.87097883      15.05797672      22.37277412
C       17.79750824      14.39402771       0.20250016
C        5.65370369      17.15759468      22.62895966
C        9.53921604      16.93278313      22.63918114
C       21.75712395      14.27193451       0.15034635
C        9.21138477      17.30280304      23.91847420
C        3.29057956      14.62631035      27.40462685
C       -0.65096682      14.00985909      27.45620346
C        5.32351971      16.82001114      23.91053391
H        1.56076980      13.37007618      25.48701859
H        3.11310291      16.14837456      25.85995483
H        7.19021749      18.09524536      25.87834930
H        5.51248550      15.33886719      25.46675301
H        2.82504296      14.90054607      24.06303787
H        1.72049916      17.64667511      27.22234154
H        5.76367855      16.62012291      27.20404434
H        6.88642073      13.80082893      24.11824036
H       18.12357330      15.35105896       0.60009575
H        5.32593250      18.09262466      22.19808197
H        9.19398594      15.99884796      22.22694016
H       22.07394791      13.32435131       0.58323407
H        8.58051682      16.66388321      24.53054810
H        3.91089225      13.95404625      26.78889084
H       -0.05677471      14.67284107      26.86335373
H        4.72420073      17.50585365      24.50240326
C       15.84273624      18.59682465       2.93456435
C       16.71429825      21.37372780       5.34751558
C       20.75908661      23.60623169       5.29072428
C       19.72327995      21.21745873       2.92231631
C       16.58008194      19.44882011       2.17135358
C       15.95391560      22.17839813       6.14534092
C       20.05582237      22.84177589       6.17282915
C       20.53958702      20.39074898       2.21059990
C       16.94794655      19.11491203       0.84540880
C       15.70822716      21.82848930       7.50192595
C       19.97382355      23.21142769       7.55095339
C       20.95523453      20.74339867       0.90331560
C       13.14186001      19.59369850       7.31786299
C       19.72522736      22.83558655       1.12890458
C       23.82163048      22.70941925       1.23735487
C       17.05576897      19.82904625       7.17605972
C       23.54004669      23.07703781       2.51724386
C       17.27026939      20.17465401       5.86548710
C       13.44936943      19.25248718       6.03171444
C       19.30202293      22.45450974       2.37291408
H       15.56608295      18.85106850       3.95328999
H       16.89137840      21.64516449       4.32160759
H       20.80335426      23.33083725       4.25793219
H       19.39705849      20.95262909       3.92136931
H       16.90722847      20.40857887       2.56707716
H       15.52124405      23.10314941       5.73785734
H       19.57414436      21.94585037       5.85078859
H       20.87885857      19.45001602       2.61366606
H       13.50678539      20.51499748       7.74869967
H       19.42979431      23.77750969       0.69186616
H       23.45446587      21.76925659       0.83361775
H       17.46604347      18.90242958       7.56618404
H       22.94705582      22.40287972       3.16511035
H       17.86711502      19.53609085       5.22704220
H       14.07110596      19.92233849       5.41942596
H       18.64398384      23.12088776       2.92912436
C       11.18967152      18.27605248      10.19499969
C       12.27543735      21.09916878      12.58921719
C       16.36241722      23.61030197      12.76599407
C       15.25584412      21.10335159      10.16561317
C       12.00325871      19.08799744       9.45667267
C       11.44040966      21.91853333      13.31457233
C       15.52136993      22.86656570      13.54639530
C       16.04003906      20.31644630       9.37566566
C       12.33244133      18.75549507       8.12468910
C       11.11635208      21.60648155      14.65790844
C       15.13053989      23.32503510      14.82956791
C       16.27662277      20.65486145       8.02518654
C        8.40237236      19.65760994      14.42934036
C       14.89516544      22.63732910       8.33055878
C       19.26119041      22.42317200       8.48475838
C       12.49351978      19.60787201      14.45862865
C       19.20163536      22.79197502       9.79747868
C       12.80632019      19.92812157      13.17360401
C        8.72279835      19.31402397      13.14446259
C       14.67122459      22.28814125       9.63365364
H       10.92284393      18.56395149      11.22811127
H       12.53242683      21.34614563      11.55230618
H       16.66896248      23.21419334      11.80317593
H       15.08850479      20.86247444      11.20678520
H       12.38716507      20.01049232       9.88931656
H       11.03525257      22.80758476      12.86247540
H       15.17734146      21.88368988      13.20443344
H       16.50140190      19.40664291       9.78233910
H        8.76958942      20.57173157      14.86614513
H       14.46040821      23.54527092       7.93714905
H       18.77523804      21.51546478       8.14627933
H       12.85101986      18.69828796      14.90850830
H       18.67150497      22.18740845      10.52443886
H       13.44632530      19.27245140      12.61298180
H        9.36790180      19.96352386      12.54563999
H       14.08130074      22.92505455      10.27541542
C        6.47793388      18.31334877      17.30764008
C        7.54515123      21.26704979      19.76912498
C       11.43905926      23.56103706      19.76505280
C       10.51136971      20.93745613      17.30946350
C        7.27667427      19.13740540      16.56771278
C        6.80183411      22.14846992      20.49061394
C       10.70173168      22.78747177      20.62259102
C       11.33976650      20.13465691      16.58338737
C        7.59688473      18.80651093      15.23131275
C        6.45153666      21.87276649      21.83517075
C       10.37196541      23.25435638      21.92582130
C       11.65597153      20.44207573      15.23677731
C        3.68554997      19.90965271      21.60616875
C       10.25819778      22.43218040      15.43385315
C       14.37637424      22.51346397      15.70121193
C        7.63200426      19.74116707      21.62872887
C       14.05216312      22.96061897      16.95876122
C        7.97370768      20.04414177      20.34661293
C        4.00805092      19.54840088      20.31883812
C        9.95169067      22.09955215      16.72067261
H        6.22238207      18.59202576      18.33383560
H        7.81831169      21.50535011      18.74393272
H       11.69491577      23.17282486      18.82057762
H       10.27151871      20.69395065      18.33139038
H        7.64518690      20.04042816      16.98398972
H        6.47171879      23.08018494      20.06037903
H       10.36359692      21.78432083      20.32691002
H       11.77216530      19.22527695      17.02100945
H        4.04816246      20.82684708      22.02253342
H        9.83497906      23.32796097      14.98867321
H       14.07025242      21.52150917      15.37379360
H        7.95590687      18.82497787      22.09035492
H       13.49165535      22.30632019      17.60530663
H        8.55909061      19.35045052      19.75614166
H        4.62147951      20.19661331      19.72755623
H        9.26420212      22.71738625      17.27706337
C        1.77728426      18.56919289      24.49944878
C        2.96715498      21.47856522      26.85494041
C        6.84883261      24.01381683      26.80000496
C        5.78578520      21.24914932      24.48588181
C        2.57426381      19.39212418      23.74424553
C        2.17686629      22.32979965      27.57621765
C        6.10573530      23.19232941      27.59791756
C        6.52697563      20.36696243      23.75549698
C        2.88734269      19.06635475      22.40697861
C       20.55976105      21.98192406       0.35819522
C       24.57340813      23.55504227       0.39950970
C        6.87377501      20.65031242      22.40983009
C       17.73163414      19.98476982       0.04233498
C        5.69134045      22.77801895      22.62001610
C        9.63949108      22.45928383      22.83524323
C       21.76414299      19.88008308       0.12122443
C        9.32266521      22.92648697      24.08049583
C        3.36842918      20.23188782      27.38747406
C       -0.72609431      19.62484550      27.29364395
C        5.34614849      22.46777725      23.91112709
H        1.53902113      18.84351349      25.53362083
H        3.26410723      21.76173210      25.85233688
H        7.12170839      23.70464325      25.81354141
H        5.50990868      21.01637459      25.52158356
H        2.96227908      20.30716896      24.17376900
H        1.85475874      23.27650833      27.15190697
H        5.76044798      22.22901917      27.25221252
H        6.85318565      19.41274452      24.19518280
H       18.04380989      20.91613007       0.44732076
H        5.35560989      23.72289276      22.18252563
H        9.30746365      21.47634697      22.50986099
H       22.06280708      18.93519020       0.55227548
H        8.75265121      22.32228851      24.75870132
H        3.99184442      19.56772041      26.81217766
H       -0.11526221      20.28443909      26.69519806
H        4.74666929      23.15429497      24.48436546
C       24.01686859      24.30322838       3.03017330
C       24.74721146      26.81786919       5.79655313
C       28.77534294       1.49303758       4.93960905
C       28.16195297      26.33942413       3.06704450
C       24.73073196      25.15138817       2.23930693
C       23.98185158      27.58743286       6.62083960
C       28.29488945       0.76822501       5.98688745
C       28.90924454      25.56503296       2.22801948
C       25.02345085      24.79891777       0.88929600
C       23.85744476      27.27277184       8.00133514
C       28.23197556       1.34880197       7.28374052
C       29.19712830      26.00516129       0.91506362
C       21.34615135      25.15549660       7.04440212
C       28.03349686      28.08181381       1.40195262
C       31.11373138       1.02019286       1.41430712
C       25.22709274      25.29536819       7.61126280
C       31.18775558       1.10662270       2.76868153
C       25.38060379      25.65651131       6.30320835
C       21.41036606      24.79047203       5.72751713
C       27.74596024      27.63327599       2.65670896
H       23.83008385      24.57020187       4.08457994
H       24.86573029      27.07299614       4.75359917
H       28.76165009       1.06947350       3.92704320
H       27.90350342      25.98475647       4.05737877
H       25.09564018      26.09951782       2.62607813
H       23.43465805      28.45978546       6.24496078
H       27.95733452      58.68144989       5.84311628
H       29.23953819      24.59466362       2.52140737
H       21.83923149      26.06646919       7.36836815
H       27.72481918      29.06343460       1.08260608
H       30.41076088       0.34794149       0.95818943
H       25.66147041      24.38588524       7.99277210
H       30.59384727       0.43410608       3.38870740
H       25.97087669      25.03770828       5.65025330
H       21.94521523      25.41858101       5.02443361
H       27.17945290      28.26698112       3.34179044
C       19.86409378      23.95820808      10.24081039
C       20.63436890      26.75536346      12.75598717
C       24.72154236       1.28593028      12.69906902
C       23.60323906      26.58533669      10.71092701
C       20.56367874      24.73348045       9.35622597
C       19.81436157      27.56498528      13.49313641
C       24.60671425       0.28676897      13.63078213
C       24.32930565      25.78501129       9.86715889
C       20.63019562      24.38598633       7.98606348
C       19.38676643      27.16085052      14.77778053
C       24.42507744       0.60293621      15.00094604
C       24.48613358      26.11171532       8.49907780
C       16.38055229      25.37537575      14.40855789
C       23.09803391      28.06996536       8.88670349
C       27.71862602       0.65056521       8.39381027
C       20.66377449      25.10665894      14.49833584
C       27.44724846       1.28834963       9.56647968
C       21.06007767      25.50929642      13.25082111
C       16.80243683      24.87458038      13.21029472
C       22.99048233      27.75244331      10.20975399
H       19.81589699      24.23578262      11.29735661
H       20.99958420      27.04685593      11.76853657
H       24.82420731       1.04222798      11.66921902
H       23.50545502      26.32706451      11.74263763
H       21.07179642      25.62702560       9.68449879
H       19.47392273      28.52990532      13.12315178
H       24.61961365      58.17391205      13.34371471
H       24.78381729      24.88772392      10.21627998
H       16.72726631      26.34452629      14.74908924
H       22.58755493      28.91930771       8.48091030
H       27.46861458      58.52530289       8.29811192
H       20.96383476      24.14132118      14.87082291
H       26.98880005       0.76346636      10.38066673
H       21.71114540      24.88256645      12.66116333
H       17.51785278      25.45999527      12.60575485
H       22.41548729      28.38792801      10.85114288
C       14.45099735      24.24707222      17.37833405
C       15.77886963      26.75512695      19.70441246
C       19.95601463       1.75302923      19.82536125
C       18.58505821      26.28273201      17.32684517
C       15.17282295      25.04803467      16.54447365
C       14.92542267      27.53090858      20.43381882
C       19.28884315       0.80178350      20.55014992
C       19.44894028      25.52543449      16.59939003
C       15.55003643      24.60227966      15.25786114
C       14.50209522      27.12046623      21.71900940
C       18.82098389       1.08891976      21.86306000
C       19.83978271      25.93682289      15.29147625
C       11.52070236      25.33618546      21.39181709
C       18.49242592      27.92935753      15.56055355
C       24.32769585      58.52388000      16.00040817
C       15.89954758      25.14682007      21.47726822
C       24.06378937      58.84626389      17.29142761
C       16.25540161      25.52684784      20.21855736
C       11.85254097      24.85424232      20.15958595
C       18.07258034      27.47798157      16.77894592
H       14.20704651      24.58937645      18.36104584
H       16.08906174      27.08839989      18.70945549
H       20.31600380       1.50132489      18.83029938
H       18.29889679      25.97256660      18.33111763
H       15.46238422      26.04558182      16.87458038
H       14.57242012      28.47126579      20.05503845
H       19.10567856      58.75410461      20.11822701
H       19.84324646      24.60664558      16.97925568
H       11.84325695      26.30520439      21.67413139
H       18.09655762      28.86880112      15.17348957
H       24.39785767      57.50056076      15.70127964
H       16.25414467      24.20764542      21.89029312
H       23.93702507      58.07480240      18.04730606
H       16.91596794      24.92617226      19.62745285
H       12.43048477      25.46307182      19.48392296
H       17.33094788      28.05158615      17.31840897
C        9.76189041      24.22297096      24.48033905
C       10.80796433      26.83452606      26.80160332
C       14.26343155       2.14824915      26.98997879
C       13.78264713      26.27586174      24.30865097
C       10.46933937      25.00203896      23.61819077
C       10.13136864      27.65246391      27.66571999
C       13.30518818       1.51850426      27.73508263
C       14.68499756      25.55486488      23.57957649
C       10.79439545      24.54720116      22.31567764
C       28.73196602      27.26525688       0.48196280
C       31.98945808       1.78141117       0.58408850
C       15.02995682      25.93620110      22.26027107
C       25.76912117      25.66290283       0.04782906
C       13.53827667      27.83526993      22.47073555
C       18.14359856       0.13062106      22.66590881
C       11.10746098      25.18900299      28.52634621
C       17.67863464       0.48116460      23.89420319
C       11.31944656      25.59921837      27.23667717
C        7.28943777      25.27387047      27.30019569
C       13.18780041      27.42646027      23.72312737
H        9.51843548      24.59765053      25.48085403
H       10.94290352      27.15757942      25.76563644
H       14.40088367       1.84836352      25.93685532
H       13.52422714      26.00893021      25.32702637
H       10.81186485      25.99099541      23.92032051
H        9.70654869      28.59796715      27.32194138
H       12.68784904       0.73517466      27.28399277
H       15.15081024      24.65006065      23.99221230
H       26.09683990      26.60264587       0.41350380
H       13.13827324      28.71694565      22.03757477
H       18.00979424      58.06186295      22.29200172
H       30.25554466      24.22882843       0.31333795
H       17.16126251      58.70660400      24.48904037
H       11.87049580      24.95717049      26.55526733
H        7.87230825      25.93212700      26.65499115
H       12.48734474      28.00070572      24.28504372
C       23.73909187       1.33685386       3.22442985
C       25.03413010       4.49679422       5.47075701
C       28.79354668       7.37099075       5.34504080
C       27.54982758       4.10075998       2.72697496
C       24.47811317       2.19160652       2.45611787
C       24.26596260       5.33034229       6.24811220
C       28.01309013       6.55714655       6.12056017
C       28.15157509       3.28289485       1.80621850
C       24.63543510       1.96057701       1.06267810
C       23.93480682       4.98869514       7.57412529
C       27.70505905       6.91092968       7.45820904
C       28.49101448       3.77032471       0.52562636
C       21.30285072       3.02794313       7.32776928
C       27.58306503       5.93473196       1.17329645
C       31.47919273       5.81343365       1.00815284
C       25.19746017       2.91608334       7.28726768
C       31.13120270       6.10663128       2.29751945
C       25.50792122       3.27772737       6.00612831
C       21.69140816       2.56181049       6.10430527
C       27.24568558       5.43457079       2.40036654
H       23.63616753       1.51265240       4.29291725
H       25.27973366       4.78119040       4.47207499
H       29.05361366       7.08650255       4.33541965
H       27.28345108       3.72045755       3.70586991
H       24.92251968       3.08120608       2.89395452
H       23.89064980       6.27494287       5.86529446
H       27.64146042       5.61759996       5.71824265
H       28.36431694       2.24273753       2.04751658
H       21.74837875       3.91201854       7.75030470
H       27.36200333       6.96500492       0.92138016
H       31.12164688       4.88892841       0.54826367
H       25.56145668       1.99147403       7.71485233
H       30.48021698       5.43257570       2.85160494
H       26.13312149       2.62873125       5.40577650
H       22.48566437       3.05703473       5.55948734
H       26.74716949       6.06545258       3.13256931
C       18.89946556       2.20256543      10.03353596
C       19.96819305       4.78760719      12.45831394
C       24.04814339       7.19834232      12.59041595
C       23.19428253       4.18768787      10.15721798
C       19.89276123       2.82850909       9.34510136
C       19.34684181       5.63221836      13.32427692
C       23.37579155       6.29616022      13.37149143
C       23.99307060       3.38375711       9.41860580
C       20.29758263       2.37341523       8.06923866
C       19.09360313       5.23486614      14.66728878
C       23.05149269       6.60813189      14.71630001
C       24.39196014       3.75212026       8.10167503
C       16.26260185       3.18758750      14.07329750
C       23.13780594       5.83070755       8.38831139
C       26.92607880       6.06660891       8.28590298
C       20.08948517       3.06927466      14.14482307
C       26.63929749       6.42719173       9.57550716
C       20.34554672       3.49040318      12.86301231
C       16.22219658       2.75733089      12.78388023
C       22.77291679       5.44154167       9.65068245
H       18.57141304       2.57141829      10.99797630
H       20.15793419       5.10860777      11.44103241
H       24.32283211       6.96283531      11.56831360
H       22.86594200       3.87669849      11.14482498
H       20.39015007       3.68222117       9.77825928
H       19.02313042       6.65696526      13.01002789
H       23.08437920       5.34120703      12.96811867
H       24.32304382       2.40100384       9.80753803
H       16.94185066       3.97405076      14.36896992
H       22.80243492       6.77262020       8.00842667
H       26.60764694       5.12177086       7.89196348
H       20.33593941       2.08180809      14.47046661
H       26.03434563       5.77224398      10.19308567
H       20.81528473       2.81097126      12.16673946
H       16.85620689       3.21030211      12.04111958
H       22.12575340       6.09079409      10.24636936
C       14.61554337       2.44789433      17.33105087
C       15.86067390       4.50249147      19.77907562
C       19.67354202       7.26319981      19.74259186
C       18.62012863       4.39696407      17.29623985
C       15.45883751       3.01657939      16.41309357
C       15.08207130       5.33743334      20.51506042
C       18.89178658       6.42846346      20.49369431
C       19.23799515       3.54925394      16.42234993
C       15.43575668       2.59109044      15.05705643
C       14.67278957       4.98886156      21.82564926
C       18.50638580       6.77472353      21.81219101
C       19.47880173       3.94020319      15.07716084
C       11.83332634       3.31901264      21.52867508
C       18.44271469       6.08242369      15.58735180
C       22.36705971       5.68422747      15.55579090
C       15.84448719       2.86078310      21.54280853
C       22.07759857       6.01321983      16.85351944
C       16.26094055       3.24335456      20.30700302
C       12.04300976       3.13697743      20.19665146
C       18.20903397       5.68844652      16.86315727
H       14.62393284       2.78720546      18.35460091
H       16.15708923       4.80145788      18.77729034
H       19.95230675       6.96167374      18.73303032
H       18.45636940       4.07776737      18.31852722
H       16.12869263       3.82625270      16.70825195
H       14.75346088       6.28331375      20.11365318
H       18.53038597       5.46990919      20.09658813
H       19.52556992       2.55388284      16.72320557
H       12.56346035       3.84614515      22.14988327
H       18.12864685       7.04292727      15.24137115
H       22.07478714       4.72476053      15.14138126
H       16.12567902       1.89165258      21.96077156
H       21.55561447       5.32025814      17.47302246
H       16.87679100       2.59434533      19.70624542
H       12.95921040       3.51214671      19.72819710
H       17.70202637       6.35362673      17.56804085
C        9.25247860       2.66292882      24.10515976
C       10.43020630       4.82222795      26.56299019
C       14.68651867       7.27295399      26.75834274
C       13.88404465       4.22694349      24.39358521
C       10.41542625       3.07536626      23.53213692
C        9.79034042       5.62552977      27.45549965
C       13.87795162       6.42297554      27.45880699
C       14.63928032       3.37056255      23.64739418
C       10.64732361       2.88610148      22.15250778
C       28.21952438       5.12208080       0.20429678
C       32.30878448       6.69126463       0.26603618
C       15.06581497       3.72846866      22.34659386
C       25.34206009       2.87154675       0.23663557
C       13.88545132       5.84978580      22.62461281
C       17.70733070       5.93900204      22.60379791
C       10.29999447       2.95525479      28.06830406
C       17.30029297       6.33192110      23.84918404
C       10.68864918       3.47659302      26.86938858
C        6.61024094       2.66779876      27.42083740
C       13.49728680       5.48195171      23.88129425
H        9.07573318       2.78564429      25.13600540
H       10.72193909       5.23622513      25.60449982
H       14.97803116       7.00780725      25.73536682
H       13.53966045       3.94174695      25.37043381
H       11.19479942       3.56355405      24.11620903
H        9.54921341       6.66431141      27.23161316
H       13.53687000       5.49812841      26.99132538
H       14.94707394       2.38074732      24.03105927
H       25.78826332       3.76055312       0.68362302
H       13.56612492       6.80041742      22.19579697
H       17.38232803       4.97075367      22.18670845
H       10.44420242       1.89247596      28.26294327
H       16.64588737       5.69536114      24.42477798
H       11.15840721       2.83041668      26.14171982
H        7.16439390       3.37697577      26.81688881
H       12.88874245       6.13587093      24.44535828
C       23.82435417       7.32466412       3.02271032
C       24.72000122      10.28507233       5.37424326
C       28.76730156      12.77193832       5.37416077
C       27.72036552      10.04929829       2.91784930
C       24.54273224       8.20929909       2.26178384
C       23.99654198      11.12426281       6.17250729
C       27.99427032      11.93249226       6.11610174
C       28.45608521       9.17882824       2.16080809
C       24.89716530       7.88843012       0.93211359
C       23.68881989      10.76042271       7.51683664
C       27.65423393      12.25230408       7.45911551
C       28.85958481       9.52423668       0.84886581
C       21.02755928       8.59111404       7.26070642
C       27.74187088      11.67020035       1.14076197
C       31.68489075      11.40092850       1.21883559
C       24.85775948       8.65174389       7.14502048
C       31.31756592      11.76483727       2.49085093
C       25.16498566       9.02810955       5.87173653
C       21.37501144       8.23632050       5.99128056
C       27.35810280      11.31484413       2.39639068
H       23.55448532       7.57753801       4.02836704
H       24.94510651      10.58876133       4.37082815
H       29.02263641      12.50121117       4.34361315
H       27.40212631       9.77804184       3.93062234
H       24.84634399       9.15609455       2.66231704
H       23.65281677      12.09648705       5.81919527
H       27.62224960      11.00533009       5.70712900
H       28.74300194       8.19402599       2.53805923
H       21.34800339       9.52086735       7.67638350
H       27.48080444      12.63419056       0.73061180
H       31.40154839      10.44295311       0.82216048
H       25.18430901       7.68426132       7.53916931
H       30.72285080      11.08147907       3.08894467
H       25.75881195       8.36118984       5.22914505
H       21.99552345       8.88166046       5.38139725
H       26.77617264      11.98695564       2.98654366
C       19.05161476       7.25029087      10.11598396
C       20.21615410      10.18526745      12.58827877
C       24.14273643      12.83862209      12.55527973
C       23.08596420       9.99323845      10.13669777
C       19.88152695       8.06189537       9.39023972
C       19.49077988      11.04828072      13.36353588
C       23.37898636      11.99620056      13.31059170
C       23.80101395       9.14696121       9.33436584
C       20.23477554       7.72895098       8.05228424
C       19.17617226      10.73247051      14.70763874
C       23.05705261      12.31675053      14.65838432
C       24.11739159       9.50698853       8.00064182
C       16.48407364       8.76636314      14.38675117
C       22.97283745      11.62809467       8.36827183
C       26.86708832      11.38618946       8.26353741
C       20.35940742       8.61792850      14.40754795
C       26.53552055      11.72827625       9.53506279
C       20.65823555       8.95246029      13.11770153
C       16.76740265       8.43515205      13.10115433
C       22.66489792      11.25452900       9.65420723
H       18.78386116       7.53804111      11.13215828
H       20.45049667      10.46555138      11.56426525
H       24.39247704      12.59435558      11.53411293
H       22.83642387       9.68900585      11.12751007
H       20.25501251       8.97237778       9.80825901
H       19.14343262      11.99991417      12.96701813
H       23.00214005      11.06620407      12.89665890
H       24.12479973       8.17354965       9.70012569
H       16.87880325       9.68273544      14.82136250
H       22.66012001      12.58406448       7.99400663
H       26.51838875      10.46897697       7.82208586
H       20.69819450       7.66965485      14.80855751
H       25.91103554      11.04881954      10.15463543
H       21.22980881       8.27358341      12.49501991
H       17.39229584       9.08251572      12.49884319
H       22.09773636      11.93812275      10.26173306
C       14.62779808       7.37536860      17.30941772
C       15.68064976      10.24107552      19.70640564
C       19.60765076      12.84870148      19.71417236
C       18.59502029      10.03058910      17.35592651
C       15.40844536       8.21329117      16.54999733
C       14.90003300      11.07427120      20.45248413
C       18.83674622      11.99345875      20.47142410
C       19.32884789       9.17854214      16.58154869
C       15.69155979       7.91158247      15.20066452
C       14.51410007      10.71671677      21.76399612
C       18.47376251      12.33216763      21.78820992
C       19.62742424       9.49629211      15.23523140
C       11.73947906       8.64141655      21.54244041
C       18.43625450      11.60061741      15.53319073
C       22.30341530      11.43852234      15.46948528
C       15.70403194       8.60330772      21.48424149
C       21.99995422      11.77336693      16.75979996
C       16.09308624       8.98274326      20.23018837
C       12.06202316       8.28085423      20.26663589
C       18.13761139      11.26019573      16.82868767
H       14.39170361       7.65053558      18.34172630
H       15.99040031      10.54191589      18.71719170
H       19.85529709      12.57746696      18.71109772
H       18.36453438       9.76528835      18.39666367
H       15.80877209       9.12797737      16.98754692
H       14.59542084      12.04331303      20.06665039
H       18.49775696      11.05678844      20.06780052
H       19.69778061       8.24118233      16.97624779
H       12.13705349       9.54795742      21.97457314
H       18.10749054      12.55748081      15.13185120
H       21.98459816      10.51188755      15.04579830
H       16.02594948       7.64412165      21.87358284
H       21.41818810      11.11873627      17.39871216
H       16.71472549       8.31152248      19.61600494
H       12.73512077       8.91801739      19.67118835
H       17.55443001      11.93493176      17.42982864
C        9.63900280       7.43105268      24.36124039
C       10.84946537      10.26898861      26.79888153
C       14.78713608      12.81152344      26.86797714
C       13.75334835       9.94498730      24.34997559
C       10.52354336       8.19617081      23.64730263
C       10.11411667      11.13725662      27.54207420
C       14.02820873      11.95030594      27.61480141
C       14.52084446       9.10071850      23.59930801
C       10.87876987       7.84055614      22.32309914
C       28.49966812      10.79015636       0.33349147
C       32.45104218      12.28518105       0.41313693
C       14.91453171       9.46614647      22.29067230
C       25.63003731       8.78850842       0.11842167
C       13.72573566      11.57765675      22.57998848
C       17.68509102      11.46674156      22.59048462
C       29.61371040       8.64155483       0.04225528
C       17.32859802      11.82416439      23.86429596
C       11.20686436       8.99834538      27.30631638
C        7.15335226       8.46198177      27.35521126
C       13.34602356      11.19544220      23.83898354
H        9.36200237       7.70859098      25.37052917
H       11.16798878      10.55756664      25.78204536
H       15.07129192      12.56070709      25.85793495
H       13.45734501       9.61806488      25.35200119
H       10.95552826       9.11535740      24.08276176
H        9.83311272      12.11083221      27.16560173
H       13.71948910      10.99400997      27.19882584
H       14.83086586       8.13475418      23.99322510
H       25.91363907       9.75353622       0.50648606
H       13.42406368      12.52487564      22.16583633
H       17.34653282      10.51640034      22.19034195
H       29.87978172       7.65486765       0.44955686
H       16.71603203      11.16637135      24.45583153
H       11.81187439       8.31868362      26.71574211
H        7.71825743       9.14548016      26.75716209
H       12.73248386      11.85363388      24.42241097
C       23.81377602      13.12547970       3.04993367
C       24.79510498      15.72091866       5.39531946
C       28.83834457      18.27586174       5.38981390
C       27.79079247      15.58458424       3.01536417
C       24.60374069      13.94216537       2.29692602
C       24.06216812      16.57054710       6.16774607
C       28.06390190      17.42781639       6.15208817
C       28.55533409      14.75271606       2.26089382
C       24.97030067      13.57725239       0.97138232
C       23.77936935      16.25241470       7.51812124
C       27.78370285      17.74243355       7.50219870
C       28.93518257      15.10817051       0.94216311
C       21.00225067      14.36749077       7.24159718
C       27.74636269      17.20998764       1.23451328
C       31.65714836      16.90783691       1.19915235
C       24.95977974      14.15492916       7.21770525
C       31.31067848      17.26666069       2.47226191
C       25.25794220      14.48539925       5.92513990
C       21.33451080      13.98803234       5.97579432
C       27.36734390      16.83604813       2.49022889
H       23.51667213      13.42869568       4.04280138
H       25.01732636      15.99598312       4.35997438
H       29.07178688      17.98303223       4.38334942
H       27.49492073      15.28342819       4.03217983
H       24.94600105      14.87488937       2.67600536
H       23.70938110      17.49715233       5.74866819
H       27.70066261      16.50591660       5.74312210
H       28.86852264      13.79024601       2.66118765
H       21.30748940      15.33362484       7.64917278
H       27.43569183      18.15375900       0.83210647
H       31.34229088      15.95602036       0.77426159
H       25.29331398      13.22532272       7.62019539
H       30.70574188      16.57984352       3.08446956
H       25.85817528      13.80181122       5.31674480
H       21.91724396      14.64501572       5.34737062
H       26.74903488      17.49033165       3.09676480
C       19.20146942      13.00254631      10.19895363
C       20.25940323      15.77788734      12.61421680
C       24.35443687      18.29880714      12.71432877
C       23.22891998      15.57632446      10.18227196
C       19.92556572      13.85485077       9.41577244
C       19.54476738      16.64237404      13.39629650
C       23.54834557      17.47552299      13.42640495
C       23.94062996      14.71160889       9.40324402
C       20.27612114      13.48730087       8.08350277
C       19.18718910      16.30274773      14.72572327
C       23.18096352      17.79376602      14.76584721
C       24.23310089      15.03049278       8.04543591
C       16.43355751      14.42812252      14.39025593
C       23.06109619      17.13978195       8.35468960
C       27.01298141      16.88208771       8.31322002
C       20.30662155      14.16222477      14.41026020
C       26.74798584      17.19703484       9.62354279
C       20.65924454      14.51616192      13.12520409
C       16.77708626      14.02768803      13.12583256
C       22.78407288      16.81402206       9.64805698
H       18.95392990      13.30957413      11.21586037
H       20.56254196      16.05790329      11.60404301
H       24.61938667      18.02130318      11.69237423
H       23.02405548      15.31085205      11.21472454
H       20.24322319      14.81973171       9.77973652
H       19.23744965      17.59454727      13.02471256
H       23.14444923      16.53260612      13.01627827
H       24.30698013      13.76532650       9.77674675
H       16.72751808      15.40204525      14.76126003
H       22.73690033      18.07986069       7.94392824
H       26.64310455      15.93842888       7.88035202
H       20.62091255      13.21006966      14.81519890
H       26.14259338      16.52544403      10.23086166
H       21.23312759      13.83596897      12.50324726
H       17.33763886      14.68069363      12.50588799
H       22.21791649      17.49074364      10.28521633
C       14.63795567      13.10341072      17.36893654
C       15.61205959      15.83021641      19.78826141
C       19.64427567      18.35996819      19.74867821
C       18.47718811      15.56220341      17.32560921
C       15.35162544      13.95253181      16.56454086
C       14.86923218      16.68338585      20.54896927
C       18.85156822      17.52168083      20.49362373
C       19.21472549      14.70068073      16.56040573
C       15.70782757      13.56151581      15.24449158
C       14.50200272      16.33821106      21.87224007
C       18.50954437      17.85660172      21.82460022
C       19.57560349      15.04343987      15.23806286
C       11.74557590      14.48204803      21.53204727
C       18.44563866      17.17467880      15.54421234
C       22.38402176      16.92711258      15.54938602
C       15.66249275      14.21006870      21.57221031
C       22.04853058      17.25149155      16.82614708
C       16.02058792      14.58025074      20.30623627
C       12.12332916      14.06125641      20.28653145
C       18.09662628      16.82230949      16.81634140
H       14.34678364      13.43215752      18.34894752
H       15.89824963      16.14496422      18.79326439
H       19.92611313      18.06505394      18.74028015
H       18.19821739      15.29631424      18.34673691
H       15.62309456      14.92069244      16.91279411
H       14.55954933      17.65213776      20.14612579
H       18.49020958      16.59049797      20.08044434
H       19.51534081      13.74055004      16.95842171
H       12.03257084      15.47468758      21.89887619
H       18.17788887      18.13963890      15.13197327
H       22.04594421      15.98865032      15.10388088
H       15.96629715      13.24470901      21.98748016
H       21.43473434      16.57929802      17.41088867
H       16.61915398      13.88883495      19.71517754
H       12.72468472      14.74035549      19.65096283
H       17.49105835      17.49963951      17.42017555
C        9.81953812      13.23493862      24.46479797
C       10.86990452      15.87098026      26.87736893
C       14.74819851      18.26827812      26.83216858
C       13.73607922      15.57421684      24.45461845
C       10.57937050      14.05343533      23.67711258
C       10.11041832      16.71306610      27.62895393
C       13.98854733      17.42475128      27.59047508
C       14.49573326      14.72950840      23.70163918
C       10.98120213      13.63806438      22.37588882
C       28.52482605      16.35209274       0.42709678
C       32.42538834      17.77331162       0.38350514
C       14.88771629      15.08242607      22.38944054
C       25.75742912      14.42420101       0.16445412
C       13.73261166      17.20723343      22.68665314
C       17.71025848      16.99516487      22.62658691
C       29.71374893      14.24266529       0.13050507
C       17.39167213      17.33103561      23.90389633
C       11.28199768      14.61871433      27.39684296
C        7.31213665      14.04606056      27.42929649
C       13.34845734      16.83484840      23.94133568
H        9.51384926      13.57297325      25.44383049
H       11.16750050      16.18358040      25.88072014
H       15.04981804      17.96956825      25.84244156
H       13.43045616      15.24922943      25.45621300
H       10.87106991      15.02784729      23.99123764
H        9.78951740      17.65809822      27.26958656
H       13.65234661      16.46487617      27.20672035
H       14.78607655      13.75065613      24.08214951
H       26.06287575      15.37542439       0.56767994
H       13.43393421      18.17692375      22.26958847
H       17.35890579      16.07665253      22.18468857
H       30.03786850      13.28859806       0.51999521
H       16.75216866      16.65552902      24.49175072
H       11.88005352      13.95139790      26.79874039
H        7.92451811      14.70701218      26.82381058
H       12.73150539      17.53124809      24.54399681
C       23.79763794      18.63443375       3.01055622
C       24.94376946      21.38001633       5.51420259
C       28.99704742      23.85296249       5.51199388
C       27.89142036      21.22257423       3.04736090
C       24.57903862      19.47046852       2.28180408
C       24.30195045      22.21631813       6.38920641
C       28.28589439      22.96585083       6.26615906
C       28.67798805      20.38082504       2.31149721
C       24.96228790      19.12916946       0.95296299
C       24.04339981      21.80125999       7.72500134
C       27.91783905      23.28470230       7.59459257
C       29.00464439      20.68697929       0.97218680
C       21.21104431      19.95683289       7.33270502
C       27.74477959      22.75673103       1.19167948
C       31.95426750      22.70304680       1.24821770
C       25.07484055      19.65682793       7.18959665
C       31.63292122      23.05286980       2.52972460
C       25.33184433      20.07488251       5.92235613
C       21.48946381      19.65671158       6.02422810
C       27.41859627      22.43197060       2.48114181
H       23.51244926      18.90173531       3.99556327
H       25.13949585      21.72249413       4.50233650
H       29.29953766      23.57809448       4.50943279
H       27.62069702      20.95473862       4.08045769
H       24.94223022      20.41649055       2.68531799
H       23.99567795      23.19128227       6.09366226
H       28.00568962      21.99098969       5.86362267
H       29.02608490      19.44630623       2.74083328
H       21.58653450      20.84865189       7.79482985
H       27.38994598      23.70729446       0.74508655
H       31.62359619      21.77142334       0.81287080
H       25.35634041      18.66001511       7.49703074
H       31.03901672      22.37501717       3.14094901
H       25.82424545      19.41725731       5.20686245
H       22.10326004      20.34687042       5.42971277
H       26.80120659      23.11403656       3.07774782
C       19.37686539      18.51675224      10.23076153
C       20.41591072      21.24803543      12.80713558
C       24.54736900      23.95569611      12.90709496
C       23.57288933      20.92684364      10.34062386
C       20.15436935      19.36681747       9.48690891
C       19.61206245      22.08491707      13.52730560
C       23.77482033      23.09507370      13.63339138
C       24.19771957      20.08757401       9.46138859
C       20.42361450      19.08327866       8.11932755
C       19.23834610      21.76104736      14.86584568
C       23.38597107      23.41946793      14.95582485
C       24.44585037      20.50756264       8.12770844
C       16.50122070      19.85735321      14.44106770
C       23.40538216      22.63994217       8.67236614
C       27.20847511      22.35661697       8.41990280
C       20.49378777      19.68721962      14.62931633
C       26.89533043      22.67544937       9.70617008
C       20.85663795      20.02273750      13.35567093
C       16.86339760      19.50812912      13.17465115
C       23.16113853      22.21978760       9.94148350
H       19.17648697      18.74393082      11.27602005
H       20.71551895      21.52310181      11.80616856
H       24.86246109      23.67692947      11.91039562
H       23.38739014      20.59477997      11.34156132
H       20.55442619      20.26114655       9.93798447
H       19.25626373      23.02345657      13.11628914
H       23.43489647      22.15225792      13.21530056
H       24.51234817      19.09223557       9.74435711
H       16.83096123      20.77697372      14.89961433
H       23.11254501      23.63174629       8.35409451
H       26.94806099      21.41246033       7.98473835
H       20.81871605      18.73753357      15.05494404
H       26.36862946      21.96318054      10.31230927
H       21.46994400      19.37695312      12.78107548
H       17.50591469      20.16837502      12.58682251
H       22.64728355      22.87584877      10.63358688
C       14.54921627      18.47070122      17.29292297
C       15.62943363      21.34112930      19.77902222
C       19.70145607      23.99172974      19.86835670
C       18.52156639      21.03520966      17.47680283
C       15.33354282      19.31488609      16.56198883
C       14.82156563      22.17304039      20.50862122
C       18.95539474      23.15819550      20.65114021
C       19.31583214      20.19595909      16.73664284
C       15.68753910      18.99160194      15.22693443
C       14.46454334      21.84859848      21.84299850
C       18.62086678      23.51292419      21.97206306
C       19.69410133      20.53476906      15.40700722
C       11.69738293      19.76577377      21.55105019
C       18.41903305      22.61476898      15.64529037
C       22.59504890      22.54776382      15.72597027
C       15.77095699      19.79918671      21.63058090
C       22.20287895      22.90099144      16.99651909
C       16.11569405      20.13548088      20.35394096
C       12.02769661      19.38411713      20.28259850
C       18.07279015      22.24627495      16.92494774
H       14.29812813      18.73948097      18.29204369
H       15.88403034      21.59735298      18.76610374
H       19.95190811      23.69469643      18.85169983
H       18.24314117      20.75356102      18.48205376
H       15.67370987      20.23779106      16.98467636
H       14.45355606      23.09405518      20.08494377
H       18.62626076      22.19625854      20.27410126
H       19.66390419      19.24622154      17.14232063
H       12.09012127      20.68712425      21.96096992
H       18.07250404      23.54345131      15.22308826
H       22.27513695      21.61429214      15.32032204
H       16.10409546      18.87923431      22.07858467
H       21.54510117      22.23259354      17.58833122
H       16.74845886      19.45786476      19.76034737
H       12.67888832      20.00289536      19.68200111
H       17.45372009      22.91470146      17.51736450
C        9.72055626      18.51662064      24.44658279
C       10.84172058      21.34119797      26.84696198
C       14.94479656      24.13484955      26.84560776
C       13.76585579      21.15223312      24.46169281
C       10.53689194      19.31179428      23.69783401
C       10.05901527      22.18959999      27.58902931
C       14.23415089      23.26522064      27.61565018
C       14.58100033      20.32121086      23.74324226
C       10.86447620      18.95595551      22.36602974
C       28.53780937      21.89399338       0.40838432
C       32.69644928      23.59029007       0.42751986
C       14.94704151      20.64329720      22.41057014
C       25.76033783      19.98881340       0.16311440
C       13.63706207      22.69424438      22.61979103
C       17.86847496      22.66489792      22.81036377
C       29.79313087      19.80982208       0.18622188
C       17.51999855      23.05611610      24.07067871
C       11.30552959      20.13794518      27.42167854
C        7.32808304      19.62033081      27.41746712
C       13.29239845      22.35210991      23.89954948
H        9.47328472      18.82968712      25.46303368
H       11.07761478      21.59606171      25.82546043
H       15.20275116      23.85898590      25.84475899
H       13.49583626      20.86458588      25.47707939
H       10.92009640      20.22719955      24.10554886
H        9.68016815      23.11178589      27.16840935
H       13.93402672      22.28917503      27.22762108
H       14.92657948      19.38924599      24.17406273
H       26.09018326      20.90126419       0.58879852
H       13.28607368      23.60369301      22.16571045
H       17.54909515      21.69816017      22.41649246
H       30.11976242      18.86745644       0.60808623
H       16.91360283      22.40049171      24.69538498
H       11.89878941      19.44343376      26.80875969
H        7.96568727      20.29247475      26.82471466
H       12.63444519      22.99561882      24.47707367
C       30.93871880      51.46006393       9.26139355
C       -8.40682220      50.78943253      14.23609161
C       30.49872971      52.16762924      10.34551716
C       -7.96916819      50.09625244      13.15104008
C       30.84310913      51.77510452      11.65623665
C       31.58226585      50.58495712      11.84011936
C       30.49403954      52.51655197      12.81527710
C       32.04222488      49.88390732      10.70454788
C       31.73918533      50.31859207       9.44082165
C       -9.03037548      52.04827881      14.06563568
H       30.69437408      51.79898453       8.26067734
H       -8.26093769      50.40837479      15.22566223
H       29.90801430      53.06951904      10.22181702
H       -7.45668459      49.12538147      13.27736664
H       30.10407639      53.52006912      12.68286419
H       -7.15574169      48.97483444      10.86739063
H       32.09101105      49.75807953       8.56666946
H       -9.25516510      52.64859009      14.91468239
C        4.03715467      55.72374344       3.86696911
C        4.79312277      51.28610229       1.65240276
C        3.22021127      54.83851624       3.24024773
C        5.63720989      52.21836853       2.18653417
C        3.71734691      53.61714935       2.75384212
C        5.12002325      53.38023758       2.79951882
C        2.86503720      52.59299088       2.24781942
C        5.93175697      54.29690933       3.48947048
C        5.38861942      55.40910339       4.06788063
C        3.40110803      51.45191193       1.72513306
H        3.62908578      56.64667130       4.25753450
H        5.17246628      50.35843277       1.21351600
H        2.16824007      55.04773712       3.17944145
H        6.71815348      52.05617905       2.17051625
H        1.80672419      52.73586273       2.30813885
H        6.98610401      54.09511185       3.54330802
H        6.01587200      56.06451797       4.67607260
H        2.75226736      50.66425705       1.36506164
C       29.31790161      48.53971100      11.00483608
C       28.43623352      46.73685074      15.58818722
C       28.95172691      49.10935211      12.18231869
C       28.86898613      46.14971924      14.43205643
C       28.88702393      48.33757782      13.36802006
C       29.12445068      46.94784546      13.28996754
C       28.55630875      48.92068863      14.61087608
C       29.56987572      46.38863373      12.07526970
C       29.66946411      47.16595459      10.95659828
C       28.32968330      48.13819885      15.69954586
H       29.38110352      49.13134003      10.11847115
H       28.22190666      46.10420609      16.42233086
H       28.74651909      50.18058777      12.23456192
H       29.00430298      45.08311844      14.37221909
H       28.47034454      49.99992752      14.66494751
H       29.79184914      45.32427979      12.04261208
H       30.01318741      46.73365021      10.03293896
H       28.05707932      48.56925201      16.65128517
C       15.53593540      37.84457779      12.31046677
C       15.89781952      35.70505142      16.84041405
C       14.81568909      36.89673233      12.94549751
C       16.53788376      36.74779511      16.25209618
C       15.14352036      36.52158737      14.27989006
C       16.20622063      37.15800858      14.94369316
C       14.45137596      35.48668671      14.92898178
C       16.85145950      38.22923660      14.29030991
C       16.54368782      38.55748749      13.01095009
C       14.86727524      35.05385590      16.15032387
H       15.29877281      38.09600830      11.28822517
H       16.21394920      35.38207245      17.82261467
H       14.00111485      36.36041260      12.45787811
H       17.28721809      37.26493073      16.78026199
H       13.61773968      35.00332260      14.42845821
H       17.56452179      38.79802704      14.82037449
H       16.99854469      39.41156387      12.52573967
H       14.39694023      34.20882797      16.57421684
C       10.63405323      52.16872406      20.03606987
C       13.75900745      48.27628326      19.56362724
C       10.66080570      51.10582352      19.19272995
C       13.64289570      49.27841187      20.47838593
C       11.65778923      50.11575699      19.32652283
C       12.59738636      50.21467590      20.38106918
C       11.78472137      49.06446075      18.40570068
C       12.49036121      51.28819275      21.29110527
C       11.54976368      52.25689316      21.10019684
C       12.81508636      48.17378616      18.52139664
H        9.90900040      52.95380020      19.90425873
H       14.58019638      47.58747101      19.59709930
H        9.94784164      51.01502991      18.38119125
H       14.37046909      49.42505264      21.26257133
H       11.05556583      49.01449585      17.60845947
H       13.18528557      51.30939484      22.10996246
H       11.47211075      53.09013748      21.75029564
H       12.89956188      47.36780930      17.80651474
C        8.75332928      40.28903580      11.89302349
C       10.11667728      39.45014191      16.71616364
C        7.97774982      40.03667831      13.13345623
C       10.73694515      39.95065308      15.59021091
C        8.78745365      39.52235413      14.27801323
C       10.12815762      39.89078140      14.34836197
C        8.14847469      39.07500839      15.42358208
C       10.89331818      40.18695450      13.09693241
C       10.06228638      40.45441818      11.89185619
C        8.82733059      38.95728302      16.62423706
H        8.19623756      40.43864059      10.99152279
H       10.66333771      39.42042160      17.62379074
H        7.16881037      39.35516739      12.93320274
H       11.73054886      40.33411026      15.68113327
H        7.08191824      38.87522507      15.37693214
H       11.59086704      41.00770569      13.28439617
H       10.62890148      40.68067551      10.97865200
H        8.32853699      38.51889801      17.49562645
C        8.94886684      41.48592758       8.88954639
C        8.25626469      43.47454071       4.39548969
C        8.55743313      40.90867233       7.75173378
C        8.15025997      44.00352859       5.66175890
C        7.99474096      41.69458389       6.62706852
C        8.17137432      43.17587280       6.79518604
C        8.47915363      41.25643921       5.31966162
C        8.47431087      43.70388794       8.06054878
C        8.86561394      42.89336395       9.08747101
C        8.48473549      42.07611084       4.25759792
H        9.38530731      40.89354706       9.67057610
H        8.23586082      44.09104919       3.52037168
H        8.65583420      39.82712173       7.62463808
H        8.13392258      45.06783295       5.79369020
H        8.69602585      40.20047760       5.23483324
H        8.47140980      44.79454041       8.18740463
H        9.15523052      43.31799316      10.02956676
H        8.68397045      41.60978317       3.31856823
C        6.48357677      57.59103012      23.53437805
C       11.03239059       0.25594890      24.88648987
C        7.66635799      57.72200394      22.87190247
C        9.90861130      58.87334061      25.59746933
C        8.84460163      58.07292557      23.56483269
C        8.78216553      58.31420517      24.94895935
C       10.05232906      58.32764816      22.87002945
C        7.56651211      58.08181000      25.63350868
C        6.44501352      57.72333527      24.94369316
C       11.12432575      58.88219833      23.52030563
H        5.58453512      57.35366440      23.00304413
H       11.87648487       0.70105761      25.37363052
H        7.71829987      57.60540390      21.79357529
H        9.85515404       0.14312349      26.67284584
H       10.05787373      58.17097855      21.79564285
H        7.53003025      58.21741486      26.69776344
H        5.50773382      57.57996750      25.46410561
H       12.04967690       0.18619540      22.96994972
C       11.68074322      44.71687317       9.86312199
C       14.01409531      46.06113052      14.08072186
C       11.36101723      44.56388855      11.17870522
C       14.14158916      46.46038818      12.78049660
C       12.18318367      45.14843369      12.18019676
C       13.25924587      45.97614670      11.78655529
C       12.04302025      44.77956772      13.54244232
C       13.54633808      46.14451981      10.41615486
C       12.81003475      45.47340012       9.47883129
C       12.96390438      45.19675064      14.46656418
H       11.05989647      44.24343491       9.09388065
H       14.69894218      46.41669846      14.81064034
H       10.50827217      43.96036911      11.48283386
H       14.95011234      47.12985611      12.49610233
H       11.24734020      44.13516617      13.80930233
H       14.36652470      46.77241516      10.11935139
H       13.05606461      45.56071472       8.43514252
H       12.89224720      44.86503220      15.50656414
C       10.06113529      41.85224152      18.84600830
C       14.68401146      40.02538681      19.69560814
C       10.55493927      40.84440994      19.61713791
C       14.20115185      41.04735565      18.92102051
C       11.93559933      40.52375031      19.61301613
C       12.81183815      41.29686356      18.82979393
C       12.45290947      39.44534683      20.37175369
C       12.26603699      42.32515717      18.00174713
C       10.93554878      42.59465027      18.00821114
C       13.79944134      39.19956589      20.40569687
H        9.00640965      42.08976746      18.86086655
H       15.74393654      39.88593674      19.76518250
H        9.89545441      40.28567123      20.24728584
H       14.89362144      41.70753479      18.41497612
H       11.77558136      38.83661270      20.92333794
H       12.93899727      42.89508057      17.37782288
H       10.52569771      43.38779449      17.41608810
H       14.18983650      38.38687515      21.00363922
C       27.22842598      32.80583572      10.69085121
C       28.94186974      31.49267197       6.14791489
C       27.37791252      31.60391998      10.06395435
C       28.82972336      32.68838120       6.79904842
C       27.88754654      31.55586624       8.74160957
C       28.28522110      32.75703812       8.11098194
C       28.01738930      30.32230568       8.04012871
C       28.12501144      33.97922897       8.78432083
C       27.58624077      34.01377487      10.03290176
C       28.51934433      30.29771614       6.77441931
H       26.80539894      32.85589981      11.67097092
H       29.37628365      31.45850372       5.16135263
H       27.08655930      30.67894173      10.54132652
H       29.16893578      33.61469269       6.34829617
H       27.72065926      29.40222359       8.53971481
H       28.42387772      34.90005875       8.28392696
H       27.42583466      34.95553589      10.55285549
H       28.61466599      29.35380173       6.27302027
C       13.18100071      29.09794998      11.02728271
C       11.64487267      31.52504349       6.92464113
C       12.84207344      28.69265366       9.77072525
C       12.10958385      31.93725777       8.13987827
C       12.60560513      29.62741852       8.74158764
C       12.61540890      30.99901009       9.06495094
C       12.28597069      29.26260376       7.40393877
C       13.06101894      31.40147781      10.34294796
C       13.34957695      30.47306252      11.30070496
C       11.81976604      30.18616295       6.52082729
H       13.36051464      28.38813210      11.79653645
H       11.19767094      32.20479584       6.25076437
H       12.72388077      27.62500191       9.57434750
H       12.06075001      32.99173355       8.41385651
H       12.38536263      28.21663857       7.10292101
H       13.11973095      32.46936035      10.54886532
H       13.68928623      30.77524757      12.26721001
H       11.56423950      29.90096092       5.50403261
C       15.50971890      46.31752777      25.63329124
C       17.88711929      50.10426712      23.33160210
C       15.55784416      46.76272202      24.34852600
C       17.85455322      49.66818619      24.61868477
C       16.33663368      47.88821030      23.98745155
C       17.06658745      48.55507278      24.99483871
C       16.35828590      48.37842941      22.66550446
C       16.97607613      48.10009384      26.32927322
C       16.20908165      47.01122284      26.64577866
C       17.09964943      49.47655106      22.34108734
H       14.90620041      45.44377518      25.88527679
H       18.52898598      50.93862534      23.06557083
H       15.00299263      46.29476166      23.56547356
H       18.44449043      50.18028641      25.36899185
H       15.76051617      47.88129425      21.91803932
H       17.49843979      48.64395523      27.10186768
H       16.12965202      46.69340515      27.67848778
H       17.11485863      49.86501694      21.33725739
C        9.70978165      51.68449402       2.17701483
C        8.93374062      54.98924637       5.86600971
C        9.93887424      53.02363968       2.28715754
C        8.58772850      53.68415451       5.68831682
C        9.57232380      53.72270584       3.46354485
C        8.90574455      53.01870728       4.49028301
C        9.89090919      55.08633804       3.65899920
C        8.56257725      51.65798950       4.29360199
C        8.99071980      50.99077606       3.17585659
C        9.61883259      55.68417740       4.84594965
H       10.06015873      51.16350174       1.29762435
H        8.65873241      55.49185181       6.79195261
H       10.41934776      53.57970047       1.49682724
H        8.06942081      53.13976669       6.44673204
H       10.37215233      55.64146042       2.86995816
H        7.96083689      51.15675354       5.03822660
H        8.76721287      49.95547485       3.03464746
H        9.92134190      56.70335770       4.99605846
C       24.75689507      34.38530350      18.74891281
C       25.28621101      34.46461105      13.76947498
C       24.91334152      35.38853073      17.83455849
C       25.00662994      33.47350693      14.64839363
C       24.93454552      35.11146927      16.44541359
C       24.84132385      33.76269531      16.02186584
C       25.15562248      36.13567734      15.48744392
C       24.68999100      32.74660492      16.98730850
C       24.63379288      33.04362106      18.32055664
C       25.33507347      35.81062698      14.18411636
H       24.72815704      34.61596680      19.78092384
H       25.50975990      34.21561813      12.73645115
H       25.04487038      36.40259552      18.13663673
H       25.00367737      32.42118835      14.32896328
H       25.24522400      37.16035080      15.83482742
H       24.63804626      31.72181892      16.64859390
H       24.48275375      32.26628876      19.05976105
H       25.55981827      36.57058716      13.43369007
C       13.02831650      58.40058899      20.49299812
C       17.31267929      55.87017059      21.19626808
C       14.30430031      58.58638382      20.03380013
C       16.08204651      55.81496811      21.76721001
C       15.32374001      57.66575623      20.37502670
C       15.03939247      56.64244843      21.31301689
C       16.61370468      57.69869995      19.80245781
C       13.70810509      56.45034409      21.74584007
C       12.72771740      57.28962708      21.30566216
C       17.57313156      56.79632187      20.16778755
H       12.22577000       0.18082295      20.20771980
H       18.11998558      55.22225571      21.53355789
H       14.53585243       0.48199144      19.38320732
H       15.86319542      55.11817169      22.57699013
H       16.84241486      58.45125198      19.05080795
H       13.48460102      55.60517883      22.39504433
H       11.71741867      57.10344696      21.63399887
H       18.54558754      56.78305817      19.69273376
C       26.00570488      52.17200851      11.98797989
C       26.37400246      51.13261795      16.90413666
C       26.08631706      52.95334625      13.10508537
C       26.07619095      50.38298035      15.81055737
C       26.14509392      52.36058426      14.39940834
C       26.00973892      50.96581650      14.51668739
C       26.35143471      53.12601852      15.58052731
C       25.85262680      50.18833923      13.35725880
C       25.88613319      50.76245117      12.11263084
C       26.53197670      52.52987671      16.78444672
H       26.02700043      52.60770416      11.00492954
H       26.47195435      50.65890884      17.87515068
H       26.15286064      54.02408981      13.00409698
H       25.89712334      49.32784271      15.89493370
H       26.34728432      54.20568848      15.49222660
H       25.75152969      49.12581253      13.46439743
H       25.84822273      50.16650772      11.22119999
H       26.76460648      53.15594864      17.65429115
C       21.31832123       0.20554514      15.81978321
C       20.53400421      54.17591095      15.70604897
C       21.13658524      58.19573975      16.78939247
C       20.85187340      55.09606934      14.76094532
C       21.02884674      56.82688904      16.47702217
C       21.08033943      56.45043945      15.11435127
C       20.72661018      55.83963013      17.44640732
C       21.26279259      57.43177795      14.12245083
C       21.38853264      58.74462128      14.46417522
C       20.46479225      54.55160141      17.07452011
H       21.41750336       1.24172103      16.10641861
H       20.35798645      53.14933395      15.43632889
H       21.06795883      58.47231674      17.84384346
H       20.90405846      54.84714508      13.72254658
H       20.67234802      56.14955139      18.46962738
H       21.21426392      57.11777496      13.09029865
H       21.52020454       0.57303965      13.69643784
H       20.23052597      53.79175568      17.80113792
C       24.24129486      29.33016586       3.31987262
C       27.87765121      31.96612358       1.03657722
C       24.55225563      29.55295753       2.00728250
C       27.60781288      31.67548752       2.33587193
C       25.67088890      30.35224724       1.64980090
C       26.48810005      30.88878632       2.68022275
C       25.96209335      30.69124031       0.30705175
C       26.15357590      30.61815643       4.03321457
C       25.04837799      29.88257980       4.34324694
C       27.03675079      31.48666191       0.00581479
H       23.35867119      28.72974777       3.58650899
H       28.74645615      32.57145309       0.79298902
H       23.91825867      29.17146683       1.20169866
H       28.25271988      32.04412460       3.13900304
H        6.52133274      30.31187248      28.05773926
H       26.77355003      31.02311707       4.81078863
H       24.81324387      29.72100830       5.36502409
H        8.42117500      31.77153778      27.49264717
C       22.74247551      39.48757935      15.15510941
C       23.82761574      43.24692154      18.30193710
C       22.60499954      40.83978271      15.08150482
C       24.02479744      41.88937759      18.35172081
C       23.05403328      41.66439819      16.13357353
C       23.65014839      41.07707596      17.26476669
C       22.86260986      43.06951904      16.10853767
C       23.75913239      39.65709686      17.32545090
C       23.29900742      38.88950729      16.30731583
C       23.24113274      43.84057236      17.16594696
H       22.44187927      38.86646271      14.33464050
H       24.10881996      43.87282181      19.15999413
H       22.15997505      41.31539154      14.20119762
H       24.43942451      41.43362045      19.21701431
H       22.39670753      43.49290466      15.23428249
H       24.17310905      39.22628403      18.20921516
H       23.29187584      37.80884933      16.36623383
H       23.10820961      44.92733765      17.13077736
C       -4.88113308      37.70896530      20.91412735
C       -2.47968698      34.74746704      17.65330124
C       -4.85513782      36.36366272      20.73301125
C       -2.67877531      36.09598160      17.74181747
C       -4.13602781      35.78540039      19.66057587
C       -3.47025824      36.64466095      18.75863457
C       -3.96655607      34.39158249      19.51287842
C       -3.55019259      38.04957962      18.94107628
C       -4.21552992      38.56076431      20.01247597
C       -3.13792777      33.88163757      18.54976845
H       -5.38347626      38.12467575      21.77817154
H       -1.83880806      34.33008575      16.86223030
H       -5.34605694      35.69634628      21.47177315
H       -2.21315598      36.76103210      17.04137039
H       -4.44113255      33.72108078      20.23261642
H       -3.00803471      38.69798660      18.26285553
H       -4.24768972      39.62404251      20.17741394
H       -3.00127172      32.81364441      18.49567223
C       13.60848141      42.61323547      12.68104172
C       17.69305420      42.89764023      15.70096683
C       13.91508865      41.88230896      13.93135643
C       17.39181328      43.32793427      14.43877411
C       15.16738415      42.37020111      14.59856606
C       16.12935066      43.06725311      13.86106586
C       15.45611477      42.01673126      15.90865803
C       15.81611252      43.54213715      12.56280231
C       14.55336761      43.32218552      12.00915813
C       16.70699883      42.25185776      16.45589638
H       12.65307999      42.43898392      12.21486187
H       18.67718506      43.09999466      16.13864708
H       13.07495499      41.87393188      14.59468555
H       18.12433815      43.86229324      13.84374619
H       14.67708874      41.52788925      16.48635674
H       16.54627991      44.09033966      12.01725101
H       14.32360554      43.73744583      11.05811310
H       16.90806389      41.94972992      17.46136093
C       -9.33671951      50.47430420      24.87208939
C       -9.95726395      45.56581497      25.72987747
C       -8.48481464      49.43796158      25.13477325
C      -10.81468487      46.60995102      25.69009018
C       -8.99052429      48.13746262      25.30450058
C      -10.37326717      47.92258453      25.39820099
C       -8.11778927      47.03316879      25.26940346
C      -11.23709011      49.00523376      25.10169411
C      -10.72682571      50.23304749      24.79799271
C       -8.58200932      45.75924683      25.48379898
H       -8.94758129      51.45401001      24.62135696
H      -10.32953739      44.55583954      25.92633629
H       -7.41873264      49.59827042      25.12099266
H      -11.89982128      46.44875336      25.81980515
H       -7.10335255      47.23282242      24.98790169
H      -12.32113934      48.84253693      25.07065010
H      -11.38379002      51.05104828      24.51685905
H       -7.92483997      44.90258026      25.44612122
C        4.06435919      43.85380554      17.55816269
C        1.57397604      46.33625793      13.97503471
C        4.07587528      45.15179825      17.13920784
C        1.52407563      45.05556488      14.44147587
C        3.17057705      45.58766556      16.14701462
C        2.30898929      44.64599609      15.54431534
C        3.16026425      46.92757797      15.68896484
C        2.28844833      43.33091736      16.04215240
C        3.13616943      42.94193268      17.02638245
C        2.38624477      47.29177094      14.62164402
H        4.78375959      43.51116943      18.29627609
H        1.00604236      46.60977936      13.10708618
H        4.75967073      45.86563492      17.56820488
H        0.91845238      44.30340576      13.95422363
H        3.77482367      47.64965439      16.18859100
H        1.57252264      42.62739563      15.63225937
H        3.12399101      41.93197632      17.39483452
H        2.40952849      48.31290817      14.27206516
C        5.71334267      57.06127930      16.55326271
C        0.92100441      58.63836670      16.42579460
C        4.81142759      57.25648499      15.55093193
C        1.77612531      58.30291367      17.43635368
C        3.52626395      57.78721619      15.82829285
C        3.11629367      57.92706680      17.17487526
C        2.65586305      58.24710464      14.81316185
C        4.08034134      57.74300766      18.19542122
C        5.36015606      57.37782669      17.88476944
C        1.39095044      58.64887619      15.09564686
H        6.70574427      56.70177460      16.32336807
H       -0.10209394      58.90639114      16.64800453
H        5.06152725      57.06843185      14.51623821
H        1.43064654      58.31608963      18.46626091
H        3.02145839      58.25481796      13.79477787
H        3.82630992      57.94844055      19.22132874
H        6.09214401      57.33257294      18.67429924
H        0.75556564       0.02659940      14.29742432
C       16.97066498      42.51867294      25.34889984
C       21.82939911      41.26649475      25.63909340
C       18.11273956      43.23456192      25.55546379
C       20.69820786      40.59486389      25.25942039
C       19.39765167      42.63542557      25.40293312
C       19.45620918      41.26410675      25.11106873
C       20.60510445      43.34055328      25.62231064
C       18.26217842      40.58192444      24.75613403
C       17.04815483      41.18592072      24.89256477
C       21.79265404      42.67621231      25.76623344
H       15.99890709      42.98128891      25.53006363
H       22.76053429      40.74123001      25.77818871
H       18.04374695      44.25244904      25.86406326
H       20.74653625      39.54882050      25.07667923
H       20.56911278      44.43173981      25.70773125
H       18.31730843      39.54035187      24.40161514
H       16.14780426      40.64802551      24.68747902
H      -17.08536339      43.22041702      25.95746040
C       14.22366047      30.96095467      19.59802437
C       13.67657948      28.20082855      15.42360401
C       14.95161819      30.86295319      18.44528770
C       12.96101856      28.33425522      16.57239342
C       14.55991077      29.97990799      17.41185570
C       13.36418819      29.23226929      17.58870125
C       15.26756477      29.84300995      16.18921280
C       12.59528542      29.40940285      18.76431656
C       13.02592182      30.24100304      19.74881935
C       14.83038521      28.97486305      15.22386169
H       14.57317448      31.59174728      20.38582420
H       13.32156181      27.52769470      14.62493801
H       15.85083675      31.44659996      18.31587982
H       12.07473564      27.76784134      16.75932503
H       16.15342903      30.46082497      16.03194427
H       11.66698647      28.83411407      18.87251663
H       12.45946789      30.33977318      20.64905357
H       15.37494373      28.88141632      14.27528381
C      -17.07622528      51.46889496      26.28051949
C      -15.50453186      56.19001007      25.57860756
C      -16.39826584      52.09176636      25.26728249
C      -16.14081001      55.54898453      26.60701370
C      -15.98589993      53.44424438      25.40806007
C      -16.36599350      54.16131973      26.56389618
C      -15.24039078      54.10981369      24.40269089
C      -17.00374603      53.46834183      27.62295532
C      -17.32647705      52.15217972      27.49139023
C      -15.00848770      55.45417023      24.47513771
H       22.33147240      50.45306396      26.14377785
H      -15.39942646      57.26424026      25.61805344
H       23.60084343      51.55766296      24.36460495
H      -16.50842094      56.08504868      27.44854736
H      -14.87467384      53.53810120      23.54626083
H        1.57858694      54.00775146       0.01448592
H      -17.81725883      51.62633133      28.31360435
H      -14.45253181      55.94424820      23.70310783
C       -8.18973160      29.97688675      21.97431564
C       -5.04693508      30.37549210      18.09076118
C       -7.05096865      29.30981064      21.63201332
C       -6.32638645      30.80872536      18.30643654
C       -6.39108372      29.57159233      20.40781212
C       -7.01668978      30.42792130      19.47957611
C       -5.09540892      29.07617760      20.11650085
C       -8.29820728      30.93831253      19.79031563
C       -8.84628201      30.77723312      21.02095032
C       -4.43169880      29.49027443      18.99824715
H       -8.62389469      29.86786652      22.95457458
H       -4.52317619      30.68561363      17.20624542
H       -6.62042475      28.58622742      22.32267571
H       -6.82650518      31.44794273      17.59827232
H       -4.63386154      28.39288330      20.83676529
H       -8.82069874      31.48970032      19.03583336
H       -9.78854656      31.23685646      21.26036453
H       -3.44449639      29.09873772      18.78675079
C        3.71829271      46.91076279      11.77681446
C        3.28780532      47.54669571       6.82345772
C        3.75435853      46.05249405      10.72193718
C        3.27258897      48.40856552       7.87635469
C        3.63391972      46.54361343       9.39229679
C        3.45603490      47.92566299       9.19211864
C        3.68000412      45.68110657       8.27459049
C        3.37984967      48.79496765      10.31382942
C        3.51786733      48.30119705      11.57743835
C        3.50574589      46.16851044       7.00146580
H        3.81506681      46.51852798      12.77841949
H        3.14566374      47.93256378       5.80316591
H        3.88640642      44.98808670      10.86937618
H        3.07942080      49.47369766       7.73257208
H        3.82680178      44.61389923       8.43905640
H        3.18527651      49.86529541      10.17330551
H        3.44133139      48.97229767      12.44481754
H        3.51827431      45.49221420       6.16177082
C       -0.11735734      34.99941635      25.91031837
C        0.82358098      39.32071304      23.51222229
C        0.04334923      36.28551483      26.33689499
C        0.82045311      38.00702667      23.14137650
C        0.37785143      37.31986237      25.41835403
C        0.58987379      36.97225952      24.07274818
C        0.50192201      38.68561554      25.80384064
C        0.47949782      35.62166977      23.67394638
C        0.11427640      34.65195465      24.56365204
C        0.70109957      39.65617371      24.86732292
H       -0.41570696      34.22480774      26.61820602
H        0.95374864      40.07934189      22.77063751
H       -0.11684161      36.52987671      27.38022041
H        0.95651966      37.73248672      22.10967064
H        0.42953482      38.95797729      26.83794975
H        0.61402893      35.38856506      22.65788651
H       -0.02162663      33.62141800      24.23878860
H        0.76367086      40.70241928      25.18795204
C       32.06684875      38.01534653       2.12569857
C       28.17779160      41.15238190       1.73022950
C       30.74314880      37.84186935       1.83869910
C       29.52188110      41.34838867       1.83829951
C       29.86123085      38.94134903       1.75019085
C       30.39967728      40.24242401       1.86873400
C       28.45414925      38.77013779       1.64270997
C       31.80100441      40.39601135       2.00167942
C       32.61732864      39.31631088       2.16615868
C       27.63845062      39.85071564       1.65640664
H       32.69057465      37.16498566       2.32563567
H       27.52745438      42.01715469       1.69394696
H       30.32820129      36.85145569       1.75441492
H       29.95678902      42.35843658       1.89836466
H       28.03199005      37.77970505       1.57404268
H       32.19740677      41.39654922       1.99838793
H       33.67478943      39.43767166       2.31277537
H       26.54372025      39.72273636       1.60445142
C        8.94604206      55.24718475      25.48628998
C       13.11428833      54.46400833      28.15556145
C       10.24918938      54.98304749      25.14487267
C       11.76863956      54.31499100      28.45448685
C       11.19334888      54.61981583      26.09939957
C       10.78523254      54.51087189      27.44478416
C       12.63751698      54.42074203      25.72208214
C        9.42960548      54.75608063      27.77507019
C        8.53062153      55.14791107      26.81925774
C       13.53722095      54.66949844      26.86229324
H        8.25789261      55.63273239      24.75724983
H       32.63962936      54.50601959       0.43745211
H       10.57668114      55.11586761      24.08136559
H       30.22164154      54.26065063       0.95870036
H       12.87399387      55.08750534      24.87808418
H       27.94493103      54.70829391       0.28724101
H        7.50918484      55.43061829      27.09424400
H       14.57531166      54.89820862      26.65797424
C        2.21847153      58.36929703       2.23349524
C       -1.91353965      56.44359207       4.37068367
C        1.54298592      58.63203812       3.38862896
C       -1.20144403      56.11665344       3.24583387
C        0.40978405      57.86514664       3.75061822
C       -0.02581446      56.82755661       2.90362215
C       -0.34138283      58.18104172       4.92017698
C        0.69919568      56.56943512       1.71310723
C        1.79543781      57.31563950       1.39688194
C       -1.47474313      57.49347687       5.21590567
H        3.05670166       0.03695387       1.94676101
H       -2.79312181      55.87997818       4.64055729
H        1.85679793       0.53731906       4.03318167
H       -1.52801418      55.28269577       2.60905719
H       -0.02653588       0.06544606       5.52582455
H        0.35990882      55.75601959       1.04045463
H        2.36615944      57.11450577       0.47361353
H       -2.05205631      57.74958038       6.10650921
C       32.34189224      55.95338440       3.33789349
C       29.54604340      56.91835403       7.40134764
C       32.36973953      56.94768906       4.27870560
C       29.50281906      55.95389938       6.43752050
C       31.40430260      56.98527145       5.30971766
C       30.40986633      55.98514175       5.35346508
C       31.40733910      57.98887253       6.31229019
C       30.34479141      55.02438354       4.31838894
C       31.30020523      54.99643326       3.34568357
C       30.49575615      57.95696640       7.32569647
H       33.09710693      55.87340164       2.57767892
H       28.81258583      56.89189529       8.17309761
H       33.14391327      57.70660400       4.25709152
H       28.77573967      55.15922546       6.50001764
H       32.14166260      58.80561447       6.24020481
H       29.53795433      54.30600739       4.31617546
H       31.29832268      54.22706604       2.58975983
H       30.46715736      58.73412704       8.08740044
C       16.37626648      28.49611282      10.26599598
C       19.69455719      28.00720215       6.53320026
C       16.32950401      28.81037712       8.94267654
C       19.77011299      27.86892891       7.89043999
C       17.45726967      28.60688972       8.12211323
C       18.65192986      28.13625145       8.71268558
C       17.41668320      28.77233887       6.72056627
C       18.69271088      27.89062119      10.10182571
C       17.57733345      28.03914642      10.86285114
C       18.49501228      28.45948029       5.94889021
H       15.48956108      28.59412956      10.87499237
H       20.54854774      27.79199219       5.91825724
H       15.41729164      29.16313553       8.50686741
H       20.67852020      27.53094482       8.37069416
H       16.51309395      29.10987473       6.25888014
H       19.60769081      27.53112793      10.52212620
H       17.59525299      27.83327293      11.92330360
H       18.41424370      28.55394173       4.87229633
C        1.87074780      33.08621597      28.27882385
C       22.53702736      33.33417511       4.41655588
C       21.84839058      32.68490982       0.31301072
C       21.31194305      33.60313416       3.88973832
C       22.07168388      32.84115219       1.70544279
C       21.04936790      33.38742828       2.51859450
C       23.33925819      32.58320618       2.27774882
C       19.83330154      33.76391983       1.91363215
C       19.65731049      33.64560318       0.56680065
C       23.56462479      32.83796692       3.59798813
H        1.71129656      33.03934479      27.21541977
H       22.74460793      33.49981689       5.46876812
H        3.84284711      32.31747818      28.22086525
H       20.50127983      33.98265076       4.53449869
H       24.11735153      32.25367355       1.62611735
H       19.03144646      34.17240143       2.53437829
H       18.76343918      33.98160553       0.11026420
H       24.56424904      32.69085693       4.02101040
C       -5.82236910      44.41676712      18.68078423
C       -2.10232997      41.13438034      19.50931358
C       -5.19046354      43.97212219      19.80064964
C       -2.69997668      41.60275269      18.37988663
C       -4.13969851      43.02849197      19.70454407
C       -3.73409104      42.56478882      18.43630409
C       -3.47189951      42.56016922      20.85326386
C       -4.38822556      43.06037140      17.28001022
C       -5.41369343      43.95670700      17.40381813
C       -2.47720981      41.63560867      20.77120972
H       -6.63669348      45.10236740      18.75351143
H       -1.32192373      40.38571930      19.45442581
H       -5.48623133      44.33322525      20.78553581
H       -2.37418604      41.24160385      17.41397476
H       -3.72449803      43.03196335      21.77550125
H       -4.09431076      42.71412277      16.29148483
H       -5.93701267      44.30730820      16.51995087
H       -1.94565880      41.31835175      21.65926552
C       36.06801224      53.41129684       2.65758991
C       34.09032822      51.56919861       6.89408541
C       36.01132965      52.15069199       3.18443990
C       34.19049072      52.81650925       6.36210299
C       35.38660812      51.92290878       4.42586040
C       34.83979797      53.02780151       5.11721325
C       35.27489853      50.63534546       5.01265907
C       34.91774750      54.32476807       4.56720591
C       35.50883102      54.50520325       3.34339666
C       34.64122391      50.46831894       6.20459938
H       36.57054138      53.60350418       1.69395792
H       33.58760452      51.40582275       7.83961344
H       36.44387436      51.30375671       2.69123149
H       33.79756927      53.69314194       6.85622454
H       35.69535065      49.80547714       4.45560789
H       34.51464844      55.14511108       5.11424494
H       35.57883453      55.48395157       2.90039134
H       34.53606415      49.48609161       6.62940979
C       17.10399437      30.97370911      27.54673576
C       12.23476028      31.40757942      26.31623459
C       16.07185173      30.08185005      27.53789139
C       13.29852486      32.27673340      26.35888481
C       14.77434444      30.49685287      27.13351631
C       14.57526207      31.84439087      26.75287437
C       13.66465950      29.61315346      27.09450912
C       15.66854954      32.74982071      26.78323364
C       16.91072655      32.31870651      27.16795731
C       12.43017387      30.06578064      26.70153809
H       18.11810303      30.66799736      27.83076286
H       11.26616669      31.75291634      25.98776245
H       16.23755455      29.05309677      27.83948898
H       13.19049072      33.30467987      26.04119682
H       13.79386616      28.57347298      27.41460037
H       15.52455711      33.78786469      26.48448944
H       17.72816467      32.99909210      27.15945625
H       11.59771824      29.38728714      26.71723557
C        0.01586536      29.92360115       9.82399464
C       -0.38733074      31.11927795       4.94378567
C        0.74114144      29.60712814       8.72132492
C       -1.12100542      31.43040466       6.04682875
C        0.39636004      30.11976814       7.44239807
C       -0.73684072      30.95606613       7.33770323
C        1.13055134      29.80486679       6.28179693
C       -1.47488284      31.26389885       8.50489330
C       -1.12068856      30.75933647       9.71309853
C        0.76073164      30.30390930       5.06091785
H        0.28503731      29.49619675      10.78873730
H       -0.68004078      31.47610664       3.96741748
H        1.58066773      28.90490723       8.78352547
H       -2.00760913      32.05100632       5.97039652
H        1.99251115      29.12475395       6.37107325
H       -2.38238835      31.88304138       8.42738342
H       -1.74782312      30.95886230      10.56788445
H        1.30415285      30.02542305       4.17934704
C       16.21405792      35.37923050      10.27456665
C       16.31891823      33.03690338      14.69495010
C       15.34096813      34.52944565      10.90471268
C       17.12737274      33.97124481      14.12707710
C       15.63165188      34.05772400      12.19574547
C       16.81845093      34.48696899      12.84588528
C       14.79828072      33.11835098      12.83946037
C       17.65366745      35.40632248      12.18924999
C       17.39899826      35.79879379      10.92363167
C       15.16181755      32.58806992      14.03878593
H       15.99027538      35.77541351       9.30232620
H       16.53024292      32.67136383      15.68366146
H       14.42620754      34.19091797      10.41240120
H       17.98922157      34.39094543      14.64039040
H       13.87739754      32.82889175      12.36537647
H       18.53662682      35.77279282      12.70782280
H       18.10690689      36.42626190      10.39536762
H       14.55815506      31.83506203      14.50864506
C       -3.37791061      49.12381363      10.83350086
C       -4.90925789      45.21018600      13.56865788
C       -2.82259655      48.38841248      11.84514141
C       -5.43320894      45.83145905      12.46565723
C       -3.45382452      47.22100449      12.31499386
C       -4.70789194      46.84209061      11.78920555
C       -2.89423800      46.48411560      13.36982536
C       -5.21046543      47.56117249      10.67261600
C       -4.56874275      48.67856979      10.22142506
C       -3.59593678      45.49340820      13.99829388
H       -2.90884256      50.02398682      10.53010559
H       -5.50690556      44.48629379      14.11168194
H       -1.91421032      48.71270370      12.34424496
H       -6.42930698      45.59587479      12.13988400
H       -1.89716315      46.77308273      13.70990181
H       -6.14549160      47.23332977      10.20763683
H       -4.98742962      49.24938202       9.39299488
H       -3.20223331      44.95454025      14.84262466
C       22.28493309      43.38266373       7.19654703
C       23.33549881      39.50062561       4.19885969
C       21.62308311      42.22674561       6.89213514
C       23.99028969      40.66119385       4.49072552
C       22.16902542      41.32550049       5.96138859
C       23.41869926      41.60259628       5.37276411
C       21.47629356      40.15114212       5.58263826
C       24.07046700      42.82352066       5.70426226
C       23.52600670      43.68336868       6.60682297
C       22.04457664      39.26480865       4.71664953
H       21.84884834      44.07620621       7.88795471
H       23.77984428      38.77336502       3.53192568
H       20.66370583      41.98656464       7.33354568
H       24.98140907      40.86087036       4.07783699
H       20.46154022      40.00328445       5.96322250
H       25.00460434      43.04050827       5.21022463
H       24.03709602      44.59599304       6.88283777
H       21.49379349      38.35563278       4.45496941
C        7.93740940      53.58083725      16.65421867
C        4.08956242      52.25394058      19.61149979
C        6.59209299      53.61908722      16.48197365
C        5.44214487      52.27143478      19.77067947
C        5.73112106      53.15483856      17.51282883
C        6.28679657      52.68709183      18.71769714
C        4.33330154      53.10814285      17.35850143
C        7.69398880      52.61028290      18.84791183
C        8.49259853      53.05702209      17.83733940
C        3.54681611      52.64772797      18.36844444
H        8.62722588      53.92121124      15.87779236
H        3.45045590      51.97627258      20.41962814
H        6.13252783      53.97343063      15.55868149
H        5.90266466      52.00688934      20.72917748
H        3.87499666      53.45206833      16.41293335
H        8.07389545      52.18754196      19.77468681
H        9.56081867      53.01166916      17.91401863
H        2.48480892      52.59125137      18.22599792
C        3.70687079      41.81662750      13.67413330
C        7.26178312      43.46424866      16.82584190
C        4.33668375      43.02086258      13.81491661
C        6.98715639      42.16753387      16.20678139
C        5.29687929      43.21632385      14.83210182
C        5.63037300      42.10393143      15.64494991
C        5.92993069      44.43019867      15.08089447
C        4.91945267      40.92515183      15.56805038
C        3.95747304      40.78649521      14.58685112
C        6.80658865      44.55777740      16.19022369
H        3.01410031      41.66491318      12.86814785
H        7.93220568      43.53296661      17.68809509
H        4.10955143      43.84072113      13.11989021
H        7.19915485      41.31180954      16.86212349
H        5.69211531      45.26983643      14.48283291
H        5.19313908      40.08263397      16.19769669
H        3.44559240      39.84362030      14.49277782
H        7.10955381      45.56157684      16.50739861
C       14.41724396      45.37225723      17.81381798
C       17.67771149      42.69948578      20.53967857
C       14.29621029      44.66488266      18.97862053
C       17.79666901      43.52667236      19.46261978
C       15.44126797      44.11550903      19.58762741
C       16.69903564      44.26827621      18.96706772
C       15.34780312      43.28914642      20.72376823
C       16.79398346      45.08441544      17.82784653
C       15.68673897      45.63779831      17.26738358
C       16.43620110      42.61346817      21.20942116
H       13.53756428      45.74269104      17.31122017
H       18.49882126      42.13198471      20.89443016
H       13.32163429      44.47664642      19.42499352
H       18.73960876      43.61194992      18.92150307
H       14.37507820      43.16039276      21.15921974
H       17.77283859      45.21940231      17.35007477
H       15.79314327      46.26309204      16.38277435
H       16.33626366      41.95784378      22.05580711
C       34.39157104      34.72171021       0.94386631
C       18.26530647      38.16837311      26.97710419
C       35.70770264      34.81472778       0.59318435
C       16.94325066      38.07640457      27.32372475
C       17.37073517      35.88379669      28.33796120
C       16.45799446      36.92875290      27.99755478
C       18.71921349      36.00202179      27.93295288
C       15.10307503      36.80797577      28.37290573
C       33.48096085      35.70828629       0.52959806
C       19.14401817      37.10924530      27.26189041
H       34.04035950      33.89041519       1.52451515
H       18.65031433      39.08666992      26.54567146
H       36.41009903      34.04561996       0.89176488
H       16.25751495      38.89328003      27.13695908
H       19.41853905      35.22687531      28.22918892
H       14.42145061      37.59473038      28.12357903
H       32.44809341      35.61522675       0.79969186
H       20.19174767      37.21000290      27.00013351
C       22.86000061      46.47472382      21.07883072
C      -14.05794430      50.19221878      22.93005371
C       23.70582581      47.36926270      20.49610901
C      -14.99389172      49.36169434      23.47380066
C       24.38473320      48.32773972      21.28882217
C       24.12123871      48.38837051      22.67801857
C       25.36539078      49.19528580      20.74576378
C       23.27012825      47.42259979      23.26135063
C       22.68105316      46.47568130      22.47875404
C      -13.73913097      50.08254623      21.55405426
H       22.38652420      45.69540405      20.48338890
H      -13.56122017      50.94130325      23.54966545
H       23.89446068      47.29422379      19.44895744
H      -15.20618916      49.41028595      24.52819824
H       25.59073639      49.12084579      19.70029640
H       23.09745026      47.43553925      24.35161972
H       22.06538773      45.73991013      22.93894958
H      -12.97423744      50.70962143      21.15461731
C        8.75525951      48.68122482       5.56971264
C        6.81724167      51.68466949       9.07582664
C        7.49402237      48.90391159       6.02619267
C        8.08843708      51.46384430       8.63534546
C        7.25357342      49.90785217       6.98587704
C        8.34142017      50.59140778       7.55735493
C        5.93408203      50.20981598       7.39000654
C        9.64447117      50.35114288       7.05205584
C        9.84108162      49.43640900       6.05519438
C        5.72213411      51.07776642       8.43080902
H        8.92273808      47.90102005       4.83057070
H        6.63949919      52.27414322       9.97177124
H        6.65623569      48.32006836       5.67074203
H        8.92788792      51.92018509       9.15604591
H        5.10650444      49.75265884       6.85812807
H       10.47982121      50.87826157       7.50018215
H       10.81624508      49.25392532       5.65601397
H        4.70373583      51.29464340       8.73512650
C       -2.39432955      39.89737701      15.19076824
C       -0.12652782      41.78459549      11.13364410
C       -1.97278368      41.16160202      14.85371780
C       -0.77734244      40.60983658      11.37010384
C       -1.42611587      41.41057968      13.57952881
C       -1.40169442      40.37687683      12.61351395
C       -0.79004610      42.63429260      13.27789211
C       -1.85234165      39.09243774      12.98987389
C       -2.30227351      38.85432434      14.25786495
C       -0.09756076      42.79787827      12.11918354
H       -2.80041456      39.67621994      16.19820023
H        0.39265117      41.93370056      10.19022846
H       -1.95338571      41.97665024      15.56282902
H       -0.73100120      39.79367828      10.65015316
H       -0.83101022      43.40691376      14.00848484
H       -1.80901980      38.28626633      12.27477551
H       -2.59448457      37.83417130      14.55231094
H        0.45762151      43.71732712      11.91290474
C        7.45923471      45.24605560      23.01977730
C       12.33118534      44.59639740      24.48008537
C        8.28425121      44.13809204      23.18216896
C       11.35767651      45.79377365      24.49120331
C        9.59092808      44.27791214      23.58731842
C       10.12058067      45.56454849      23.68108368
C       10.47846413      43.07011795      23.87473869
C        9.32609463      46.65592957      23.37538719
C        7.97204828      46.51939011      23.13270187
C       11.56463337      43.36114883      24.92622375
H        6.39923716      45.10332108      22.86939049
H       13.11079788      44.80139542      25.18934250
H        7.88796186      43.14923859      23.03522110
H       11.86207294      46.69549179      24.18316460
H        9.85831165      42.25344467      24.22095299
H        9.77581406      47.63330078      23.41351128
H        7.33756542      47.37763596      23.07146645
H       12.26850986      42.50432205      24.92931366
C        1.58628762      34.54996109      10.25798130
C        3.74893332      30.81203461       7.72142076
C        1.94005668      33.28310013      10.61314869
C        3.14906263      31.97225380       7.34275293
C        2.46979284      32.39494705       9.64458656
C        2.51749492      32.80866623       8.29197788
C        3.07557464      31.17494011      10.01091576
C        2.07294321      34.10018921       7.95038414
C        1.66416359      34.97310638       8.91945648
C        3.72168922      30.41539955       9.08112526
H        1.27672231      35.25400925      11.03709316
H        4.25167227      30.19565392       6.99205542
H        1.88616514      32.98195267      11.65084743
H        3.14172006      32.28637314       6.30121231
H        3.04704428      30.85904694      11.04378414
H        2.10215926      34.40576172       6.91706753
H        1.38078797      35.98985291       8.67002487
H        4.21225691      29.49646187       9.38569832
C       18.71070862      31.43500519       4.04712152
C       21.22100830      30.93482590       8.38101578
C       19.96699333      31.01955605       4.35359049
C       19.91494751      31.15458107       8.08256149
C       20.40879250      30.97624588       5.70407820
C       19.49895096      31.24722481       6.73484230
C       21.76566124      30.72130775       6.03325558
C       18.19071770      31.68608856       6.38617945
C       17.82523537      31.82309532       5.08110762
C       22.16479874      30.75226212       7.34023571
H       18.38504219      31.51368332       3.00146627
H       21.56724167      30.92156792       9.41143894
H       20.69141006      30.75403595       3.55588365
H       19.18789673      31.29000473       8.89118767
H       22.47205353      30.57289696       5.25032282
H       17.49690056      31.90996170       7.17989063
H       16.88602448      32.21432495       4.81909657
H       23.22092056      30.61929893       7.57438135
C       30.22079659      36.12422562      11.52775288
C       31.90308952      32.93773651       8.01022720
C       30.26398659      34.76432037      11.43598843
C       31.94275284      34.29313278       8.14395714
C       30.84784317      34.12493515      10.31581783
C       31.38009453      34.91287231       9.27995205
C       30.85496140      32.71341705      10.16565990
C       31.30826759      36.32533646       9.38792801
C       30.75370598      36.91746902      10.48077869
C       31.34519958      32.13866806       9.03722286
H       29.73116493      36.56220245      12.37640762
H       32.31229782      32.46656418       7.11418009
H       29.82594490      34.12328339      12.20567322
H       32.40658569      34.89707184       7.38978195
H       30.41000366      32.09680176      10.93541431
H       31.70893860      36.93514252       8.57877731
H       30.70523071      37.98025894      10.53468037
H       31.34510422      31.05101395       8.91633797
C        2.12994289      52.37493515      26.25449944
C        6.12422037      49.70710373      27.75357819
C        2.64838672      51.16698074      25.87351799
C        5.55692530      50.86818314      28.18707275
C        3.81357408      50.64535141      26.50293541
C        4.38946104      51.36799240      27.56642151
C        4.46254063      49.49174500      26.03347969
C        3.82693052      52.61387253      27.94979095
C        2.73618388      53.11957169      27.29336357
C        5.57418442      49.00283432      26.65546227
H        1.24127555      52.75543976      25.73005676
H        7.03830767      49.36660004      28.21588707
H        2.20366502      50.60601425      25.06916809
H       24.79334641      51.42313385       0.47122398
H        4.08646345      49.01140594      25.13954544
H       23.09768295      53.19021606       0.21928801
H        2.33041883      54.09534454      27.58434105
H        6.05477238      48.10453796      26.27894783
C       11.73822689      41.75718308       7.87316895
C       10.83498096      38.41673660       4.21356010
C       11.72355270      40.39599228       7.81191874
C       10.80802536      39.77697372       4.25856733
C       11.48909283      39.72726059       6.59855223
C       11.14137459      40.47432327       5.45155478
C       11.62087059      38.31237030       6.48464680
C       11.15896702      41.89031982       5.54585075
C       11.46162319      42.51676178       6.72100973
C       11.27582932      37.66738129       5.32955742
H       11.96399021      42.24917984       8.82968521
H       10.50394630      37.88752365       3.32496738
H       11.93875408      39.81233215       8.69869328
H       10.52074718      40.31836700       3.37312698
H       11.99168301      37.76667023       7.34941912
H       10.93016148      42.47267532       4.66286039
H       11.49234962      43.62240219       6.75665855
H       11.31039619      36.59677505       5.27117252
C       15.11532497      32.89534378       7.33445215
C       11.84744072      32.62465668       3.54485130
C       14.95419502      32.01971054       6.30291510
C       12.14345932      33.60542679       4.44413424
C       14.02694035      32.29279327       5.26112795
C       13.24148560      33.46002197       5.33827591
C       13.78256607      31.35298920       4.22865772
C       13.48782921      34.39106750       6.37360716
C       14.40670109      34.11374664       7.35692453
C       12.68932533      31.49541092       3.42761421
H       15.77279091      32.65659714       8.15330791
H       10.95139217      32.71674728       2.93436575
H       15.49705410      31.11102104       6.28075123
H       11.49812794      34.46298981       4.54180765
H       14.41201210      30.48241615       4.13108492
H       12.90273857      35.30913925       6.40949059
H       14.54740143      34.81777573       8.15938473
H       12.45190144      30.74551773       2.68496108
C        9.67401409      36.07741547       7.98436689
C       10.97451591      33.32442856      11.99693298
C        9.60920525      34.74437714       8.26067734
C       11.26498890      34.60759354      11.60844898
C       10.10657406      34.23356628       9.48201466
C       10.80060101      35.10443497      10.35982609
C        9.84352684      32.90946579       9.89962578
C       10.89475060      36.47918320      10.02472115
C       10.28723717      36.95618820       8.90079594
C       10.24941540      32.47063446      11.12497234
H        9.21551037      36.46825027       7.08954144
H       11.29881859      32.96217728      12.94928551
H        9.11252403      34.04659271       7.58454895
H       11.82668495      35.25797653      12.27131748
H        9.28219032      32.27406311       9.25372791
H       11.42888737      37.15377045      10.70494556
H       10.29030609      38.03520966       8.73051167
H       10.01483440      31.46386909      11.43485260
C       13.71531296      35.23212814       0.88503855
C       -2.73931360      30.93459702      28.24854469
C       13.32040024      33.92353821       0.86110544
C       -2.33287954      32.23371506      28.33103752
C       14.24339867      32.90407562       0.54427689
C       15.58815384      33.25428772       0.24368790
C       13.85355568      31.54376221       0.43717989
C       15.96068573      34.61285782       0.32221934
C       15.05916405      35.57730865       0.63682598
C       14.74134254      30.57936668       0.05861976
H       12.98625565      36.01695251       1.11010528
H       -2.04516315      30.18068695      27.91905403
H       12.29143715      33.65919495       1.05222106
H       -1.33536446      32.51338959      28.00562859
H       12.80762482      31.29356384       0.66699910
H       16.98105621      34.88708496       0.10396804
H       15.35657883      36.62496948       0.69302893
H       -4.37125397      29.55573654      28.50527191
C        1.54227853      43.03188705       7.10803318
C        2.81122994      38.56150436       9.04948330
C        1.99413252      42.64643860       8.33597183
C        2.35603094      38.93624878       7.83712053
C        2.32171130      41.30638123       8.58875942
C        2.42995548      40.36677170       7.41027403
C        2.81639695      40.86290359       9.83090305
C        1.46203411      40.74844360       6.32369518
C        1.14832485      42.04514694       6.14835787
C        3.15208483      39.54799652      10.03213978
H        1.45261943      44.09299850       6.86126375
H        2.90940857      37.54335785       9.31343174
H        2.10674858      43.38252258       9.14772606
H        2.05622816      38.18182755       7.10069036
H        2.94467187      41.60229874      10.62597752
H        1.08330154      39.97088242       5.62246561
H        0.56534141      42.34558487       5.25893450
H        3.55405307      39.23539734      10.98818970
C       23.34410858      53.56595612      16.74546242
C       22.71254349      48.56459427      16.70043564
C       23.26340294      52.64906311      15.74577045
C       22.80263710      49.49716568      17.69380951
C       23.10774803      51.27013016      16.04222679
C       23.01874352      50.86589813      17.38838005
C       23.03523636      50.28021622      15.03545570
C       23.11908340      51.83984375      18.40163994
C       23.27469063      53.15539169      18.09214592
C       22.84903908      48.96939087      15.34683132
H       23.45748138      54.61538696      16.52218437
H       22.50074387      47.51580048      16.94421005
H       23.29227448      52.95091248      14.69994831
H       22.70035934      49.20796967      18.74186516
H       23.14896584      50.58862305      14.02076626
H       23.04942322      51.50851822      19.41090393
H       23.33147049      53.90019608      18.85986519
H       22.76192474      48.22927856      14.55141449
C       -4.41497135      45.24423599       7.27945137
C       -1.17201006      46.08547592       3.52958965
C       -3.69492221      44.42750931       6.46945143
C       -2.02573442      46.88325500       4.22422075
C       -2.86846423      44.94720078       5.43785048
C       -2.87197280      46.34145737       5.22822618
C       -1.98239362      44.14221573       4.68166542
C       -3.66832638      47.17457581       6.05211687
C       -4.40647697      46.63665009       7.06567812
C       -1.14139509      44.69851685       3.75391889
H       -4.99320173      44.82381821       8.08130741
H       -0.50987893      46.50659561       2.76895261
H       -3.71577668      43.35025406       6.63887167
H       -2.06985378      47.94781494       4.04571962
H       -1.89490974      43.09939575       4.88973475
H       -3.62719774      48.24849701       5.90697575
H       -4.96461391      47.29863739       7.72811556
H       -0.46106169      44.07540512       3.20535731
C       20.39459610      50.26129913       1.19678867
C       16.72566986      46.83625412       0.66393745
C       20.28261566      49.10722351       0.47150558
C       16.86633873      47.95299530       1.43436491
C       19.12130356      48.29509354       0.56821787
C       18.06895828      48.69266129       1.41793787
C        0.16380729      47.11182022      28.33942986
C       18.23209381      49.88304901       2.18370295
C       19.35382652      50.63670731       2.07601357
C       -1.00028098      46.39815903      28.37990570
H       21.25687408      50.88016510       1.08484197
H       15.80030441      46.26630783       0.67701322
H        2.27605605      48.82656860      28.37185860
H       16.04513359      48.29437637       2.06628346
H        0.95018905      46.77093506      27.69820595
H       17.40159607      50.16189575       2.83323264
H       19.45924759      51.56244659       2.64710832
H       -1.08472860      45.51916504      27.76572990
C        8.83636093      51.04535675      14.43557453
C        4.94140196      49.67051315      17.31925201
C        8.73586369      50.63879776      15.72908974
C        5.05498886      50.12269974      16.04372406
C        7.47348261      50.31893539      16.30101585
C        6.31357718      50.44280243      15.49859619
C        7.32788515      49.84113693      17.62089157
C        6.46807957      50.82726669      14.14282894
C        7.68304062      51.13196945      13.62526894
C        6.09617424      49.50720596      18.11196327
H        9.78587151      51.27151871      14.00266266
H        3.96559596      49.44567108      17.73257828
H        9.62485981      50.54772949      16.33688736
H        4.15592718      50.24552536      15.41020203
H        8.18909740      49.72037888      18.24374199
H        5.56821013      50.84980774      13.53160381
H        7.78458214      51.47112274      12.58514118
H        5.98976326      49.15743637      19.13646317
C        0.26015827      47.12078476      10.52099895
C       -1.45519423      43.25682831       7.85516882
C       -0.53602290      46.05857086      10.84112453
C       -0.80378783      44.40497971       7.52573347
C       -1.00215185      45.18983459       9.82919502
C       -0.53136307      45.37046051       8.50128269
C       -1.81743956      44.07197571      10.09546471
C        0.24521907      46.50639725       8.19851971
C        0.58850294      47.37316895       9.17429638
C       -2.00281072      43.11173630       9.13549614
H        0.69894886      47.76514816      11.29473400
H       -1.59224772      42.47187424       7.11799431
H       -0.81099296      45.83934784      11.86970329
H       -0.45728254      44.60005188       6.50308323
H       -2.21382928      43.94578934      11.09110260
H        0.58162111      46.64573669       7.16767740
H        1.15025187      48.24119186       8.93486595
H       -2.52366662      42.20079803       9.38929558
C      -13.74684715      30.74693680      20.96213341
C      -14.18376541      33.19934082      25.33777046
C      -13.73526859      32.06825256      21.30401802
C      -14.05308819      31.88282967      25.01268005
C      -13.81377411      32.47246552      22.65448761
C      -13.86620998      31.48557663      23.66462135
C      -13.93516922      33.83563995      23.01970100
C      -13.85539722      30.11572456      23.28493690
C      -13.81117058      29.76028633      21.96750641
C      -14.12957191      34.19412613      24.32702255
H       26.03362656      30.44526291      19.91498184
H      -14.36459732      33.49197769      26.35491943
H       26.08670044      32.84613037      20.55183601
H      -14.12921047      31.12914848      25.77275658
H      -13.89668369      34.58617020      22.23397064
H      -13.93255329      29.36049271      24.04971313
H      -13.82176113      28.69649696      21.68852425
H      -14.24564266      35.23177338      24.61250687
C       -6.06698656      49.32408142      27.84917641
C       -1.31651604      50.98614502      27.73399544
C       -5.46376944      50.42792130      28.36917877
C       -1.92651761      49.85698700      27.30058098
C       -4.06149817      50.61325073      28.22210693
C       -3.31184411      49.64588165      27.52425194
C       15.40213966      51.76708603       0.17143774
C       -3.95067549      48.48654938      27.02871704
C       -5.29148531      48.33969879      27.19498253
C       -2.07751846      51.94397736      28.45044518
H       -7.11956453      49.16359329      27.91551399
H       -0.25861546      51.14877319      27.56666756
H       12.74361706      51.17715454       0.35804817
H       -1.37372577      49.07307434      26.75807762
H       14.82876396      52.52352142       0.72405213
H       -3.37338233      47.75543213      26.47622490
H       -5.80230904      47.43342590      26.85991859
H       17.22955513      52.82137299       0.29800084
C       10.87066650      54.37125397       8.91293907
C        8.20295048      54.26581573      13.17338753
C        9.53719902      54.32388687       9.19244957
C        9.54479504      54.32083511      12.91866684
C        9.07247353      54.33928299      10.52432537
C       10.02204800      54.36885834      11.58379269
C        7.68695354      54.32783127      10.82616234
C       11.39969254      54.45025635      11.26060486
C       11.81104183      54.45232010       9.96072197
C        7.26379490      54.27564239      12.12338924
H       11.20859146      54.34096146       7.87472630
H        7.82740498      54.20386887      14.17743778
H        8.79952908      54.24523544       8.40551090
H       10.27182579      54.32575226      13.72955132
H        7.00162172      54.35803986      10.00507450
H       12.13354492      54.50667953      12.05597401
H       12.87426186      54.50270462       9.73679638
H        6.21480703      54.25888062      12.36549664
C       21.88441086      35.30150223       7.02327871
C       17.17951393      36.97370529       7.45570993
C       21.31537247      36.53287125       6.94767904
C       17.71895599      35.72731400       7.42131758
C       19.93891525      36.70412064       7.21891785
C       19.12012100      35.56812286       7.36216116
C       19.37217712      37.98556900       7.39880466
C       19.74222755      34.31338501       7.44715977
C       21.09682083      34.17156219       7.34014893
C       18.02406311      38.10235214       7.52978373
H       22.96526146      35.19704056       6.85172844
H       16.10680008      37.10293961       7.46938705
H       21.89471817      37.41697311       6.70666265
H       17.12523079      34.84924316       7.44947815
H       20.01484680      38.84374619       7.47491980
H       19.12990761      33.46112823       7.66009569
H       21.54291344      33.21264267       7.45219755
H       17.59309196      39.07363892       7.72807407
C       29.07442856      57.18366241      10.73417091
C       27.65933990      56.37392807      15.46808720
C       28.69817543      58.00878143      11.74402046
C       28.07064247      55.55640793      14.45846176
C       28.25753975      57.48126602      12.98434162
C       28.29991913      56.08265686      13.16642380
C       27.79595184      58.30260468      14.03393650
C       28.55991173      55.24951172      12.05101013
C       28.93495178      55.78408432      10.85835361
C       27.48185921      57.75539017      15.24291897
H       29.45536804      57.61099625       9.80979538
H       27.46659470      55.94245529      16.44942093
H       28.76444626       0.16599260      11.61123562
H       28.24073029      54.51068115      14.60606575
H       27.69072342       0.42365056      13.84765625
H       28.40579605      54.18205261      12.16781521
H       29.13799858      55.13040924      10.00457573
H       27.09939766      58.38734436      16.03831482
C       21.49997330      42.48909378      22.62261200
C       20.66803169      41.35886002      17.83352661
C       21.63833237      41.34229279      21.90499496
C       20.67899704      42.52767944      18.52017975
C       21.31388283      41.32822037      20.54182053
C       20.95176125      42.54866791      19.91399002
C       21.35042191      40.13351440      19.78990364
C       20.79050446      43.70895386      20.69294357
C       21.01059151      43.66210938      22.03727341
C       21.02120399      40.14559937      18.48509026
H       21.80458450      42.50199890      23.65174866
H       20.46768570      41.35265350      16.78092575
H       22.01508141      40.43655777      22.35378838
H       20.48447227      43.46289444      18.02714157
H       21.63569450      39.20328140      20.29577065
H       20.42281342      44.61789703      20.22941589
H       20.78816605      44.49492264      22.67334747
H       21.03075981      39.24261475      17.89807892
C       -1.79454374      42.15053558      24.67917061
C       -5.31403351      45.56720734      25.30320549
C       -2.98891878      42.37249756      24.05472183
C       -4.32243252      45.12936401      26.11694336
C       -3.88958669      43.32753372      24.54070663
C       -3.56996512      43.99918365      25.74594116
C       -5.06624699      43.69051743      23.83883476
C       -2.43716907      43.58598328      26.48605537
C       -1.54313302      42.72100067      25.93502045
C       -5.74644089      44.82336044      24.18333626
H       -1.07944667      41.45432663      24.21150208
H       -5.81160164      46.48840332      25.50857544
H       -3.26967430      41.80218506      23.18343925
H       -4.07889605      45.68241882      27.01416016
H       -5.40511894      43.09972382      22.99182129
H       -2.26447678      44.01887512      27.47804451
H       -0.63896340      42.48190308      26.47107506
H       -6.61155796      45.15412903      23.63122940
C       12.74709892      39.39856720      11.65630817
C       13.45747471      38.15555191      16.52402496
C       11.78572273      38.94625854      12.71929359
C       14.04569054      39.08879089      15.67740726
C       12.49469757      38.52101135      13.96288395
C       13.55816650      39.31306076      14.39663219
C       11.97656918      37.51971054      14.75726414
C       14.15061188      40.35270691      13.47612953
C       13.79111481      40.11400604      12.02358818
C       12.43823624      37.35039520      16.05496216
H       12.53426266      39.17069626      10.60350418
H       13.83739758      38.02767181      17.53589821
H       11.08690357      38.15716934      12.40223503
H       14.93923283      39.62495422      16.00840759
H       11.13016605      36.92411041      14.38695908
H       15.22194862      40.24706268      13.52207184
H       14.46257973      40.49573517      11.29454613
H       12.00613499      36.57863998      16.68581963
C        0.09574769      50.76877594      13.31520367
C        1.34113407      52.74700928       8.86749744
C        0.04808687      50.30407333      12.03640747
C        1.24662232      53.25686646      10.12818050
C        0.41598332      51.11539459      10.94415665
C        0.81599385      52.44606018      11.20718575
C        0.39925703      50.67228317       9.61097622
C        0.77909631      52.93046188      12.52892590
C        0.46501461      52.10895920      13.57033539
C        0.88616300      51.44150543       8.59093666
H       -0.16017731      50.11715698      14.14183235
H        1.69706905      53.38797379       8.05698204
H       -0.24227621      49.29288483      11.84076595
H        1.49411297      54.29697037      10.32218075
H       -0.05715490      49.71335220       9.39282322
H        1.00741506      53.97657394      12.67500877
H        0.49206856      52.48762512      14.57118225
H        0.89076924      51.09852982       7.58404160
C       -2.81092668      38.25706100      26.67833710
C       -7.44367170      39.77183533      25.52018929
C       -4.01178837      37.63020325      26.67461586
C       -6.25984335      40.41841888      25.66063881
C       -5.19307661      38.32535934      26.32059860
C       -5.10691929      39.70472336      26.06725883
C       -6.43226957      37.67599487      26.11950493
C       -3.85716033      40.35260773      26.16272545
C       -2.72608423      39.64014816      26.39575958
C       -7.53170061      38.37785339      25.72497940
H       -1.91562092      37.69186401      26.86761284
H       -8.35184765      40.32334137      25.26202202
H       -4.04191828      36.55787659      26.86824036
H       -6.18106890      41.48321533      25.50144196
H       -6.47952271      36.61034775      26.27095985
H       -3.84511924      41.42536545      26.04665565
H       -1.75876999      40.12664413      26.40259171
H       -8.47850418      37.89463425      25.57493973
C       -7.42137480      40.08005142      22.30928040
C       -6.96160555      38.50089264      17.57423592
C       -6.96227121      40.67587662      21.17022514
C       -7.53002930      37.95685196      18.68574905
C       -7.01929283      39.98175049      19.93734169
C       -7.57110119      38.67573929      19.90411568
C       -6.50108385      40.54406738      18.75593758
C       -8.07381248      38.10546494      21.09691429
C       -7.98695707      38.78509903      22.27543640
C       -6.45302391      39.82227325      17.60323524
H       -7.33934116      40.60590744      23.26240540
H       -6.92280817      37.94349670      16.68126678
H       -6.51842308      41.65835953      21.16600227
H       -7.92865324      36.94847107      18.67645073
H       -6.09638929      41.55968857      18.79762840
H       -8.48516750      37.10383224      21.05556679
H       -8.33002949      38.30255508      23.20174217
H       -6.00426531      40.24921417      16.72191048
C        5.72636652      42.72904587      10.44853687
C        8.71250916      43.26193237      14.51411629
C        6.05148411      41.88325882      11.49658775
C        8.52493858      43.95243454      13.39590073
C        6.96209288      42.27994919      12.49563217
C        7.55120850      43.53664017      12.38407040
C        7.28483200      41.36274338      13.64412308
C        7.20956278      44.38495636      11.33895683
C        6.30029631      43.99571991      10.36911488
C        7.97388268      42.01823044      14.85692501
H        5.00878954      42.42442322       9.68703747
H        9.41258526      43.63036728      15.25699043
H        5.59162855      40.89963531      11.58367729
H        9.06398201      44.87771988      13.22838688
H        6.34120750      40.96926880      13.96116447
H        7.69047165      45.33015442      11.26510429
H        6.07851505      44.65697861       9.54027271
H        8.73901367      41.35937119      15.27117252
C       28.41315269      37.37669373      16.36287117
C       27.84212875      32.39658356      15.79034519
C       28.39790535      36.54178619      15.27707291
C       27.81904221      33.22851944      16.87142754
C       28.20095253      35.14660645      15.42738342
C       28.01612091      34.62188339      16.72229958
C       28.19066429      34.27366257      14.32626438
C      -11.72055435      35.49878311      17.83278275
C      -11.52322674      36.83518600      17.66544151
C       28.03372765      32.92894745      14.49469566
H       28.56661606      38.45483780      16.24261665
H       27.70182037      31.34454918      15.91558647
H       28.51342773      36.96130753      14.26515675
H       27.67055702      32.80860138      17.87396622
H       28.27324295      34.70586395      13.32826805
H      -11.85072899      35.08668137      18.83033371
H      -11.50274277      37.50624847      18.52134895
H       28.04413986      32.26118088      13.62012196
C       24.14031219      55.29270554       1.38504028
C       23.49301529      52.27664948       5.38143969
C       25.00274849      54.63944244       2.22319603
C       22.63066483      52.87054062       4.50195456
C       24.51295280      53.84021759       3.29344320
C       23.11622238      53.67765808       3.44980288
C       25.38368797      53.22833633       4.21998453
C       22.25006104      54.36593246       2.56238198
C       22.74570465      55.16751480       1.56665623
C       24.88592339      52.47742081       5.25787020
H       24.53050232      55.90247345       0.59427601
H       23.10882950      51.64303207       6.16144228
H       26.06628418      54.74559784       2.09055924
H       21.56517029      52.72889709       4.60806990
H       26.45007133      53.31429291       4.09708643
H       21.17731857      54.24451447       2.67015982
H       22.06701660      55.68641663       0.88077050
H       25.58174133      51.98583984       5.93598652
C        7.21787930      31.95395279      15.63424492
C       12.18089390      31.40585709      15.43020248
C        8.04414654      31.40206337      14.69879055
C       11.34973812      32.16845703      16.20870399
C        9.44409752      31.47983933      14.85795116
C        9.96288109      32.19762421      15.95675182
C       10.34709549      30.77325249      14.02380466
C        9.08354950      32.84854126      16.84654045
C        7.74009848      32.69489670      16.71537781
C       11.67175198      30.71023560      14.32368183
H        6.14088917      31.81866264      15.55522156
H       13.20411301      31.31649399      15.70843506
H        7.65095091      30.85408020      13.88056183
H       11.72887993      32.69866180      17.06889343
H        9.96729565      30.25506401      13.18256760
H        9.49908733      33.44825363      17.65653610
H        7.04790115      33.15826035      17.40309143
H       12.33695316      30.11370277      13.71761227
C        3.79498720      46.46064758      25.37660217
C       -0.08460982      48.66839218      23.06166458
C        2.71972251      47.16215134      25.83006287
C        0.99054354      47.94579315      22.62662888
C        1.79325545      47.75387192      24.92528725
C        1.97449756      47.51924515      23.55204964
C        0.70144969      48.56547928      25.33324432
C        3.12435055      46.84302521      23.10243416
C        4.02425814      46.32035446      23.99133110
C       -0.20120545      49.01890564      24.41345787
H        4.51068020      46.02042389      26.03601646
H       -0.88079721      48.96537018      22.36977768
H        2.61117601      47.32154846      26.89797020
H        1.10911524      47.66872787      21.57153893
H        0.62398177      48.83768463      26.37567520
H        3.27586770      46.72918320      22.02520943
H        4.88928223      45.80747986      23.63628578
H       -1.03806746      49.68402863      24.72348213
C       21.42733574      38.65150833      12.15099049
C       23.83152580      39.71571350       7.89371729
C       22.08274078      39.75204086      11.70406818
C       23.26601028      38.58272552       8.38564873
C       22.64869308      39.76485825      10.41635609
C       22.56572533      38.60239792       9.61676598
C       23.26241493      40.92195892       9.89387608
C       21.85228920      37.48545456      10.09688377
C       21.29736137      37.50721359      11.34340286
C       23.75339317      40.91961670       8.62624359
H       20.95250702      38.68648529      13.10311794
H       24.37575150      39.71075058       6.94919205
H       22.14551163      40.65407944      12.32094574
H       23.36689377      37.63891602       7.85182762
H       23.31106377      41.81336212      10.48327637
H       21.80488586      36.58988953       9.49422550
H       20.74885368      36.65632248      11.72174168
H       24.13897133      41.82482147       8.17923260
C       22.71322632      46.89576721       6.20447493
C       24.74987602      50.28436661       3.12529063
C       23.99667358      47.28175354       5.96687984
C       23.47202492      49.92008209       3.39240217
C       24.26270294      48.32750320       5.05196762
C       23.19091988      48.94375610       4.36885452
C       25.59047508      48.74658966       4.78719282
C       21.86666298      48.52839661       4.64746571
C       21.64433289      47.53055191       5.55202675
C       25.82198524      49.70737076       3.84490037
H       22.50333023      46.08915329       6.91894245
H       24.96636772      51.04204559       2.39718580
H       24.83628082      46.80913162       6.44858074
H       22.66138077      50.38235092       2.85617852
H       26.37134552      48.29690552       5.35402346
H       21.05169868      49.00764084       4.13394356
H       20.65256310      47.20533371       5.76282692
H       26.83172607      50.05595398       3.62213802
C       11.32687759      34.12936783      24.34936523
C        9.17476177      32.60522461      20.08187675
C       11.82108116      33.62988663      23.18858910
C        8.70071983      33.12975311      21.24840164
C       10.94369698      33.22322845      22.16321373
C        9.54954433      33.40647507      22.33009529
C       11.42398071      32.67949295      20.94244957
C        9.06653595      33.88252258      23.56802177
C        9.93299770      34.21947861      24.55877113
C       10.56235695      32.34919739      19.94698906
H       11.99217701      34.52722549      25.09250450
H        8.52516174      32.35610580      19.27902794
H       12.88973331      33.59936523      23.02623749
H        7.63650560      33.27427673      21.37654304
H       12.48071194      32.57927704      20.82336426
H        8.00350952      33.99566650      23.71882629
H        9.57683659      34.60242844      25.49999809
H       10.96402740      31.92007446      19.01543999
C        4.70924616      51.26317596      23.50465202
C        9.24597931      49.92412949      21.82029343
C        5.12263203      50.33963776      22.58877754
C        8.81845760      50.83290482      22.73639870
C        6.51665211      50.13760757      22.36881638
C        7.44384050      50.92382431      23.07942581
C        6.98652887      49.17921829      21.44308662
C        6.97830296      51.77922440      24.11654091
C        5.64525652      51.92319107      24.32703400
C        8.31959438      49.07082367      21.17877388
H        3.64322877      51.43674469      23.65307999
H       10.30267429      49.82703781      21.58759880
H        4.42133093      49.79804611      21.98909187
H        9.53190994      51.47292328      23.24856567
H        6.27781534      48.51330185      20.97760010
H        7.70306349      52.34399033      24.71076775
H        5.28184319      52.57458496      25.11277199
H        8.68156528      48.30193329      20.52503777
C       19.86028862      48.40934753      19.89270782
C       19.10265541      46.21278381      24.34678268
C       19.15600014      47.31874847      20.29847336
C       19.82259369      47.29255676      23.96564484
C       19.14196968      46.92964554      21.65806198
C       19.85555649      47.69723511      22.59964561
C       18.39538574      45.80876923      22.08897400
C       20.56405640      48.84182358      22.16097069
C       20.57393646      49.17705536      20.84490585
C       18.38062859      45.45204163      23.39575386
H       19.86341095      48.69156647      18.85751152
H       19.02496910      45.98617554      25.38961029
H       18.55411530      46.73489380      19.61816406
H       20.35042381      47.89708710      24.71103477
H       17.85875320      45.23723221      21.36688805
H       21.12333488      49.44191742      22.88632202
H       21.12914467      50.03706360      20.48854256
H       17.78910255      44.59257889      23.69951439
C       12.87178993      52.91093826      25.11061287
C       17.60070229      53.18092728      23.40359116
C       13.49304581      52.96079636      23.77750206
C       17.04685402      53.13701248      24.63012505
C       14.82736588      52.81789780      23.59692001
C       15.65646744      52.75607681      24.79345894
C       15.48817539      52.74816513      22.30280113
C       15.11456585      52.43169785      25.98644638
C       13.66698265      52.10758591      26.11216354
C       16.82162857      52.86753845      22.23467636
H       11.86257553      52.49558640      24.98423195
H       18.66327477      53.40460968      23.29026604
H       12.85931683      53.16630936      22.91282272
H       17.60459137      53.34316254      25.50119591
H       14.88385773      52.63354874      21.42087364
H       15.74327278      52.42256927      26.87129784
H       13.36719799      52.41897583      27.10626984
H       17.32126808      52.79255295      21.28287888
C       28.83408737      51.80716324       1.72682357
C       29.25790215      46.87925720       0.72563845
C       27.92402840      50.81182861       1.51291525
C       30.14842224      47.91341400       0.82380378
C       28.34394455      49.49428940       1.22504485
C       29.72576141      49.23354721       1.09069681
C       27.43626785      48.41357803       1.09601092
C       30.64547157      50.28912354       1.28677940
C       30.21797752      51.53697968       1.62837005
C       27.87663269      47.14871216       0.81503737
H       28.48991394      52.80598831       1.94686139
H       29.59824181      45.87444305       0.59485102
H       26.86414528      51.02967834       1.52405548
H       31.19896507      47.72475815       0.76599211
H       26.38425255      48.60128784       1.23191881
H       31.71254349      50.09931564       1.18304718
H       30.92347908      52.31186295       1.79405105
H       27.16311836      46.34687805       0.71030480
C       -1.14141548      34.92451477       5.70577526
C       -1.91927683      39.06445312       8.45370007
C       -1.45013428      36.21642685       5.38794994
C       -1.64701140      37.76953506       8.77725410
C       -1.53296041      37.20642090       6.39777231
C       -1.42686617      36.81454468       7.75746870
C       -1.75046778      38.57347870       6.09546185
C       -1.10952890      35.47192764       8.04048252
C       -0.93142074      34.55409241       7.05292892
C       -1.92570806      39.47254562       7.10230303
H       -1.02891147      34.19458008       4.92325401
H       -2.12988877      39.77032471       9.22435093
H       -1.61314678      36.52235031       4.34988928
H       -1.64799929      37.44689560       9.81675911
H       -1.76998150      38.87518311       5.03793240
H       -0.99297559      35.17453003       9.08615494
H       -0.62290633      33.54121780       7.29302406
H       -2.12968802      40.53026199       6.86131477
C        3.87827396      52.61083221      13.40330219
C        2.98217320      56.47938538      10.35357571
C        3.47500896      53.89915085      13.63734627
C        3.62358522      55.29343414      10.19985485
C        3.37375212      54.80553436      12.56356812
C        3.81478572      54.42061996      11.29183388
C        2.68109035      56.02820587      12.69820976
C        4.26548672      53.09568405      11.08517170
C        4.25973654      52.19690704      12.10486221
C        2.48102617      56.84378433      11.61813927
H        3.85904646      51.90026855      14.20018578
H        2.80119634      57.12752533       9.49779987
H        3.10093617      54.19110107      14.61170387
H        3.93844771      54.93398285       9.21493340
H        2.25643659      56.25677490      13.66288471
H        4.54835463      52.81152344      10.08054447
H        4.50997066      51.15943909      11.91403866
H        1.93178082      57.78108215      11.74729252
C       10.90930748      57.68957901      12.63443470
C       10.69235039      58.48767090      17.59212112
C       11.49887276      57.08369827      13.70912838
C       10.00711918       0.07492363      16.53947639
C       11.20629787      57.51157379      15.02257919
C       10.28586006      58.56515503      15.21582794
C       11.87448978      56.96271515      16.13896942
C        9.69281864       0.24114688      14.09189701
C        9.99867058      58.75001526      12.82232475
C       11.66198826      57.47637939      17.38570976
H       11.16402149      57.35016251      11.63211632
H       10.49005985      58.83700562      18.59988976
H       12.21394348      56.31018448      13.58785439
H        9.26067257       0.85810810      16.70044136
H       12.58018780      56.18449402      15.97362518
H        9.01146126       1.06337714      14.25305462
H        9.52864647       0.31117955      11.98682022
H       12.23453617      57.11257172      18.22164917
C       -5.81613112      55.99338150      25.16980553
C       -9.47891331      52.87853241      26.59836197
C       -5.82709265      54.82885742      25.86647606
C       -9.46768951      54.02864838      25.86896324
C       -7.04867458      54.15000534      26.08528519
C       -8.25454903      54.71309280      25.60533142
C       -7.08677626      52.92747498      26.79488564
C       -8.20045280      55.92803955      24.87610435
C       -7.00427675      56.54040527      24.66180229
C       -8.27167130      52.31051254      27.05519676
H       -4.88515902      56.51753235      24.98317909
H      -10.40247631      52.36126328      26.76842880
H       -4.90058184      54.37896729      26.23575592
H      -10.38020706      54.45451355      25.46910667
H       -6.14485264      52.48587418      27.09135246
H       -9.11692715      56.34420013      24.48022270
H       -6.92840052      57.44944000      24.06020546
H       -8.27836418      51.34222794      27.56894875
C        2.61310220      44.04008865      27.59286118
C        6.99732733      41.70489883      28.16135216
C        3.88360524      44.48044586      27.80828667
C        5.73350906      41.26673126      27.88662338
C        4.96170425      43.56978989      27.82258797
C        4.68981171      42.18763733      27.66720772
C        6.29233408      43.99240875      28.05954742
C        3.38339782      41.78488922      27.32379723
C        2.36559677      42.69208527      27.28034782
C        7.28311586      43.08058166      28.23952103
H        1.78737080      44.72894287      27.69364548
H        7.78482628      40.97182083      28.24012947
H        4.06430435      45.54690552      28.08113480
H        5.51230526      40.20899200      27.81491470
H        6.50238800      45.05725098      28.12789345
H        3.16751671      40.73637390      27.13724518
H        1.34939837      42.36191940      27.10034943
H        8.29652309      43.39639282      28.44322586
C       14.65263462      40.63965607       8.55968285
C       18.85523605      40.72616959      11.27964020
C       15.46837711      39.67919159       9.03169823
C       17.97093773      41.68968582      10.90402985
C       16.60330391      40.02580643       9.80465794
C       16.85224533      41.38956833      10.11055851
C       17.53948975      39.05404663      10.18937778
C       15.97041607      42.37131500       9.59211540
C       14.89279175      41.99797440       8.85087872
C       18.66250038      39.39288330      10.86184597
H       13.86600971      40.37054062       7.86687708
H       19.72992706      40.98100662      11.86800957
H       15.30076790      38.62782288       8.80561352
H       18.12338829      42.71493149      11.18991756
H       17.33149719      38.03764725       9.91329288
H       16.20252609      43.39699173       9.78014660
H       14.20924282      42.75923538       8.47149277
H       19.37675858      38.62429047      11.09278584
C       22.72869492      28.72243881      14.62365055
C       21.44587326      31.74109650      18.43819046
C       22.29647255      28.49227524      15.89346218
C       21.77195168      31.97759628      17.13461304
C       21.95806313      29.56494331      16.75018692
C       22.06978798      30.88873672      16.26746178
C       21.55766678      29.36147499      18.09297180
C       22.53446388      31.09979439      14.94408417
C       22.85936928      30.04497528      14.13723373
C       21.32918358      30.42701149      18.92221642
H       22.97994041      27.88729477      13.98407650
H       21.24793243      32.58192444      19.10777855
H       22.18012238      27.47494698      16.25823784
H       21.84490585      32.99613571      16.74126625
H       21.43947029      28.35167122      18.45826721
H       22.64963722      32.12887955      14.57111931
H       23.23062897      30.22422600      13.12347031
H       21.04369354      30.26615524      19.96136665
C        0.44312930      38.27206421       0.95603925
C        1.98802280      34.04253006       3.21808434
C        0.93853086      37.08988571       0.49978173
C        1.43151581      35.19749069       3.67536283
C        1.26996851      36.04244614       1.38636792
C        1.05495465      36.23476791       2.77372122
C        1.85218656      34.82871628       0.93553829
C        0.55654430      37.47275925       3.22890687
C        0.26272178      38.47386932       2.34331822
C        2.20390272      33.85681915       1.82581711
H        0.18465635      39.06513596       0.24690571
H        2.25442815      33.26458740       3.91559505
H      -17.69874001      36.93514633      27.96380806
H        1.28803217      35.37513351       4.73383093
H      -16.75738144      34.71004105      28.39217758
H        0.44587108      37.62960815       4.28549910
H       -0.10602394      39.44097900       2.74168921
H        2.65555596      32.95497131       1.47564662
C        5.60390329      54.27265167       7.28925133
C        0.91836309      55.02405167       5.69119978
C        4.67810345      53.47255707       6.69735765
C        1.84791338      55.84552383       6.24411583
C        3.40658188      53.97679901       6.35277987
C        3.12602377      55.33649063       6.60839462
C        2.41520000      53.15686417       5.77253532
C        4.12902403      56.16231155       7.16791534
C        5.34271669      55.62775421       7.51860857
C        1.19299150      53.67065430       5.45982552
H        6.56598854      53.84983826       7.60418510
H       -0.04632464      55.41449738       5.42789841
H        4.88968134      52.45253372       6.47248745
H        1.62482834      56.91225815       6.41310406
H        2.62542319      52.12357330       5.59778357
H        3.91172290      57.18957901       7.35007381
H        6.08604383      56.25389481       8.02247810
H        0.42425576      53.04822159       5.03216553
C       10.80811596      47.21865463       3.56362462
C       15.40615654      48.98165512       4.58509779
C       11.49998093      48.33057022       3.16426897
C       14.70463276      47.90112305       5.02960777
C       12.80809116      48.57418060       3.65110755
C       13.38910580      47.65478516       4.57252407
C       13.54586601      49.70071030       3.23228836
C       12.63175488      46.52488327       4.96427011
C       11.36783600      46.31224060       4.48732853
C       14.82508945      49.89720535       3.68036008
H        9.84566879      47.01141739       3.16112638
H       16.44569778      49.14534378       4.92573309
H       11.06712532      49.03004074       2.47649193
H       15.14973545      47.19407654       5.71653175
H       13.10190678      50.37766266       2.52134418
H       13.07072449      45.80788803       5.65019464
H       10.79806328      45.42085648       4.79299450
H       15.37119007      50.75475311       3.34729981
C       18.10863495      57.48789597      11.79924297
C       17.98921394      57.41043091      16.81295586
C       18.15876579      58.46676636      12.74794197
C       17.96466446      56.43667984      15.85683823
C       18.03287888      58.13926315      14.12704754
C       17.98052216      56.77265549      14.49339485
C       17.99856949       0.19537367      15.13092613
C       17.91076088      55.78181076      13.48872185
C       17.92326736      56.14288712      12.17289639
C       17.96902466      58.76791000      16.44977760
H       18.21471787      57.70565796      10.72846699
H       18.04636765      57.11326981      17.82989883
H       18.28960419       0.57144302      12.48606110
H       17.98111725      55.40008163      16.14290428
H       18.03299332       1.23310661      14.86897469
H       17.80371284      54.73462677      13.78801823
H       17.77303696      55.37601852      11.40343571
H       17.98441124       0.60790002      17.19643211
C       -7.05139065      55.37601471      17.56444359
C      -11.36808109      56.18519211      19.99607849
C       -7.55444813      54.92116547      18.73982811
C      -10.93362904      56.48551178      18.73993874
C       -8.83913994      55.32596970      19.17043686
C       -9.64662361      56.08420944      18.29841232
C       -9.28581524      55.10237885      20.48754692
C       -9.11688519      56.48827744      17.04571152
C       -7.82949543      56.18521881      16.71251297
C      -10.52332592      55.50569153      20.89491463
H       -6.00710297      55.14752960      17.29684067
H      -12.35622978      56.48917007      20.32931709
H       -6.94777107      54.31608200      19.37614632
H      -11.54364681      57.07069016      18.08512878
H       -8.61996746      54.60999298      21.20972061
H       -9.74740601      57.05443954      16.39576721
H       -7.39636135      56.56239700      15.77127647
H      -10.85907269      55.31146622      21.90329933
C       -2.55000377      38.77067947      22.96004868
C       -1.24154854      34.28699875      21.07862854
C       -1.72724545      38.37625122      21.94811058
C       -2.13560534      34.67472458      22.03615189
C       -1.60297740      37.01182556      21.61179161
C       -2.32350492      36.04353714      22.34906769
C       -0.70756978      36.58001328      20.61171150
C       -3.23628235      36.48736191      23.33947945
C       -3.34471369      37.81814957      23.62658119
C       -0.50872642      35.25753021      20.36613464
H       -2.59281898      39.80011749      23.28048897
H       -1.11058319      33.24009705      20.85897827
H       -1.12493491      39.09670639      21.42648888
H       -2.75040627      33.94065475      22.56153488
H       -0.14720276      37.34749985      20.05163765
H       -3.85096025      35.75671387      23.84480286
H       -4.06207132      38.15512085      24.35869789
H        0.22754347      34.93555450      19.59943008
C        6.72662210      47.35004807      13.30825901
C       11.22921562      47.66429520      15.46769333
C        7.99972439      47.30771255      12.83964157
C        9.98698235      47.41888809      15.97654629
C        9.09162998      47.45134354      13.71250343
C        8.86672401      47.42057037      15.10097027
C       10.39398289      47.70991135      13.22145081
C        7.52700567      47.44620895      15.56507492
C        6.49523592      47.47346497      14.68510628
C       11.42183781      47.88741684      14.08882332
H        5.91660118      47.32318497      12.60806942
H       12.10032654      47.69178391      16.12155724
H        8.20343876      47.22639847      11.77564144
H        9.82721806      47.27764511      17.03541374
H       10.52964211      47.80611801      12.15907383
H        7.35068607      47.52538681      16.63900757
H        5.48592377      47.57391739      15.06284904
H       12.39457417      48.12538910      13.71607876
C      -13.42653275      45.28590393      24.01203346
C       -8.86583805      44.16110611      22.22012901
C      -12.71397209      44.12160873      23.90472221
C       -9.60115337      45.31291580      22.23022652
C      -11.46880817      44.11257172      23.23845482
C      -10.92034054      45.31309891      22.75094604
C      -10.71753120      42.91466141      23.11770821
C      -11.68461800      46.49419403      22.86459541
C      -12.91602516      46.48104477      23.46744919
C       -9.44003677      42.94031525      22.64189720
H      -14.38702106      45.28585052      24.49103737
H       -7.84362650      44.17129135      21.83502579
H      -13.11178684      43.19411469      24.27715302
H       -9.16698456      46.26173019      21.88949776
H      -11.18233013      41.99610519      23.40744400
H      -11.24128819      47.41740799      22.53858566
H      -13.48579788      47.39130020      23.57497787
H       -8.87625980      42.00077057      22.55295181
C       29.20659637      42.83834076       8.71646786
C       29.22436714      40.47862244      13.14903164
C       28.84913635      43.22708511       9.98136806
C       29.44527626      40.06894302      11.86999702
C       28.87904358      42.28586578      11.04634762
C       29.28600693      40.96589279      10.78232098
C       28.59554672      42.66793060      12.37716484
C       29.55541420      40.58420563       9.44598675
C       29.53503799      41.49991226       8.43304634
C       28.79191780      41.79268265      13.41413021
H       29.23832321      43.56122589       7.93239403
H       29.37280846      39.79151916      13.96687984
H       28.58030128      44.25900650      10.17651558
H       29.71155739      39.04520035      11.68277073
H       28.25813484      43.68304443      12.60235310
H       29.76519775      39.52159500       9.24736214
H       29.73182487      41.21885300       7.41131210
H       28.59305191      42.09651947      14.43145943
C       33.58615875      44.33393097       4.68140364
C       28.66189194      43.77268600       5.33000755
C       32.64220428      45.11340332       5.27582169
C       29.64395714      42.92283630       4.92597723
C       31.31435776      44.62426758       5.42835808
C       30.99577522      43.33078766       4.95205832
C       30.28515625      45.42406082       5.95249748
C       32.03229523      42.50485992       4.46236563
C       33.28708267      43.00607300       4.31221294
C       28.98813057      45.02421570       5.88209534
H       34.56310272      44.74891663       4.47195816
H       27.62240601      43.49656296       5.22721815
H       32.85549927      46.14594650       5.59515762
H       29.41501236      41.93845367       4.53216934
H       30.56490707      46.40454102       6.33726645
H       31.81733513      41.48891830       4.18009329
H       34.06026077      42.39391327       3.86982560
H       28.18910980      45.68429565       6.22155952
C       18.39505196      53.58818054       4.27063513
C       15.49997425      55.52095413       7.89127159
C       18.52003288      54.67477417       5.09213734
C       15.47983646      54.33635330       7.21440172
C       17.52496338      54.96665955       6.05487728
C       16.45493126      54.06421661       6.22706318
C       17.54939270      56.15824509       6.81878805
C       16.33624649      52.94769669       5.36293793
C       17.26230240      52.74722672       4.38155127
C       16.53777504      56.44691086       7.69448614
H       19.14280891      53.39527893       3.50261831
H       14.68075085      55.75526047       8.56774521
H       19.37729073      55.36026001       4.96471643
H       14.69475079      53.64257431       7.38908720
H       18.36523438      56.83647156       6.66601372
H       15.51110077      52.27324295       5.48876142
H       17.14819336      51.94444275       3.70132589
H       16.51101112      57.38471222       8.24335670
C        2.21604300      30.98697662      24.05478668
C       -0.59465683      30.41285706      19.92665482
C        2.51502323      30.76293182      22.74006081
C       -0.88423920      30.76867294      21.20569420
C        1.49782932      30.66706657      21.77212906
C        0.15095696      30.84716034      22.17947388
C        1.76288354      30.31807899      20.40737915
C       -0.13112980      31.06200981      23.54269028
C        0.86486745      31.10838890      24.46627235
C        0.73299354      30.16955185      19.52642822
H        3.00424981      31.05184364      24.80426598
H       -1.40028524      30.30742836      19.21397972
H        3.53948617      30.66168785      22.40873718
H       -1.90509129      30.98309898      21.50254440
H        2.78408170      30.13397408      20.12257576
H       -1.18284333      31.13592148      23.86696434
H        0.64421511      31.24584389      25.52769852
H        0.90148848      29.84353447      18.49316978
C       10.69860268      46.10589218      25.93188667
C       12.39339161      41.77085495      27.65739632
C       11.76522160      45.78750610      26.90984154
C       11.24920368      42.12654877      27.07559967
C       11.99524117      44.49277496      27.12324715
C       11.09061337      43.48577499      26.43753624
C       13.24431133      44.03029633      27.66561890
C        9.67300034      43.96984482      26.41903687
C        9.47700691      45.25690079      26.17746162
C       13.47650337      42.72504044      27.84892464
H       10.43529987      47.14270782      25.91908073
H       12.55577660      40.78511047      28.03083038
H       12.44084454      46.55029297      27.26181412
H       10.41005516      41.44071579      26.99807549
H       13.98311329      44.78537750      27.88677788
H        8.87925053      43.22776031      26.42534447
H        8.50751209      45.66157913      26.00998878
H       14.42644787      42.38848495      28.23826981
C       17.75895309       0.01049238       4.24307203
C       18.20313072      55.01299667       1.16092575
C       17.06730652      57.77967072       4.10428715
C       18.91673470      56.15754700       1.32235622
C       17.38565826      56.88227081       3.06567764
C       18.51663780      57.13970947       2.26033282
C       16.60811996      55.73670959       2.80970192
C       19.19836044      58.38064194       2.39957166
C       18.80100060       0.33687651       3.34193754
C       16.99227905      54.83265686       1.86762822
H       17.48445511       0.70424241       5.02095938
H       18.55474854      54.26447678       0.46448064
H       16.22179413      57.53775406       4.76020098
H       19.79388618      56.35576248       0.70689499
H       15.71637440      55.58588028       3.41369724
H       20.00211906      58.63441467       1.71112883
H       19.27435684       1.29056525       3.41973901
H       16.39084816      53.94487381       1.71442616
C       26.27583313      45.56301880      11.46678925
C       21.84273148      47.18731308       9.73596478
C       25.59563828      46.73080826      11.61632347
C       22.48821640      45.99344635       9.71686935
C       24.29421616      46.88240433      11.07672882
C       23.72956085      45.80671310      10.35764408
C       23.55792046      48.09703445      11.16138363
C       24.44503021      44.58053970      10.23766136
C       25.69082451      44.47248840      10.78320408
C       22.36840057      48.23894119      10.50892925
H       27.28237343      45.46610641      11.86323166
H       20.93511772      47.32256317       9.17954254
H       26.09458542      47.55606461      12.14181137
H       22.07873917      45.16262817       9.17052650
H       23.92976189      48.91139603      11.76070595
H       23.96643257      43.76835632       9.68985653
H       26.23111725      43.54339600      10.69555187
H       21.82535172      49.17368317      10.55220890
C       25.34582329      45.24507904      15.08451271
C       25.95028114      40.28900528      14.39854527
C       24.98643875      44.38731003      14.08826351
C       26.37748528      41.16829681      15.35034466
C       25.33603859      43.01837158      14.13283348
C       26.08807945      42.55175400      15.23715496
C       24.92540550      42.09025955      13.15185928
C       26.47061348      43.46169662      16.25480461
C       26.07230949      44.76800919      16.19023132
C       25.21699333      40.76246262      13.28060532
H       25.04717255      46.29647064      15.03827953
H       26.15619850      39.23662567      14.51754761
H       24.39905167      44.73833466      13.23899841
H       26.92608833      40.82356644      16.21091652
H       24.33336067      42.44853973      12.31569099
H       27.05267525      43.08087158      17.10185814
H       26.28668594      45.43133163      17.00550079
H       24.84368134      40.02891541      12.56801224
C        4.59205341      49.26550674       3.74090338
C        3.82335639      44.45940399       2.46185398
C        3.48130059      48.49791718       3.60142493
C        4.94475651      45.23153305       2.57786155
C        3.57677889      47.14126968       3.22367120
C        4.85267162      46.58535767       2.97118950
C        2.43088388      46.30480194       3.13104963
C        5.98668957      47.41271591       3.10845709
C        5.86230183      48.72484589       3.45102692
C        2.55787420      44.99560928       2.77876854
H        4.52378750      50.30123520       4.05794621
H        3.90092111      43.39941788       2.17165995
H        2.49019408      48.92990494       3.82656884
H        5.92345715      44.79840088       2.36907601
H        1.47437489      46.71418381       3.34232354
H        6.95400095      46.97748184       2.94687223
H        6.73074484      49.36791229       3.50301385
H        1.68275869      44.35989380       2.70790935
C       11.17811489      47.42178345       7.94484997
C        7.29145861      49.09466171      10.61155319
C        9.86849117      47.07685852       7.96680689
C        8.63244629      49.31828308      10.68204117
C        8.99386024      47.66728592       8.92282867
C        9.51396275      48.61724854       9.82606125
C        7.60111475      47.40426636       8.91794300
C       10.90281487      48.89574814       9.82299423
C       11.71859837      48.31848526       8.89483833
C        6.77022314      48.10897446       9.74830914
H       11.81875324      47.02770996       7.16837597
H        6.60886097      49.63366699      11.26656723
H        9.47308826      46.41664505       7.21219063
H        9.04490376      50.05678558      11.37802601
H        7.16993570      46.69759750       8.22339344
H       11.30007362      49.57018280      10.56572723
H       12.78442287      48.54941177       8.86507320
H        5.70358133      47.97782135       9.70393276
C      -10.76158810      56.54561996      27.85061455
C        8.80185509      58.63697433       3.83240867
C       -9.69920063      57.18567276      28.41338730
C        7.81902647      57.84274673       3.33391547
C        9.04632092      57.62908554       1.23571515
C        7.90227318      57.32757950       2.00720692
C       10.04757786      58.45713425       1.78920543
C        6.80984306      56.65542603       1.39319491
C        6.88310671      56.27560806       0.08254440
C        9.93092155       0.03641370       3.04410100
H      -10.74344826      56.24758148      26.80374908
H        8.73135281       0.12110496       4.81246185
H       -8.82877731      57.42445374      27.80566597
H        6.94850445      57.64388275       3.90731072
H       10.89270306      58.72830200       1.14167559
H        5.90427113      56.48374558       1.93443930
H      -12.75587559      55.79872513      28.13569450
H       10.69007111       0.70413148       3.44215274
C        8.81750584      48.96621323       0.53387952
C      -14.52878571      49.63291931      27.05798912
C      -10.58169270      50.01364517      28.41941452
C      -13.88381481      48.53588104      27.53519058
C      -11.90227890      49.89712143      27.94296074
C      -12.56260586      48.65567780      28.03554535
C      -12.60313034      51.00876617      27.41634750
C        6.87660122      47.59186935       0.17744820
C        8.11927700      47.76783371       0.71946788
C      -13.88678455      50.89901733      27.01185036
H        9.81196690      49.06628036       0.92614198
H      -15.56507587      49.53886414      26.73219490
H      -10.08709049      50.96854019      28.32040024
H      -14.37518024      47.56159210      27.57828903
H      -12.12320518      51.97584534      27.43354607
H        6.32342577      46.66801071       0.31743926
H        8.58544445      46.98258209       1.30763292
H      -14.43511295      51.78665543      26.71948051
C        3.45747209      34.75036621      13.06887150
C        3.83155322      33.65211868      17.97294426
C        3.16084075      35.41907120      14.22049808
C        4.25302601      33.01921463      16.85050583
C        3.43012834      34.85534286      15.48649693
C        4.02011776      33.59083557      15.57514095
C        3.08254576      35.54652786      16.67139435
C        4.29002857      32.90118408      14.36376190
C        3.99979234      33.45376587      13.15386391
C        3.21603799      34.92028046      17.87424660
H        3.29304481      35.21471786      12.09707451
H        3.93629408      33.18955612      18.94564819
H        2.72826695      36.41825104      14.17531395
H        4.74205112      32.05586624      16.93929672
H        2.66733098      36.55973053      16.61448860
H        4.70515728      31.92139053      14.39589405
H        4.17900658      32.89409637      12.24929047
H        2.87569118      35.40860367      18.74842262
C        7.48320770      33.84680557       5.34060907
C        7.73876238      33.49061584       0.32329172
C        8.00211334      32.92058563       4.48468876
C        7.32387543      34.47845078       1.17801404
C        7.90215206      33.07793427       3.08134890
C        7.35453701      34.28049088       2.57926273
C        8.27762985      32.05656815       2.18116069
C        6.85720062      35.25053024       3.48536134
C        6.89491224      35.02750015       4.83973694
C        8.19433880      32.24509811       0.82841837
H        7.49343681      33.65510178       6.41518831
H      -11.08247852      33.65247345      27.80123329
H        8.48330688      32.02387619       4.87216091
H        6.97141743      35.42495346       0.78189409
H        8.61501884      31.10139275       2.57514286
H        6.41436577      36.14755249       3.11532450
H        6.47470951      35.73763275       5.53570795
H        8.45590591      31.44962120       0.16187124
C       21.04210091      47.63681412      27.94349861
C        0.14216597      42.67588806       0.26236838
C       20.08775902      46.66970825      27.90266609
C        1.13277483      43.62277985       0.16470568
C       20.42295837      45.32035828      28.17804909
C      -17.99090767      44.96617889      28.39171791
C       19.43225479      44.30981827      28.24431801
C      -17.00714493      45.98204422      28.32877922
C      -17.36123085      47.29431152      28.14912224
C       38.55832672      43.01926804       0.03300267
H       20.76142883      48.68844604      27.81246758
H        0.39487168      41.65538788       0.46898413
H       19.05311394      46.93380356      27.71057320
H        2.15758085      43.34194183       0.29549330
H       18.38570404      44.58152771      28.02864456
H      -15.95360947      45.70653915      28.48440742
H      -16.60083771      48.07066345      28.17756081
H       37.79531860      42.23774719       0.01619211
C       -4.45260096      42.17788315      11.03788185
C       -5.65083694      38.18975067      13.82998466
C       -4.87009859      42.03932190      12.32545948
C       -4.88177013      38.34522247      12.72091007
C       -5.12655210      40.76039886      12.86725903
C       -4.72207451      39.62479019      12.12846375
C       -5.88400173      40.57983017      14.04157066
C       -4.26919460      39.78553009      10.81329536
C       -4.22827005      41.02689362      10.25200558
C       -6.22142839      39.31604004      14.44767857
H       -4.37756777      43.16985703      10.59914875
H       -5.82739592      37.18444824      14.22714710
H       -5.10810328      42.89308166      12.91596317
H       -4.41138172      37.48214340      12.22748375
H       -6.23048353      41.44035721      14.56697559
H       -4.03522015      38.91430283      10.21644497
H       -4.02871895      41.12727356       9.17959404
H       -6.89809418      39.17060852      15.27384377
C        8.57910347      35.65283966      15.25830269
C        4.68239212      37.99278259      13.10752773
C        8.33271217      36.10721970      13.99537182
C        4.94379997      37.58506012      14.38320160
C        7.09874344      36.72264481      13.68066311
C        6.12241268      36.86116028      14.68946075
C        6.82812166      37.24603653      12.39916134
C        6.39672947      36.38005829      15.99819279
C        7.59942150      35.79991150      16.26659966
C        5.62286234      37.79417801      12.08608532
H        9.54057884      35.20893097      15.49413586
H        3.73211336      38.48977280      12.87967014
H        9.08263874      36.01571274      13.20979404
H        4.21216774      37.77220535      15.17940331
H        7.63942051      37.26177979      11.69334412
H        5.64152431      36.49860001      16.77861214
H        7.81213951      35.45584488      17.25483894
H        5.42147350      38.16713715      11.08428383
C       32.70669937      40.92127228       7.47910500
C       31.83657837      43.67341614      11.54444122
C       32.70272446      42.25934982       7.69885302
C       32.02070618      42.33884430      11.35519695
C       32.51361465      42.75808716       9.00731373
C       32.36473846      41.83900452      10.07367229
C       32.36544800      44.14620972       9.24035454
C       32.49634933      40.46138000       9.82026672
C       32.64430618      40.00885010       8.54122543
C       32.01242447      44.59539032      10.47915554
H       32.76551056      40.58504105       6.45693445
H       31.50834465      44.03114319      12.51865959
H       32.80870819      42.94184875       6.86527777
H       -7.88456726      41.60135651      12.14495754
H       32.47587585      44.82683563       8.41978550
H       32.44225693      39.76079559      10.64496040
H       32.69531250      38.94725800       8.33280182
H       31.84119225      45.63808060      10.64094067
C       -5.16781044      29.68435669      23.97749710
C       -4.93427896      34.15230179      26.23300743
C       -4.23323202      30.66575623      24.02211380
C       -5.89518356      33.18880463      26.14999390
C       -4.45313597      31.86150551      24.73564148
C       -5.69671965      32.03033447      25.38318825
C       -3.45411563      32.86121368      24.86919594
C       -6.68606997      31.01954460      25.27510071
C       -6.41413975      29.86259651      24.60812569
C       -3.69553185      33.98476791      25.58945847
H       -4.92532206      28.76648903      23.47993278
H       -5.09879208      35.00807190      26.84833145
H       -3.27151561      30.51867294      23.52726555
H       -6.81513309      33.28848267      26.71170998
H       -2.49354267      32.72276688      24.37796402
H       -7.64783621      31.18190575      25.74656105
H       -7.17440987      29.07002449      24.55869675
H       -2.91578722      34.75224686      25.70912743
C       -6.60599470      54.03886795      14.55594635
C       33.10857010      53.72345352       9.55916500
C       -7.16462755      54.80224609      13.57948303
C       -6.03805304      52.98794174      10.53711891
C       -6.98962212      54.46114731      12.22389221
C       -6.21081352      53.33246613      11.89277458
C       32.18886948      55.22958374      11.18163300
C       -5.65865326      52.55018234      12.93702507
C       -5.85967731      52.88309860      14.23484802
C       32.34623337      54.86300659       9.88197422
H       -6.80126572      54.25305557      15.59206676
H       33.16627884      53.40744019       8.54104900
H       -7.76984167      55.66611862      13.81787395
H       -5.48448944      52.07756424      10.29008579
H       31.58583641      56.08918762      11.46270084
H       -5.11938858      51.62638855      12.68020248
H       -5.47611380      52.25353622      15.03209019
H       31.86518860      55.44197464       9.07877350
C      -15.12001038      38.67879105      26.23026848
C      -10.80597401      39.56848907      23.79954910
C      -14.57636929      38.19638062      25.06308174
C      -11.38279533      40.10065079      24.91362953
C      -13.33883381      38.69413757      24.58268929
C      -12.66380882      39.67813873      25.33969688
C      -12.73280239      38.19351196      23.40298462
C      -13.27260876      40.20333862      26.50356483
C      -14.47080326      39.70941544      26.95439148
C      -11.49048138      38.60393524      23.01824760
H      -16.06952286      38.26284409      26.62784004
H       -9.82426643      39.88045883      23.50126076
H      -15.07124996      37.40970993      24.50781250
H      -10.84788418      40.86623764      25.49124908
H      -13.29398441      37.43496704      22.82218933
H      -12.76058483      40.99385452      27.05178070
H      -14.89561749      40.08263016      27.85384178
H      -11.01276398      38.19252396      22.15427399
C       24.57740211      41.58780670      22.82374001
C      -12.61062336      44.23876572      19.41807938
C       24.58564568      42.90008545      22.46902466
C      -12.69740868      42.90697861      19.69150543
C       25.42974281      43.35263824      21.42865944
C      -13.52265453      42.43053436      20.73225212
C       25.52173805      44.72371674      21.10533142
C      -13.55972862      41.07289505      21.11657143
C      -14.37257671      40.66756439      22.13474464
C       26.38247108      45.16642761      20.13973236
H       23.92781448      41.24765015      23.62139130
H      -11.93392944      44.58050919      18.65475845
H       23.97715950      43.62265396      22.98096848
H      -12.12356472      42.18308258      19.11056709
H       24.94286156      45.42270660      21.68119240
H      -12.94760227      40.37195969      20.60542107
H      -14.37766647      39.62887955      22.42162895
H       26.44184494      46.21900940      19.94898033
C        5.25625896      42.56410599      23.10643578
C        9.16262245      39.40724945      23.79477501
C        5.92750788      41.68917847      22.27782059
C        8.27757549      40.09325790      24.76621819
C        7.02492380      40.94509506      22.76399612
C        7.39472485      41.11864090      24.11985970
C        7.76676130      40.06133652      21.93966293
C        6.76357746      42.07685089      24.88505936
C        5.69069719      42.79748917      24.39631653
C        8.87547207      39.39746857      22.45568657
H        4.38295746      43.07809448      22.76465988
H       10.05502987      38.89364624      24.15924454
H        5.63346481      41.53445816      21.23138428
H        8.88565159      40.54605484      25.58715820
H        7.47041655      39.95717239      20.90273094
H        7.07579899      42.21918869      25.91832161
H        5.18028259      43.51154327      25.02551270
H        9.50943756      38.82639313      21.79054832
C        3.87560582      39.68237686      24.03642273
C        8.05992794      36.94991684      24.66263390
C        4.92758083      39.73926926      24.91518402
C        7.09578657      36.93695831      23.74991417
C        6.01384068      38.87981033      24.79764557
C        5.95778990      37.83837128      23.86870575
C        7.27026033      39.09658051      25.57393265
C        4.84109116      37.72193909      23.05239105
C        3.84289789      38.67443848      23.08269882
C        7.93807268      37.77687836      25.90557098
H        3.09488606      40.42576981      24.07954979
H        8.95547581      36.34099197      24.53594017
H        4.95243454      40.51627731      25.64916611
H        7.14218330      36.30440140      22.84614372
H        7.03057671      39.65372086      26.48697090
H        4.77973843      36.88891983      22.38684654
H        3.03665900      38.60113525      22.36843300
H        8.94868374      37.97386169      26.30314446
C       17.76632500      41.28868103       0.67889887
C       21.84836006      38.37858200       0.74898261
C       19.07424164      41.52272034       0.97932363
C       20.52429008      38.12248230       0.54011607
C       19.99795914      40.44529343       1.02491987
C       19.56402779      39.14570999       0.68622547
C       21.35440636      40.64516830       1.35656559
C       18.18124199      38.92704391       0.46924487
C       17.30104065      39.97419357       0.48579261
C       22.26037598      39.62796021       1.22235346
H       17.03774643      42.10822678       0.60452193
H       22.57693291      37.60622787       0.56901324
H       19.42711830      42.53254700       1.19059968
H       20.21065331      37.12588120       0.23542428
H       21.69280243      41.61593246       1.64443755
H       17.81599808      37.91408539       0.31161544
H       16.24378777      39.78118134       0.35390857
H       23.30892754      39.79076386       1.44912302
C       18.86269188      30.46404839      21.74124336
C       18.43136787      32.35058594      17.12167358
C       18.87579155      31.74315453      21.24653435
C       18.28043365      31.10015869      17.64013290
C       18.57056046      31.98755836      19.88928604
C       18.30676842      30.88536453      19.04141617
C       18.58264542      33.28732681      19.33369446
C       18.18295288      29.59821701      19.61091232
C       18.44426727      29.39139366      20.93729591
C       18.49916267      33.46926880      17.97944450
H       19.14264870      30.29186058      22.76329613
H       18.49236679      32.49603271      16.05288696
H       19.16731262      32.56721115      21.87880516
H       18.19780159      30.23978043      16.99144936
H       18.68359756      34.14124298      20.01498985
H       17.90142059      28.74068260      18.99412727
H       18.36003113      28.38923645      21.33490562
H       18.52117157      34.47198868      17.55549622
C        0.38860711      44.99621201      25.13551903
C       -2.01294422      45.12787628      20.74179268
C       -0.74398476      45.62220764      24.71052361
C       -0.91994303      44.45872879      21.20239449
C       -1.22687078      45.42150879      23.40745163
C       -0.49544287      44.58153152      22.53528404
C       -2.40661478      46.04453659      22.93835449
C        0.64733380      43.89658356      23.01800919
C        1.08598506      44.09734726      24.29598808
C       -2.79581475      45.88457489      21.63524628
H        0.75687969      45.16501236      26.12846375
H       -2.32713842      45.00175095      19.72644806
H       -1.28432238      46.32522964      25.36921120
H       -0.35946885      43.80544662      20.53422928
H       -3.00579619      46.63237762      23.63565636
H        1.13935387      43.22985458      22.33533669
H        1.94847584      43.58417892      24.66452789
H       -3.70669341      46.31298828      21.29103088
C        4.81261969      39.03981400      19.01626205
C        4.40692997      34.52656937      21.20584106
C        3.75831985      38.33442688      19.51543808
C        5.45053673      35.20465088      20.65527725
C        3.96566558      37.06171036      20.10260010
C        5.26748943      36.49914551      20.09871101
C        2.90067768      36.32780075      20.69542122
C        6.34524727      37.27027512      19.59985352
C        6.12226725      38.51366806      19.08290482
C        3.10943866      35.08895493      21.22388077
H        4.66259670      40.02173996      18.55294609
H        4.55203247      33.52540970      21.63755417
H        2.77808714      38.72219086      19.46100044
H        6.43570423      34.76996231      20.64993668
H        1.90405583      36.73823929      20.65727806
H        7.32767296      36.88714218      19.65748215
H        6.95873547      39.10991287      18.71268654
H        2.27356577      34.51901245      21.62171745
C       26.99835777      40.67341614       6.10270405
C       26.99805641      38.57831955      10.68072796
C       27.23209572      39.40221024       6.54208183
C       26.54588509      39.76995087      10.19088173
C       27.17400932      39.09865570       7.93092108
C       26.70557785      40.08600998       8.82084370
C       27.67000198      37.87972260       8.46886063
C       26.48867607      41.38438416       8.33666706
C       26.66663361      41.69201279       7.02105522
C       27.62100029      37.65653229       9.81545258
H       27.11575699      40.89771271       5.04095936
H       26.90897751      38.33098221      11.72551441
H       27.47543716      38.61708450       5.84595823
H       26.12327003      40.52957153      10.84828567
H       28.15698051      37.16291428       7.80095673
H       26.20908737      42.15582657       9.03449059
H       26.53343773      42.69665146       6.72574663
H       28.04079437      36.76006699      10.21754837
C       -4.06862402      35.10287094       7.45295858
C       -5.96932507      35.11963272      12.09046459
C       -4.02279568      34.22004318       8.48526001
C       -5.90274000      36.05571747      11.11332035
C       -4.56357288      34.53876495       9.75760269
C       -5.19188499      35.79193115       9.91448307
C       -4.58716679      33.61654663      10.82816219
C       -5.12469864      36.73765564       8.86177444
C       -4.57704067      36.39362717       7.66195488
C       -5.30205870      33.88423538      11.95139122
H       -3.64446139      34.84684372       6.51062155
H       -6.51263237      35.31969070      13.00369358
H       -3.56850076      33.24833679       8.34829903
H       -6.39402819      37.00534821      11.23048592
H       -4.06755781      32.66729355      10.72417068
H       -5.52104807      37.75520325       9.04855633
H       -4.48977852      37.13541794       6.88765335
H       -5.36987972      33.18062973      12.73574066
C       17.77216339      43.03480530       6.86829615
C       14.02843571      40.32681274       4.95331287
C       17.63002396      41.70023727       6.59048510
C       14.21716499      41.66133118       5.13261890
C       16.41686058      41.22717285       6.04833126
C       15.38190937      42.13962555       5.78538370
C       16.19522476      39.85105515       5.81234264
C       15.54058743      43.49075699       6.13669872
C       16.71187210      43.93632126       6.67197990
C       14.99616528      39.40764236       5.39901543
H       18.73529053      43.40085220       7.19061279
H       13.14618206      39.95482636       4.45480776
H       18.44572639      41.00584412       6.74189854
H       13.48102379      42.38484573       4.78786707
H       16.99952316      39.15614319       5.95832443
H       14.73326874      44.17649841       5.95943165
H       16.83579254      44.97879410       6.89816904
H       14.79126644      38.35107040       5.34286356
C       22.76040077      52.48426819      21.54591370
C       23.02867889      57.44908905      20.72734642
C       21.81439209      53.45847321      21.39983368
C       23.95479202      56.44666672      20.74724579
C       22.19206619      54.79508972      21.13352013
C       23.57259941      55.10518265      20.97818565
C       21.25891495      55.84315491      21.04560661
C       24.52197838      54.05549240      21.05656815
C       24.12891197      52.78778076      21.34270859
C       21.65681458      57.14152145      20.88746643
H       22.46500206      51.47382355      21.78263283
H       23.33319283      58.48141861      20.58929443
H       20.75190926      53.24079514      21.46918106
H       24.99382019      56.67516708      20.59954643
H       20.19964218      55.59846878      21.16458511
H       25.58592033      54.27787399      20.89019012
H       24.84430504      52.00423431      21.39741707
H       20.94680977      57.94265747      20.87916946
C       -0.25170293      32.43030167      17.03024292
C       -0.71769440      28.98196411      13.40513420
C       -1.07791328      31.36649513      16.85023499
C       -0.00719838      30.13764000      13.49725246
C       -0.97270077      30.55419540      15.69954205
C       -0.08097927      30.94240952      14.66412830
C       -1.70343125      29.34692955      15.57270432
C        0.68079239      32.12538147      14.83260536
C        0.63577902      32.82456207      16.00799561
C       -1.54958916      28.56398964      14.46437073
H       -0.28046274      32.99512100      17.96179771
H       -0.63887721      28.35059547      12.52226257
H       -1.82716501      31.11531258      17.56446648
H        0.65082127      30.44797134      12.71787453
H       -2.34269118      29.05161667      16.36264038
H        1.33966804      32.45569992      14.03664684
H        1.28676772      33.69594574      16.16132355
H       -2.07899332      27.61185837      14.40917683
C       30.56997871      30.08465385       3.42902875
C       35.22900009      31.84281158       2.68144178
C       31.57847214      30.45290947       4.27001905
C       34.17327881      31.58023071       1.85372853
C       32.80664825      30.93637466       3.75238991
C       32.94261169      31.11091614       2.36274171
C       33.89812469      31.24765396       4.59000731
C       31.84015465      30.82524300       1.52216506
C       30.70228004      30.27781105       2.03914046
C       35.08274460      31.68246078       4.08385515
H       29.66350174      29.65932655       3.82015610
H       36.15209961      32.18799591       2.25525904
H       31.45857811      30.39644814       5.35858536
H       34.26764297      31.72698021       0.78690356
H       33.75700378      31.16213608       5.66162539
H       31.91584396      31.05433464       0.45225972
H       29.87697220      30.00459099       1.39097941
H       35.91845322      31.94878006       4.72868443
C        4.01663685      45.73985672      20.23795700
C        0.45785737      42.64150238      18.59299088
C        2.80128360      45.96075058      19.64492416
C        1.46074688      42.48401642      19.50697708
C        1.90852797      44.89024353      19.40916061
C        2.23833847      43.60109329      19.90346146
C        0.79891765      45.03081512      18.54144669
C        3.45087147      43.43106842      20.60869408
C        4.33852148      44.45770264      20.73273277
C        0.11156005      43.93013000      18.12499809
H        4.72882557      46.53089523      20.33766556
H       -0.04916549      41.78863525      18.19465065
H        2.54537678      46.94308853      19.26258850
H        1.74393547      41.50500488      19.85427666
H        0.54886091      46.01861191      18.16485977
H        3.69711161      42.44306183      20.96634293
H        5.28789139      44.30417633      21.18181038
H       -0.67869610      44.03722763      17.39853859
C       26.70506287      51.91304398       8.19710732
C       27.34796906      46.94466782       8.35750008
C       27.75553703      51.10219955       7.89967155
C       26.25272751      47.74330902       8.49737644
C       27.61700439      49.69356155       7.97506762
C       26.35615730      49.14639664       8.32602024
C       28.71334839      48.82979584       7.76222467
C       25.26862526      50.02034378       8.56981850
C       25.44689560      51.37233734       8.53244019
C       28.58535576      47.49768829       7.97553349
H       26.80431366      52.98900223       8.18020630
H       27.28667450      45.89305878       8.57181168
H       28.72673607      51.53096008       7.63040447
H       25.30509567      47.30728531       8.77984333
H       29.66716003      49.25317383       7.49286842
H       24.29423332      49.55715179       8.80938816
H       24.64252281      52.03903198       8.77549839
H       29.44556046      46.83778381       7.86129761
C       36.41779327      48.41154480       1.31889081
C       33.28494644      44.49839020       1.76555490
C       36.59016037      47.06700134       1.44937396
C       33.08745193      45.84360504       1.74326372
C       35.49434280      46.19057465       1.61167502
C       34.18451691      46.73138046       1.64785731
C       35.66246796      44.78336716       1.67623293
C       34.03366852      48.13803101       1.52062821
C       35.11724854      48.95186234       1.36132920
C       34.57984543      43.95630646       1.69602621
H       37.27122498      49.04653168       1.17363870
H       32.43222809      43.84013367       1.82489491
H       37.56231308      46.64729691       1.41122484
H       32.07990265      46.25816345       1.80551076
H       36.67992401      44.40278625       1.67997980
H       33.03592300      48.54830933       1.54819202
H       34.96860504      50.04734421       1.25408840
H       34.71322632      42.87646484       1.70293999
C        8.05208111      29.95938301       5.92690325
C        8.36800671      29.42961502      10.90946674
C        8.90794277      29.27835274       6.73369360
C        7.55031013      30.14547348      10.09151936
C        8.76299286      29.34905815       8.13862038
C        7.74857569      30.14518547       8.69097710
C        9.58301735      28.58905602       9.01538372
C        6.90502548      30.88677597       7.82322407
C        7.02778864      30.76822281       6.47291327
C        9.39555168      28.64001656      10.36698437
H        8.11687756      29.85435295       4.83366680
H        8.21433353      29.45284271      11.97543621
H        9.65995979      28.61244011       6.31315470
H        6.73101139      30.70705795      10.47799969
H       10.36618614      27.98924065       8.58989811
H        6.15120983      31.53313255       8.27378654
H        6.38999891      31.31401634       5.82085848
H       10.03328896      28.04743195      11.01633358
C       -6.76551867      29.68579102      11.99320698
C       -4.78768301      29.57446480       7.37353992
C       -6.33684254      30.64835930      11.13977432
C       -5.19807816      28.60814476       8.23552895
C       -5.82054090      30.30677605       9.87753773
C       -5.71705055      28.94818497       9.51220131
C       -5.42385340      31.28791237       8.93895721
C       -6.17321634      27.97359467      10.42157269
C       -6.71847963      28.33596420      11.61316204
C       -4.89092970      30.93856239       7.73400211
H       -7.11327124      29.96263886      12.99140263
H       35.37008286      29.30657005       6.39661169
H       -6.40187407      31.70179367      11.43173409
H       -5.15537024      27.55989647       7.95385218
H       -5.57558870      32.32646179       9.17643356
H       -6.10044241      26.94320679      10.14316750
H       -7.08033562      27.59736824      12.29819393
H       -4.58727217      31.71035767       7.03329659
C       -1.82766724      32.89028931      12.52819920
C       -5.04352999      34.70966339      15.92496777
C       -2.67445302      32.29439545      13.41534042
C       -4.09918928      35.27461243      15.13012695
C       -3.45747256      33.07970047      14.30147266
C       -3.30651999      34.49102783      14.27264214
C       -4.45080996      32.51207733      15.13418198
C       -2.42285657      35.07820129      13.33563995
C       -1.72182381      34.29177856      12.46538544
C       -5.24265432      33.31245422      15.91389465
H       -1.22382200      32.27829361      11.86445427
H       -5.62151670      35.32295227      16.61972046
H       -2.77971601      31.21579742      13.46040535
H       -3.92416596      36.36006927      15.18183899
H       -4.58620882      31.43266869      15.10889339
H       -2.34373403      36.15716934      13.28631115
H       -1.09096241      34.73763275      11.70811558
H       -6.01394939      32.87921524      16.53571510
C       -2.93529439      53.55387115      20.16995049
C       -1.97075999      56.56815720      16.30475807
C       -3.50846338      53.71445847      18.93605232
C       -1.48988616      56.50265884      17.56602478
C       -3.04153442      54.71091080      18.05537796
C       -2.01003194      55.56145477      18.48451042
C       -3.55900431      54.82534790      16.74481964
C       -1.45984566      55.40304565      19.77151299
C       -1.89297330      54.40402222      20.59113693
C       -3.06171274      55.75784683      15.89142036
H       -3.28553629      52.78370666      20.85412788
H       -1.51611924      57.23937607      15.59016991
H       -4.29859304      53.06968308      18.58529282
H       -0.67537558      57.12622452      17.87496376
H       -4.34350014      54.14657211      16.43407631
H       -0.65338027      56.05698776      20.08402634
H       -1.44548416      54.24345779      21.56357193
H       -3.45682955      55.84678268      14.89077282
C       -2.09642744      54.29648972      12.98841190
C       -0.35539702      56.21201706       8.66921806
C       -2.17857671      53.91100693      11.68279552
C       -0.33008167      56.65067291       9.96298122
C       -1.53136146      54.66390228      10.67626667
C       -0.89084303      55.87276840      11.00606537
C       -1.46751547      54.20644760       9.35712051
C       -0.78003561      56.22036362      12.36883926
C       -1.33270657      55.42615128      13.32072353
C       -0.91034472      54.95024490       8.36118317
H       -2.57726192      53.72104263      13.76359844
H        0.03305222      56.83388519       7.87924433
H       -2.71522307      53.02220154      11.38259697
H        0.07247219      57.63493347      10.21007633
H       -1.83175206      53.20169830       9.15927887
H       -0.20997798      57.09098434      12.65319920
H       -1.17247283      55.66622162      14.36169434
H       -0.85769671      54.57205582       7.35070276
C       31.43375587      34.20327759       3.19813156
C       31.16342926      38.25526810       6.15797091
C       30.46713257      35.14170074       3.41923690
C       32.05101395      37.23461151       6.07573557
C       30.64935875      36.17409897       4.37433243
C       31.84279823      36.18232727       5.14028358
C       29.75261307      37.26163864       4.50528240
C       32.82822037      35.19574356       4.89072609
C       32.64112091      34.24218369       3.93969607
C       30.03680801      38.30379105       5.33756113
H       31.28360367      33.43038559       2.45327497
H       31.29072380      39.06258774       6.87125492
H       29.55467796      35.12654495       2.83194613
H       32.93854904      37.19546890       6.67574549
H       28.88393784      37.30052185       3.85596728
H       33.73514938      35.20545578       5.46703911
H       33.42512512      33.52885437       3.72257113
H       29.40160370      39.18428802       5.36306810
C       17.65981102      52.71493530      18.75936127
C       19.74286842      50.88521576      14.56522751
C       17.33266830      52.81536865      17.43580437
C       19.98136520      50.69927979      15.89657211
C       18.08920097      52.12481689      16.45442963
C       19.18842125      51.34216690      16.87303734
C       17.80247879      52.23375702      15.07706547
C       19.49844933      51.25184631      18.25552559
C       18.75002861      51.91996002      19.18560028
C       18.62698746      51.64977264      14.15890503
H       17.06982994      53.28018951      19.48638153
H       20.38315010      50.39215088      13.83440590
H       16.51540565      53.42746353      17.11345100
H       20.79117203      50.02784348      16.24258995
H       16.98327827      52.82781219      14.77661419
H       20.36488152      50.68487167      18.55497742
H       18.98554039      51.85129547      20.23310089
H       18.41034126      51.75014496      13.09842014
C       21.04350090      31.43460846      27.82509995
C       22.31950188      33.02782440      23.21142960
C       21.75139809      30.87093163      26.80515289
C       21.70793915      33.62368393      24.27285576
C       22.00411606      31.59941673      25.61248016
C       21.51202202      32.92580414      25.48598671
C       22.71171761      31.03184319      24.51865387
C       20.79230881      33.48014450      26.57767487
C       20.55433083      32.75251770      27.71173477
C       22.83190155      31.71403122      23.33950233
H       -0.11775360      30.89774895       0.20040365
H       22.44132233      33.55961609      22.27409172
H      -17.62488174      29.83311272      26.87666702
H       21.32290840      34.65177155      24.17384720
H       23.12871552      30.03886604      24.61805344
H       20.39362907      34.48405838      26.47489357
H       38.82471085      33.18178940       0.01391022
H       23.35772705      31.26624680      22.50655937
C       12.99029922      55.09057236       0.93049914
C       12.77458763      55.13650894       5.94750547
C       12.95020771      54.10587692       1.87590766
C       13.02000618      56.10092163       5.02589369
C       12.92547703      54.42002487       3.25793004
C       13.03305244      55.77988815       3.64315915
C       12.68505573      53.43538284       4.24792385
C       13.05967999      56.78249741       2.64174724
C       13.01699448      56.45518875       1.32091713
C       12.56643295      53.79452515       5.55647516
H       -5.84370136      54.84796906      28.40516090
H       12.73831558      55.41008377       7.00362968
H       12.84571362      53.06607437       1.56738377
H       13.17925835      57.10083008       5.31581736
H       12.52654552      52.40830994       3.92612672
H       13.05602646      57.82966995       2.94812322
H       12.97774982      57.20629501       0.57901525
H       12.32045460      53.06447220       6.28579807
C       10.24420261      45.54466629      20.24032211
C       13.43394852      42.83160400      23.04288673
C       10.22453213      44.25809097      20.74967957
C       13.09331131      44.30745316      23.13299561
C       11.22840977      43.83736420      21.61154366
C       12.24137688      44.71773529      21.96783447
C       11.10283852      42.60187912      22.47789574
C       12.28914070      45.99271774      21.42275429
C       11.27022743      46.41783905      20.58733559
C       12.47000980      41.99960709      22.66717911
H        9.42946625      45.90221405      19.62145615
H       14.46028805      42.51496506      23.25410843
H        9.38535881      43.59876251      20.57593346
H       14.01512814      44.90271378      23.12341499
H       10.41841125      41.92256927      22.04235268
H       13.10164642      46.69475174      21.70925140
H       11.26156616      47.40247726      20.20272636
H       12.62590885      40.92613602      22.52266121
C       11.61217499      53.63150024      16.41757393
C       14.91723156      49.95312500      17.30002022
C       11.93173504      52.47828674      15.76060009
C       14.59602642      51.09754181      17.97171593
C       12.90262222      51.59637833      16.29398155
C       13.57040501      51.94565964      17.48871613
C       13.21579075      50.37229538      15.65792370
C       13.19486427      53.12084961      18.16987610
C       12.24050808      53.94142914      17.64767075
C       14.20852089      49.57137680      16.15025711
H       10.90301800      54.32872009      15.98353481
H       15.67371273      49.29966736      17.70255661
H       11.44641209      52.24528503      14.82362366
H       15.09782028      51.35310745      18.89075088
H       12.64184093      50.07830048      14.79677486
H       13.69320774      53.35425949      19.10592461
H       11.97125435      54.86491776      18.16235733
H       14.42125416      48.61996841      15.66200447
C       22.84983253      36.65416336      19.76062393
C       20.55216217      37.32775116      24.14518356
C       21.75852013      36.07123947      20.33106232
C       21.78474045      37.66922760      23.68762398
C       21.38139915      36.38357544      21.65140343
C       22.22163582      37.22717285      22.41393280
C       20.12621689      35.99065781      22.17633057
C       23.43105316      37.68492508      21.84152985
C       23.72799301      37.44413376      20.53911591
C       19.71077538      36.49067688      23.38786507
H       23.01466560      36.48697281      18.71082687
H       20.16587639      37.70825195      25.08265305
H       21.13571930      35.40752029      19.75482559
H       22.43319511      38.33411407      24.25733566
H       19.49291611      35.31688309      21.61183739
H       24.08065605      38.30334854      22.47057915
H       24.63693619      37.86746597      20.11646080
H       18.75653839      36.26291275      23.78692818
C       -8.41003609      35.31606293      16.18206978
C       -9.21639252      30.46622658      15.03279114
C       -8.33386707      34.58772278      15.02351284
C       -9.11328411      31.13533783      16.21596146
C       -8.53032589      33.18384933      15.02372646
C       -8.81703472      32.52375793      16.23682213
C       -8.58188438      32.45335388      13.81875229
C       -8.91514874      33.31534958      17.40531158
C       -8.70225334      34.65620422      17.39365768
C       -8.98623466      31.14150238      13.81766891
H       -8.34025764      36.38973236      16.19576645
H       -9.49351120      29.40604019      15.00428677
H       -8.20863342      35.07229233      14.07768822
H       -9.30443096      30.59240532      17.12108803
H       -8.36720753      32.96920013      12.88591576
H       -9.27479649      32.86447906      18.33915901
H       -8.86759949      35.22882080      18.27938843
H       30.63713837      30.61853218      12.87930298
C        9.02058697      50.33395386      26.07740211
C       13.99724865      49.76472855      25.17200661
C        9.75962162      49.57725525      25.20862198
C       13.30485344      50.56529999      26.19273758
C       11.16516781      49.68206024      25.16787720
C       11.81281662      50.44136047      26.16421890
C       11.94295883      49.09374237      24.13203621
C       11.03702641      51.23023224      27.00237465
C        9.65694714      51.22287750      26.94309425
C       13.33909512      49.12436676      24.17277145
H        7.93597317      50.28279495      26.05454636
H       15.08600140      49.73917389      25.23438644
H        9.25742054      48.93888092      24.49115562
H       13.67650986      50.26256943      27.18758202
H       11.46738338      48.60486984      23.30633354
H       11.50672626      51.90314102      27.69259262
H        9.10511112      51.90647507      27.55774307
H       13.90583229      48.59345245      23.40270233
C       14.81146717      50.37369156      12.57930279
C       14.09215736      50.81987762       7.60560131
C       15.51619053      49.95436096      11.49213600
C       13.37680531      51.23507690       8.70005703
C       15.04495049      50.22355652      10.17739773
C       13.83848095      50.94814682      10.01018047
C       15.76288986      49.81747437       9.02755260
C       13.12835312      51.36292648      11.16353798
C       13.60363579      51.08683395      12.40997314
C       15.30258560      50.11880493       7.77901602
H       15.20641232      50.18517685      13.56778145
H       13.71465111      51.01232529       6.57731962
H       16.45298767      49.45523453      11.59163094
H       12.44315720      51.76762009       8.56950092
H       16.68961143      49.28700256       9.17560863
H       12.21227360      51.94371033      11.05237961
H       13.08803654      51.45730209      13.26422501
H       15.89495277      49.81068420       6.91187525
C       -2.32513189      51.42329025      17.12462234
C       -5.54368734      48.11310959      15.14137840
C       -3.09475374      50.43633270      17.65403938
C       -4.76028681      49.09233856      14.60173225
C       -3.87737870      49.60630798      16.81419754
C       -3.88478994      49.84255981      15.42436218
C       -4.67450714      48.55860901      17.33716774
C       -3.02717805      50.85572052      14.89900684
C       -2.27371263      51.61280823      15.73429489
C       -5.47158861      47.80889511      16.52074432
H       -1.78654587      52.06704712      17.76807785
H       -6.20033264      47.53558350      14.53140545
H       -3.15735459      50.27592468      18.72668648
H       -4.80221748      49.29456329      13.55145264
H       -4.61737442      48.35665131      18.39313126
H       -2.99299812      50.99787903      13.83866310
H       -1.62754226      52.39225769      15.33727741
H       -6.05171204      46.98113632      16.92022896
C       -2.65075803      52.54670334       7.11429882
C        0.08157901      48.85463715       5.13476038
C       -1.97572875      52.42364120       5.94291592
C       -0.64387137      48.98169327       6.28370857
C       -1.36062598      51.20770264       5.60412693
C       -1.38873494      50.14348221       6.53800821
C       -0.69018853      50.99836731       4.36982346
C       -2.13860416      50.28439713       7.73698521
C       -2.74957418      51.45981216       8.01672649
C        0.02517681      49.85113525       4.14636183
H       -3.12107682      53.48590088       7.37522888
H        0.65182871      47.96098328       4.98162842
H       -1.95748544      53.28038788       5.23626328
H       -0.67880082      48.21028519       7.00292253
H       -0.75962818      51.75211334       3.60403919
H       -2.19599867      49.42957687       8.42082787
H       -3.30713940      51.57987595       8.93540859
H        0.52454561      49.72113419       3.19437408
C        6.44719172      41.26768494       6.53463507
C        6.91735792      39.63998795       1.70146573
C        6.16444969      39.85681534       5.94613218
C        6.25221395      40.72753143       2.26593566
C        6.48025799      39.76997375       4.45770216
C        6.05759001      40.80803299       3.63127041
C        7.15916109      38.69636917       3.90444064
C        5.33859205      41.94960403       4.24514961
C        5.55405235      42.20796204       5.76190043
C        7.39817429      38.64091492       2.53687453
H        6.15194321      41.27393723       7.56961441
H        7.08872938      39.58540726       0.62798929
H        6.78014755      39.10574722       6.45415926
H        5.89958048      41.53480530       1.63619077
H        7.52523327      37.90744781       4.56721306
H        5.48444510      42.85966492       3.65698290
H        5.78406143      43.22584534       6.00592947
H        7.93846703      37.80517578       2.12201667
C        0.19189250      37.08946609      16.97902107
C        1.44341767      39.54332352      12.78798199
C        0.23029979      36.72644043      15.66826153
C        1.23401201      39.92566681      14.07426929
C        0.61501050      37.65792847      14.67061520
C        0.89018440      38.98748779      15.06840420
C        0.75937825      37.29754639      13.30832577
C        0.84011245      39.34569550      16.43806648
C        0.50978422      38.40533447      17.37551117
C        1.20960033      38.20811844      12.39484596
H       -0.08573782      36.36233521      17.74384880
H        1.75980389      40.24878693      12.04565620
H       -0.00904508      35.71606064      15.35727310
H        1.35452247      40.96704483      14.36712646
H        0.56192058      36.28115845      13.02256298
H        1.08065140      40.34060669      16.71255302
H        0.49676073      38.67139816      18.43799782
H        1.36588001      37.94345474      11.36424160
C       -8.65798569      34.19310379      22.41525269
C      -10.74310207      36.40492630      26.44830132
C       -8.25045490      34.36429977      23.70664787
C      -11.19462013      36.13575745      25.18742752
C       -9.09217072      35.01571274      24.64824104
C      -10.36471844      35.46705246      24.24729729
C       -8.68572807      35.25284195      25.98620415
C      -10.76055908      35.27201843      22.89260674
C       -9.92994690      34.65833664      22.00683022
C       -9.47336388      35.95147705      26.85623360
H       -8.00573730      33.70429993      21.69442940
H      -11.35169411      36.98962402      27.11944580
H       -7.29572725      34.01498032      24.02495956
H      -12.17237568      36.44953918      24.90489388
H       -7.70171213      34.93414688      26.29818344
H      -11.74627018      35.63311768      22.56550598
H      -10.24865723      34.52044678      20.97679520
H       -9.13017464      36.17818832      27.86349297
C       20.92173767      55.53770065      24.36026192
C       18.73023987      52.82582474      27.98076630
C       20.74955368      54.19963074      24.56264877
C       18.95903778      54.15933228      27.82946777
C       20.08932686      53.71590042      25.71606064
C       19.65225983      54.63901520      26.69187355
C       19.83998108      52.33063507      25.91184807
C       19.87501907      56.02377319      26.47480392
C       20.46207428      56.45771408      25.32560349
C       19.18368340      51.89939880      27.01557541
H       21.40576553      55.90086365      23.47333336
H       36.96795654      52.44166183       0.30346242
H       21.13238907      53.47084427      23.83531570
H       37.38964844      54.86219406       0.01225761
H       20.14669609      51.62395859      25.12887383
H       19.52857208      56.73490143      27.20834923
H       20.57871437      57.52501297      25.12383080
H       18.99498177      50.85722733      27.17135429
C       14.92177582      55.32074738      16.33071899
C       14.96974468      55.77051926      11.33069038
C       14.88357830      54.41544724      15.30497360
C       14.90253448      56.67129135      12.34550858
C       14.91131210      54.84580231      13.95638084
C       14.90511417      56.23032761      13.68614864
C       15.02955818      53.94104004      12.87374020
C       14.98135376      57.13449097      14.77440548
C       14.99747562      56.70235825      16.05840302
C       15.06480026      54.38834000      11.58021641
H       14.91758633      54.98169708      17.34946632
H       15.04833889      56.11439133      10.31272507
H       14.82769394      53.35467148      15.51366425
H       14.94806862      57.74177170      12.14471912
H       15.12475967      52.89158630      13.09194279
H       15.09336376      58.18054581      14.55791664
H       15.08576775      57.41451263      16.86519623
H       15.18345070      53.68663406      10.75849247
C        0.11223334      56.18641281      25.04850960
C       -4.20549297      57.89693832      26.95592308
C       -0.71843094      57.21325302      24.71533012
C       -3.44538951      56.78987122      27.22578812
C       -1.94726968      57.40969467      25.39396667
C       -2.30606866      56.51694870      26.43239594
C       -2.80823469      58.48903656      25.09034920
C       -1.45621288      55.41785431      26.70188713
C       -0.26552626      55.27075195      26.05073357
C       -3.89978242      58.73499298      25.86272430
H        1.05975568      56.07527924      24.54427528
H       -5.07512999      58.12646103      27.56562233
H       -0.42559019      57.92287827      23.94182777
H       -3.66906166      56.15242004      28.02628708
H       -2.55546117       0.20633452      24.23133850
H       -1.74867034      54.73418045      27.47068024
H        0.38133058      54.46740723      26.33146286
H       -4.56067610       0.63301891      25.63491249
C        6.28267336      32.97587585      11.10398483
C        6.12523556      37.17245483       8.38999271
C        5.63566017      33.32416916       9.96102142
C        6.99104547      36.72138977       9.33907795
C        5.88837671      34.56001282       9.32462311
C        6.87233734      35.41595840       9.87171078
C        5.10719109      35.00871277       8.23827362
C        7.61828899      34.94691086      10.97417259
C        7.29820156      33.79419708      11.62139130
C        5.17970896      36.29955673       7.81140947
H        6.02605343      32.09017944      11.62799072
H        6.18190050      38.20713806       8.09260368
H        4.87767649      32.67495346       9.54440594
H        7.76416111      37.38235474       9.74925327
H        4.40893650      34.31989670       7.77843618
H        8.43569183      35.53075027      11.32526016
H        7.83866119      33.50239563      12.49970150
H        4.50137997      36.64385986       7.04984570
C        0.47365010      53.74107361      17.73190308
C        2.04896975      54.06534576      22.51157570
C        0.34086201      52.94105530      18.82259178
C        2.18358898      54.87489700      21.41905212
C        0.93503380      53.29017639      20.06009483
C        1.64987803      54.50180817      20.16134834
C        0.81834811      52.46931076      21.19883537
C        1.82405198      55.28622818      18.99666405
C        1.24475431      54.92704391      17.81891823
C        1.36023355      52.83187103      22.39568329
H        0.01601566      53.47784042      16.78599739
H        2.47255397      54.35169601      23.46573067
H       -0.17686306      52.00128937      18.78986931
H        2.74402714      55.80776596      21.50197029
H        0.28916010      51.52597427      21.08880615
H        2.41961980      56.18038177      19.06776047
H        1.39777505      55.56721878      16.93139458
H        1.26757944      52.19618607      23.24994087
C       11.92829418      57.27534103      27.70485115
C       16.61439133      57.01590347      26.05183411
C       12.49491405      57.32125473      26.47216606
C       16.10281754      57.30874252      27.28356934
C       13.88029289      57.43105698      26.29772186
C       14.70169640      57.46463013      27.44618607
C       14.45782375      57.32299042      25.02161980
C       32.89863205      57.43600845       0.18999082
C       31.54681778      57.31301880       0.32235211
C       15.78376579      57.04580688      24.90254402
H       10.85493660      57.11585617      27.81621552
H       17.65076447      56.79881668      25.91208076
H       11.89416409      57.18570328      25.59925270
H       16.75486374      57.35739517      28.14021301
H       13.84252644      57.39044189      24.13568497
H       33.50987244      57.44897079       1.08196187
H       31.08724022      57.17620468       1.30719280
H       16.22772789      56.88848114      23.92710686
C        6.86331272      30.44698143      20.27073288
C        8.92275715      30.34138107      24.86533356
C        8.00011349      29.87490082      20.78585625
C        7.75807619      30.85546112      24.37394905
C        8.32392216      30.01656532      22.15567780
C        7.44061708      30.73659134      22.99330902
C        9.52054119      29.48633385      22.69535446
C        6.28481627      31.32553482      22.43569565
C        6.00711155      31.18992424      21.10390282
C        9.82471657      29.66832161      24.01855850
H        6.63303185      30.34620094      19.21305084
H        9.17167377      30.44085121      25.92599678
H        8.67379951      29.30335236      20.14574814
H        7.06074190      31.39170265      25.01996231
H       10.19441128      28.97296333      22.02954674
H        5.61983776      31.92035484      23.09190559
H        5.13208628      31.67018700      20.67106628
H       10.75967789      29.29174232      24.41545868
C       15.25589657      36.93484497      24.33606720
C       11.28100681      38.68525696      26.85295677
C       14.33180141      36.33385849      25.13558197
C       12.09961319      39.21004486      25.89798164
C       13.26142311      37.07309723      25.68250465
C       13.13061047      38.43875122      25.32119179
C       12.35367298      36.53796768      26.63634872
C       14.08239651      39.02526474      24.45244980
C       15.13931370      38.29388809      23.98423767
C       11.41153908      37.32626724      27.21590233
H       16.08897018      36.35620117      23.98104095
H       10.55053139      39.29067230      27.34571075
H       14.41126442      35.28774643      25.37610245
H       12.02785873      40.25903320      25.60908699
H       12.44927692      35.52375031      26.93617630
H       13.97247028      40.09085846      24.19637680
H       15.89343166      38.73838806      23.33459282
H       10.76250648      36.93787003      27.99605560
C       17.58844757      30.51485825      13.14668274
C       20.37369156      34.14470673      11.08618069
C       18.75781059      31.09628105      13.52246761
C       19.34410477      33.37566376      10.63857079
C       19.32893372      32.10361481      12.70909882
C       18.77158165      32.37989426      11.44355106
C       20.34530067      32.95584869      13.18758392
C       17.55098343      31.74608803      11.07987499
C       16.94837761      30.88915825      11.94624805
C       20.83487320      33.96289062      12.41569901
H       17.10441017      29.79172325      13.78862190
H       20.78689575      34.92425537      10.46133423
H       19.21827698      30.84591484      14.45841599
H       18.90299416      33.59814453       9.68914223
H       20.68277740      32.80666733      14.20877075
H       17.06327057      32.03556824      10.14869118
H       15.96949387      30.50254250      11.71139908
H       21.57297134      34.61992645      12.82841969
C       -2.76850772      58.16159439       8.78832054
C       -5.20963955      57.63734436      13.15560913
C       -2.89443207       0.01826431       9.88637543
C       -4.87718391      56.77615738      12.14737415
C       -3.67834425      58.53525543      10.98435593
C       -4.19264603      57.23044586      10.99560070
C       -4.03667212       0.48587587      12.03876019
C       -4.06131840      56.42126465       9.83019447
C       -3.40768719      56.90159225       8.73432541
C       -4.82075310       0.06631834      13.06585503
H       -2.17897797      58.51674271       7.95150757
H       -5.75690079      57.26459503      14.00963306
H       -2.42372632       1.00062466       9.90715599
H       -5.15740871      55.76690674      12.22384262
H       -3.69831085       1.50481093      11.99821854
H       -4.50481939      55.43405914       9.83397484
H       -3.34139228      56.28067780       7.82871008
H       -5.14443207       0.76108730      13.83953094
C       11.42894554      36.72011566      22.25307846
C       13.23688316      34.01454163      18.47699738
C       12.69441700      36.35608673      21.90083885
C       12.07963181      34.70882797      18.62727165
C       12.94010544      35.70216370      20.67861176
C       11.87246704      35.51651764      19.76914406
C       14.19447613      35.10251236      20.39222336
C       10.57867718      35.97411346      20.12736511
C       10.35771847      36.51219559      21.35797310
C       14.32412720      34.23612976      19.34757042
H       11.24429989      37.12589645      23.24503326
H       13.33796120      33.25946808      17.69510651
H       13.53045273      36.47050476      22.61272621
H       11.24862671      34.57546997      17.92296219
H       15.05184269      35.28761673      21.04121971
H        9.73587990      35.81306076      19.43492889
H        9.35488892      36.76189804      21.69095230
H       15.26292801      33.72692108      19.16319847
C        8.32742691      57.81083298       7.51085854
C        5.43463325      58.22450256      11.60721874
C        8.50325680      57.48064423       8.82411957
C        5.27229452      58.60389709      10.30649853
C        7.49121046      57.74078369       9.78140640
C        6.29976416      58.36883926       9.35942745
C        7.63202810      57.37737656      11.14929485
C        6.13710022      58.67850494       7.98654985
C        7.11403990      58.40126801       7.08564138
C        6.63102436      57.60667038      12.03894615
H        9.10117912      57.63547897       6.78560972
H        4.64139700      58.38891220      12.31478119
H        9.41861439      57.00921631       9.16276073
H        4.34757376       0.13284189       9.97716618
H        8.56325436      56.90030289      11.47930336
H        5.20014143       0.17763336       7.67237425
H        6.95037079      58.59943008       6.03595114
H        6.77283239      57.32968521      13.08086395
C       -7.99564028      49.65996552      22.20051193
C       -9.88208771      47.25578308      18.24999428
C       -9.25044441      49.21148300      21.90878296
C       -8.62594795      47.65325546      18.59373283
C       -9.49475193      48.55807495      20.67389679
C       -8.40131664      48.30258560      19.82336998
C      -10.80009937      48.18821716      20.26006889
C       -7.11475754      48.75027084      20.17343330
C       -6.93814659      49.45122910      21.31513405
C      -10.98266792      47.53204727      19.08013153
H       -7.81760550      50.25922394      23.06697083
H      -10.02802181      46.73315048      17.32311630
H      -10.07268620      49.41834641      22.57435036
H       -7.78601885      47.49229050      17.92258072
H      -11.65676880      48.42350006      20.87889671
H       -6.29954147      48.59669113      19.43672752
H       -5.97907925      49.89953613      21.53611946
H      -11.97487640      47.22176361      18.76970100
C       -3.29628110      55.28622818      23.25389099
C       -5.59958649      57.60205460      19.46570206
C       -2.97731876      56.36772537      22.49972153
C       -6.03523350      56.75222397      20.43157005
C       -3.84676218      56.82826233      21.48732758
C       -5.12298918      56.24562454      21.39433861
C       -3.44205117      57.77568054      20.51989174
C       -5.43200922      55.11344528      22.18126488
C       -4.51518631      54.59063339      23.03697777
C       -4.28320694      58.09969330      19.49374962
H       -2.61843157      54.92214203      24.00254250
H       -6.29135656      57.91774368      18.66785049
H       -2.00606203      56.85468674      22.61658096
H       -7.04522467      56.41699982      20.44932938
H       -2.45252275      58.18437195      20.55896950
H       -6.38979864      54.64876556      22.05864716
H       -4.74150181      53.68372345      23.61346245
H       -3.94526196      58.78321838      18.74596214
C        3.53312802      35.01667404      25.94836044
C        8.13664150      36.02156448      27.67000198
C        4.73157883      34.34855652      25.86908722
C        7.18809271      36.99831772      27.09043503
C        5.93806982      34.95258713      26.29636574
C        5.91048002      36.31178665      26.69674683
C        7.11817598      34.19119263      26.46016884
C        4.68325281      36.96231842      26.76465034
C        3.50226402      36.32759094      26.43095398
C        8.15220928      34.72470093      27.25915909
H        2.60433149      34.51200485      25.69220543
H        8.85720348      36.36828613      28.39922523
H        4.73627806      33.31462479      25.54973793
H        6.94258118      37.78767395      27.83935165
H        7.17290163      33.16664886      26.09319878
H        4.64516354      37.98735428      27.10144234
H        2.55428123      36.84253311      26.55476570
H        8.94070530      34.04418945      27.60116386
C       20.26549149      44.32865906       4.77172089
C       15.59494495      43.91307449       2.94729185
C       19.21616936      45.19395828       4.65004301
C       16.60833359      43.01826096       3.13569617
C       18.01132011      44.77763748       4.05114412
C       17.84034538      43.42472458       3.66634226
C       16.95017624      45.67626190       3.86447978
C       18.93550873      42.54361343       3.84463143
C       20.12104607      42.99439621       4.32834673
C       15.77416897      45.25862503       3.31631112
H       21.21365929      44.67771149       5.17929173
H       14.64867496      43.56959534       2.53049779
H       19.30439377      46.23189926       4.94636631
H       16.44439125      41.96315002       2.90552855
H       17.10372543      46.72887039       4.13840485
H       18.82649994      41.49287033       3.57429695
H       20.97539139      42.33127213       4.36476564
H       14.97440529      45.97681427       3.19009304
C       -1.83563530      52.55945206      23.99539948
C       -4.60923433      48.53964615      22.83672523
C       -1.97747040      51.80073547      22.86811447
C       -4.59786654      49.38123322      23.90402412
C       -2.94705391      50.78845215      22.79057693
C       -3.76842833      50.53601837      23.90785027
C       -3.08637238      49.96977615      21.63936234
C       -3.70474219      51.42749023      25.01000786
C       -2.74822545      52.40500641      25.05998421
C       -3.89234376      48.87585449      21.66268349
H       -1.05719662      53.29384232      24.03807640
H       -5.22994852      47.65848160      22.85378265
H       -1.34831488      51.97429276      22.01899147
H       -5.19684601      49.17130661      24.79103088
H       -2.49816084      50.21870422      20.75013161
H       -4.41760111      51.28823471      25.81533813
H       -2.66370344      53.04598999      25.90623474
H       -4.00402641      48.28870392      20.77013588
C       -9.92186451      41.16244888      19.52136803
C       -8.46296120      43.78536606      15.48869514
C       -9.57777786      42.45973969      19.31479836
C       -8.79341316      42.47882462      15.67730522
C       -9.25802898      42.93424606      18.02170372
C       -9.25032234      42.02763367      16.94409180
C       -8.94194794      44.29552460      17.79113770
C       -9.67165184      40.69245529      17.16677475
C      -10.01161194      40.27779388      18.42429161
C       -8.56861496      44.71425247      16.55742264
H      -10.13361645      40.80828094      20.51775932
H       -8.11271095      44.14646912      14.52345276
H       -9.55833244      43.16604996      20.12112427
H       -8.74354458      41.78971863      14.86734772
H       -8.99793530      44.97155762      18.63306046
H       -9.71286201      40.00223923      16.32953644
H      -10.30521965      39.24922562      18.60985565
H       -8.33476448      45.74071503      16.37775803
C       17.26426697      34.16389465      23.42778778
C       15.77928066      29.45513535      24.33193207
C       16.13296509      33.46681595      23.12653160
C       16.97393227      30.09000206      24.44921303
C       16.01271057      32.12105942      23.50106430
C       17.10082817      31.46240044      24.10917282
C       14.77857685      31.43042183      23.37536430
C       18.25610733      32.20858383      24.42780876
C       18.31876946      33.54302597      24.12413025
C       14.65504551      30.16796112      23.85770226
H       17.33828354      35.19199371      23.12165833
H       15.66301537      28.43401146      24.65632629
H       15.29084110      33.95179749      22.63871193
H       17.83391953      29.58242798      24.86736488
H       13.92770195      31.93052101      22.98359108
H       19.07063866      31.72933578      24.93832397
H       19.18327904      34.14944077      24.41493607
H       13.68003464      29.74583435      23.91075706
C        3.31024957      30.00315666      17.08168411
C        6.29059887      28.33517647      13.38891602
C        3.31980753      30.17662048      15.71952057
C        6.28428459      28.15647507      14.73785210
C        4.31066322      29.57369614      14.92857361
C        5.29473877      28.77765274      15.54707146
C        4.36481094      29.77184868      13.52669716
C        5.27207565      28.60441017      16.94961166
C        4.28763819      29.19907379      17.70131493
C        5.34017420      29.17959595      12.76917076
H        2.56336737      30.51174355      17.65566444
H        7.02466726      27.80526161      12.77625370
H        2.57275987      30.79447556      15.24987984
H        7.04517269      27.53920746      15.22503471
H        3.60996580      30.40316772      13.05983162
H        6.00641155      28.00359726      17.42783165
H        4.25521946      29.06892395      18.79049492
H        5.36421394      29.33758354      11.69333076
C       23.20829582      55.43260574       6.44730043
C       22.17306137      57.61103439      10.86451721
C       23.44050217      55.07877350       7.74569845
C       21.84254265      57.90671158       9.57219315
C       22.96163559      55.86590576       8.82393932
C       22.23726463      57.03343582       8.52262878
C       23.21406746      55.55551529      10.17427540
C       21.96462059      57.35088730       7.16944408
C       22.43702507      56.57109070       6.15596962
C       22.84359932      56.40914536      11.17624187
H       23.65324020      54.85984039       5.63754463
H       21.90376282      58.31164932      11.65621567
H       24.01922798      54.20966339       7.97582865
H       21.29947090      58.84045792       9.32787800
H       23.73640442      54.61375809      10.43116283
H       21.42896271      58.27317429       6.95392895
H       22.25511932      56.86629868       5.12297869
H       23.06540489      56.15864182      12.19600868
C       26.66526794      36.13058090       5.06367731
C       23.40227509      35.49512100       1.30519605
C       25.38984871      36.55213547       4.86602688
C       24.72905350      35.20670319       1.44433916
C       24.70097351      36.15549088       3.68149543
C       25.39311409      35.48915100       2.65732765
C       23.30505562      36.37879562       3.53615737
C       26.71601677      35.03604889       2.91887879
C       27.30498886      35.29877090       4.12762690
C       22.67254448      36.03545761       2.38744569
H       27.21688843      36.38347626       5.99123573
H       22.89935303      35.27816010       0.37627757
H       24.85640907      37.12349701       5.59683466
H       25.25883102      34.70347595       0.63896263
H       22.73742294      36.76374435       4.40493107
H       27.21456718      34.45594025       2.16281390
H       28.26831818      34.89619064       4.38633347
H       21.61161995      36.18631363       2.29419541
C      -10.69163036      52.01870728      20.91438103
C       -6.30430412      51.49913406      18.50952911
C       -9.39726067      52.23334885      21.27315903
C       -7.59855175      51.29519653      18.14396477
C       -8.35214329      52.03386688      20.34153557
C       -8.65787315      51.55541229      19.05071831
C       -6.99686050      52.22822952      20.69569969
C      -10.01632118      51.33263779      18.70470810
C      -11.00710297      51.57472610      19.61627197
C       -6.00749826      51.96078110      19.80937958
H      -11.48612976      52.19424820      21.61737251
H       -5.49602413      51.27472687      17.81381035
H       -9.12382698      52.55791473      22.26999664
H       -7.82941866      50.88487244      17.16544151
H       -6.74029303      52.57521820      21.69974709
H      -10.25917912      50.94991302      17.72588730
H      -12.03430462      51.40127182      19.36707115
H       -4.97932863      52.07439041      20.11636353
C       21.07898331      35.78121185      15.71369362
C       18.21275711      39.23328400      18.02081871
C       20.59799004      35.90222549      16.98833084
C       18.76088905      39.14259338      16.78506279
C       19.77935410      37.00027466      17.36498070
C       19.52214432      38.01139832      16.40682983
C       19.17127037      37.11881256      18.64170074
C       19.97878456      37.82729721      15.08365917
C       20.73367119      36.73497391      14.74812031
C       18.40442276      38.19885635      18.95676613
H       21.69449615      34.94794846      15.44653606
H       17.64350891      40.10215759      18.29265404
H       20.84735870      35.10555649      17.72161293
H       18.64422798      39.93875885      16.06448746
H       19.31940460      36.32190704      19.35716057
H       19.68902969      38.57884216      14.35643482
H       21.08813667      36.61098862      13.72276306
H       17.94538116      38.26022720      19.93663597
C       10.15525150      55.71622467      19.91703987
C        5.62640333      54.85341644      21.91552734
C        9.73262787      55.22108459      21.11252785
C        6.02897930      55.21570206      20.66267967
C        8.36042118      54.98489761      21.35653305
C        7.41693449      55.31769180      20.36316681
C        7.90523911      54.49239731      22.59310341
C        7.89395285      55.72875214      19.10285377
C        9.22042274      55.92819977      18.87944222
C        6.57714510      54.50096512      22.89338493
H       11.19870377      55.93097687      19.77496529
H        4.57177162      54.77193069      22.14059067
H       10.44553471      55.01079178      21.91962051
H        5.31000948      55.40570068      19.87728119
H        8.63321304      54.16324997      23.33787346
H        7.20913267      55.80711746      18.26417160
H        9.55266762      56.21475983      17.90237617
H        6.23172235      54.24129868      23.87003899
C       20.64007187      43.43815994      11.87157536
C       17.51515770      46.38443375       9.24150658
C       19.78448677      44.43557739      12.22104836
C       18.46999168      45.48302841       8.89315987
C       18.99532127      45.10537720      11.24532700
C       19.18897247      44.76645279       9.89228249
C       17.99625587      46.05694580      11.58220959
C       20.03978348      43.69160843       9.56634712
C       20.74109077      43.02895737      10.53071690
C       17.25340843      46.64717865      10.60046101
H       21.22187233      42.91975021      12.64142227
H       16.95010376      46.92496109       8.47291183
H       19.68022919      44.73349762      13.25298405
H       18.69032097      45.28999329       7.85786438
H       17.80798531      46.26685715      12.62123871
H       20.06711578      43.36914062       8.54233360
H       21.31072426      42.12628555      10.26353168
H       16.47712517      47.36192322      10.85293770
C       25.51423264      58.00800323       4.79109764
C       26.07319641      56.36756134       9.51909161
C       25.10418320      58.49398041       6.01062012
C       26.40028000      55.86285782       8.30528450
C       25.37406731      57.76854706       7.19387722
C       26.06935692      56.54339981       7.11212873
C       25.01462364      58.26174927       8.46828175
C       26.38129425      56.02557755       5.83264923
C       26.13388252      56.74283218       4.70486355
C       25.37319946      57.60062027       9.60672569
H       25.36476135      58.58097839       3.88684487
H       26.32050896      55.82439804      10.42438126
H       24.57675362       0.51041621       6.06982946
H       26.92182350      54.89998245       8.20882511
H       24.46022224       0.25441545       8.53587723
H       26.80885315      55.04906082       5.75573111
H       26.40428543      56.36819458       3.74591732
H       25.08868027      57.95787430      10.56956482
C       14.40070915      36.03609467       3.68842602
C       18.88961029      38.26078415       3.66239166
C       15.65773773      35.58961868       3.97829700
C       17.63894653      38.65982056       3.31011343
C       16.76537132      36.43972397       3.78861284
C       16.56120873      37.74787140       3.29729080
C       18.08169937      36.04191589       4.12758207
C       15.26133060      38.14210892       2.91195345
C       14.19304752      37.31888580       3.13325572
C       19.12643623      36.91750717       4.02759218
H       13.54346466      35.40791321       3.81983495
H       19.68861389      38.97145844       3.63222528
H       15.80081463      34.57200241       4.37883472
H       17.45034981      39.69215393       3.02838635
H       18.24263000      35.03190613       4.48722506
H       15.10740757      39.14286804       2.54191661
H       13.17436409      37.63468552       2.93403316
H       20.12729836      36.59172821       4.29576349
C       19.70403481      55.26849365       9.36457157
C       22.73618126      51.42013931      10.41493320
C       20.08911514      54.65838242      10.52856445
C       22.27430725      51.95258713       9.23962784
C       20.91043091      53.51294327      10.50098419
C       21.34713936      53.01564789       9.25842381
C       21.29220581      52.86235046      11.69034195
C       20.91189957      53.64544296       8.06515312
C       20.11682701      54.74465561       8.12450027
C       22.19420815      51.83782578      11.64451313
H       19.11102104      56.16764832       9.38705254
H       23.49537086      50.66150665      10.39826012
H       19.81173515      55.08921051      11.49401665
H       22.63932228      51.57688904       8.28969860
H       20.86134529      53.17846298      12.64258575
H       21.26633453      53.28047180       7.11407852
H       19.87115097      55.25870514       7.22292471
H       22.50102043      51.33987808      12.54810143
C       26.31058311      44.97453690       2.87110043
C       21.34373474      45.14900970       2.12654519
C       25.43463707      45.99297333       2.60158467
C       22.23427773      44.13400269       2.31510162
C       24.07056808      45.72471237       2.36666775
C       23.60980225      44.39318848       2.43363738
C       23.13683128      46.75101471       2.12507105
C       24.54964638      43.35046387       2.62532973
C       25.85840416      43.63677216       2.87565708
C       21.80210686      46.47768402       2.02816153
H       27.36251259      45.18091965       3.04279113
H       20.28269196      44.94235229       2.08465457
H       25.77674675      47.02319336       2.57379484
H       21.88840103      43.12715912       2.40677428
H       23.49541473      47.77172470       2.06637073
H       24.18904304      42.34244537       2.58614445
H       26.54571342      42.85126114       3.10205150
H       21.07485580      47.27235413       1.92592502
C       -1.25691092      46.68643570      16.06503296
C        0.64282107      49.44515228      19.71981049
C       -0.36915791      47.73025894      16.05038071
C       -0.48452932      48.69153595      19.62573624
C       -0.11233300      48.45801163      17.22781563
C       -0.87643158      48.16402435      18.37350845
C        0.98731518      49.33880234      17.33881950
C       -1.94754303      47.23841476      18.28069878
C       -2.10198689      46.46937180      17.16933823
C        1.38529360      49.79005814      18.56839371
H       -1.26542020      45.99594879      15.23425579
H        0.99752498      49.75319672      20.69669724
H        0.21197236      47.93372345      15.17979145
H       -1.05392218      48.39808655      20.50057411
H        1.53818548      49.55260849      16.46069336
H       -2.57648206      47.10102081      19.14429665
H       -2.85804224      45.69117355      17.13972664
H        2.25746894      50.42845917      18.67229271
C       32.26284027      51.49306870       4.22099352
C       28.92276192      47.78567886       4.21160316
C       32.35700226      50.17105484       3.92145228
C       28.90964317      49.05310822       4.71239996
C       31.25873756      49.31315613       4.16630602
C       30.06641960      49.86070251       4.67728233
C       31.28018951      47.95075989       3.78855801
C       30.04661942      51.20508194       5.10701180
C       31.14281654      51.99921799       4.90929604
C       30.12984657      47.22440720       3.76334333
H       33.04851532      52.16937256       3.96974993
H       28.00736237      47.18798447       4.19563913
H       33.22946167      49.77760315       3.43458271
H       28.00582504      49.48297119       5.15254593
H       32.21470642      47.50849915       3.45012188
H       29.14148140      51.60997391       5.54395390
H       31.16038895      53.02417374       5.22962093
H       30.12734985      46.18035889       3.40220332
C       21.28411102      46.69325256      13.34914112
C       17.83886147      48.15144348      16.69333649
C       20.18219757      47.48328018      13.26731873
C       18.88054848      47.27792740      16.73592377
C       19.29350472      47.62117004      14.36166668
C       19.62148094      46.97395325      15.56997681
C       18.13111496      48.43399048      14.32099533
C       20.72068787      46.08046722      15.60874081
C       21.54874039      45.95287704      14.52567005
C       17.42252159      48.70431137      15.46433353
H       21.94783974      46.59575653      12.49749279
H       17.33266830      48.42300034      17.62557220
H       19.97075081      48.00786591      12.35938549
H       19.19722176      46.85179138      17.67632866
H       17.84563255      48.90177155      13.36764431
H       20.89712906      45.52215195      16.53918266
H       22.41467667      45.29862976      14.58241463
H       16.57929039      49.39588547      15.41883659
C        8.79418564      42.75369644       1.35508871
C       12.14151001      46.40981674       0.73095715
C       10.01129818      43.00684738       1.89559913
C       10.87955761      46.22449493       0.25506669
C       10.71442127      44.19216537       1.59645545
C       10.11950207      45.10291290       0.68812394
C       12.01808834      44.41150665       2.07405281
C        8.82475185      44.85035706       0.20701441
C        8.15799141      43.69993210       0.53228444
C       12.72531414      45.48343658       1.63226938
H        8.29007244      41.81990814       1.56207013
H       12.71410942      47.26354218       0.46654424
H       10.51000977      42.30778885       2.52229881
H       -8.37326050      46.90633392      28.06416512
H       12.45828247      43.70681763       2.75921655
H      -10.41618443      45.55663681      28.07763290
H        7.16662788      43.51853561       0.15111889
H       13.75589371      45.66281509       1.96374118
C       18.95183182      50.13002396      10.82440853
C       18.83481979      50.40285492       5.81057262
C       19.16356659      49.20221710       9.84528923
C       18.76429939      51.32736588       6.81211805
C       19.05508804      49.56705475       8.47792435
C       18.79142380      50.92011261       8.15867710
C       19.11309814      48.63245392       7.42146301
C       18.52565956      51.84361267       9.19069958
C       18.58615303      51.45503998      10.49543190
C       18.95598412      49.03926849       6.11761618
H       19.04420090      49.83051300      11.87238312
H       18.81350327      50.69381714       4.79106045
H       19.37648201      48.16477966      10.10805893
H       18.66114616      52.37443542       6.60217142
H       19.29367256      47.58055496       7.64271498
H       18.32291603      52.86400986       8.92160702
H       18.40132141      52.17565155      11.28357792
H       18.94846725      48.31739807       5.29896832
C       35.22211075      40.66780090       5.74921703
C       37.01859283      38.45099640       1.65608883
C       35.89376831      41.12654114       4.66558933
C       36.23656082      38.01009750       2.67756009
C       36.19471741      40.27228546       3.57882738
C       35.79599380      38.91943359       3.65646362
C       36.93280792      40.71482849       2.45396996
C       35.00191116      38.48989868       4.75262785
C       34.75051117      39.34518433       5.78221273
C       37.32473755      39.82328033       1.50785279
H       35.01440811      41.33905411       6.57480145
H       37.43399429      37.74714661       0.97325510
H       36.17527008      42.17066956       4.59239578
H       35.99607849      36.94636917       2.75808763
H       37.19525528      41.76905060       2.38032675
H       34.61739731      37.46827316       4.76262474
H       34.18799591      39.01265335       6.64271545
H       37.90898895      40.14150620       0.63367486
C       11.03569698      38.46524048       0.77647269
C       -6.58555889      43.09493256      27.71643448
C       12.16804028      39.22911835       0.84316456
C       -7.73259068      42.35884857      27.69522667
C       12.19146633      40.55054474       0.35014966
C       -7.77920675      41.06911087      28.28125000
C       13.36831474      41.34470367       0.38854238
C       -8.95304108      40.27912903      28.26190567
C        9.85844326      39.00730515       0.22853865
C       -5.42641497      42.58449554      28.33975983
H       11.03943634      37.46221924       1.12716091
H       -6.57407618      44.09709167      27.29740524
H       13.10041237      38.81818008       1.24570906
H       -8.64761257      42.75947952      27.24418449
H       14.26547623      40.94486618       0.85671318
H       -9.87019634      40.70808411      27.82913399
H        8.95827103      38.41987228       0.18719913
H       -4.54897022      43.19163895      28.37392426
C        3.93645382      40.63613892       6.91338205
C        3.32872605      38.65615082       2.25769377
C        4.63206434      39.48312378       6.20629501
C        3.18394375      39.93600464       2.77523851
C        3.94898224      39.15634918       4.90725040
C        3.53119946      40.20147705       4.09192085
C        3.96339655      37.84982300       4.41342735
C        3.82470512      41.60849762       4.52447176
C        4.07776070      41.85525513       6.03648520
C        3.69825411      37.60979080       3.07988214
H        4.44236517      40.79908752       7.86091900
H        3.11407185      38.48912811       1.21986127
H        4.61536074      38.61022568       6.84513760
H        2.88957477      40.74789047       2.13217640
H        4.29759169      37.05199432       5.04173756
H        3.13687205      42.31095886       4.07224607
H        3.53051043      42.70898056       6.42471600
H        3.77503681      36.60589981       2.68613863
C       25.32367325      34.07361221       7.09847546
C       23.65007591      35.37805557      11.64466095
C       25.32686424      35.23173141       7.81248999
C       23.58519554      34.22055817      10.92499638
C       24.75845337      35.29170227       9.09951878
C       24.14693642      34.14356613       9.63468170
C       24.83630371      36.46310043       9.87336922
C       24.14923668      32.94490051       8.87476444
C       24.72813606      32.91346359       7.64058876
C       24.32914352      36.49720383      11.13391590
H       25.79625130      34.02059555       6.11563158
H       23.24837303      35.45136642      12.62440205
H       25.77183533      36.15357590       7.42270994
H       23.09889793      33.34321976      11.34955978
H       25.25201416      37.34128189       9.41610241
H       23.69293404      32.05651474       9.28442860
H       24.74076271      32.00635147       7.05240250
H       24.34498024      37.42031479      11.71393490
7200
Lattice="39.763004303 0.0 0.0 0.0 58.9316482544 0.0 -18.8008785248 0.0 28.526468277" Properties=species:S:1:pos:R:3 step=1000 time_fs=500.0 pbc="T T T"
C       32.18637085      24.06548309       3.33809447
C       32.77854156      27.31941032       5.15139675
C       -3.14593005       1.96060884       5.31591225
C       36.26924133      27.56479263       3.23333144
C       32.84469986      24.94188118       2.55654716
C       31.92009163      28.17205620       5.92409849
C       -3.96315432       1.10183871       6.07987833
C       36.38888931      26.65159416       2.22960043
C       33.07621765      24.65871239       1.19134045
C       31.71867371      27.93534660       7.28509617
C       -4.37332058       1.49680376       7.41506052
C       37.31591415      26.84431267       1.20609498
C       29.01244545      25.63091278       7.58307648
C       37.81848145      29.02525139       1.95293713
C       38.64963150       0.15741268       0.93685508
C       32.89514542      25.87098885       7.00339317
C       -1.30436397       0.67000318       2.15039325
C       33.27738953      26.13357162       5.73371029
C       29.46728134      25.25727463       6.34777737
C       37.00914764      28.78104019       3.04061008
H       32.03076172      24.41617775       4.31652927
H       32.95840073      27.66621017       4.11013937
H       -2.77198434       1.67085695       4.39457178
H       35.58498001      27.51978874       4.07086182
H       33.08836746      25.86947823       3.02712393
H       31.55557251      29.00459862       5.48933935
H       35.56058884       0.06624713       5.71398926
H       35.92291260      25.67494011       2.24788260
H       29.44123840      26.58969307       7.95572424
H       38.38007355      29.85291672       1.73841584
H       38.07173538      58.25206757       0.50618398
H       33.20653152      24.87773323       7.32249975
H       -1.91690624       0.22484775       2.95343328
H       33.96469116      25.44715881       5.27864170
H       30.07588005      25.86641884       5.75110674
H       36.84245682      29.49109459       3.77846026
C       27.30752563      24.21199417      10.50642872
C       28.36458015      27.52244568      12.63648701
C       -7.27335072       1.47703969      12.83972836
C       30.95216560      27.09127998       9.86916542
C       27.94658089      25.17488670       9.68923283
C       27.68731689      28.48032951      13.28459072
C       -7.61356449       0.52821344      13.76339531
C       31.79524612      26.24915314       9.19727230
C       28.35952377      24.75193024       8.43631554
C       27.30090332      28.31867790      14.69041538
C       -7.95165300       0.86494470      15.15152740
C       32.16748810      26.73167992       7.92269468
C       24.63056564      25.18703842      14.54735088
C       31.00020981      28.78444672       8.09634590
C       -5.23825693       0.75691110       8.20725441
C       28.17298889      25.95595551      14.49358177
C       -5.37077761       0.97177309       9.52075863
C       28.59045410      26.19944000      13.21695137
C       24.92835808      24.83667183      13.25680065
C       30.66066170      28.46103287       9.37527943
H       27.04139328      24.34593391      11.55999184
H       28.85834694      27.66345215      11.68391800
H       -6.84260702       1.15177000      11.88043022
H       30.53592873      26.72922134      10.84339237
H       28.21419716      26.15230942      10.11854744
H       27.59379768      29.45137787      12.80816555
H       -7.62708712      58.44897842      13.42832279
H       32.07801819      25.23130035       9.47420597
H       24.93758774      26.16934013      14.89279747
H       30.61672020      29.70533752       7.69711971
H       34.04687881      58.76365662       7.87101030
H       28.15035629      24.96403313      14.97886086
H       -5.93060684       0.32094464      10.14580536
H       28.99294281      25.37859154      12.66224575
H       25.43238068      25.57527924      12.57238674
H       30.04726601      29.12668800       9.89346886
C       22.60533333      23.90323639      17.35821915
C       24.04309654      26.87990570      19.71993828
C      -11.36093426       1.48232698      19.41067696
C       26.79860115      27.77453423      17.36150932
C       23.46110916      24.59383965      16.55540657
C       23.44418526      27.83668518      20.50205231
C      -12.15270710       0.54587841      20.02079391
C       27.34455681      26.74940109      16.61070824
C       23.79512024      24.27509499      15.27257919
C       22.95964813      27.56967926      21.77942467
C      -12.87381840       0.87991017      21.20574188
C       27.57998466      27.05784798      15.28413391
C       19.92293739      25.64910507      21.63912392
C       26.64654350      29.23525429      15.45775795
C       -8.33266640      58.78891754      16.04902458
C       23.87944794      25.33448410      21.59369278
C       -8.52312660       0.26038253      17.33036041
C       24.08286858      25.55670166      20.24596787
C       20.05131531      25.31144905      20.35806465
C       26.34234619      28.90556335      16.76576042
H       22.43689728      24.43514252      18.29622841
H       24.52380180      27.03054047      18.75780296
H      -10.83484077       1.15530443      18.61207962
H       26.54286766      27.59906769      18.41744423
H       24.03120613      25.37783432      17.01601982
H       23.19645119      28.86503601      20.15088654
H      -11.93440533      58.49328995      19.55692673
H       27.38819313      25.73870850      16.92411232
H       20.24192619      26.55333328      22.16665077
H       26.43892288      30.26155472      15.10872555
H       -8.46391010      57.75411224      15.68385696
H       24.00253105      24.33894539      21.94889832
H       -8.69756031      58.37877274      18.02271271
H       24.66791534      24.86025429      19.62346840
H       20.58479309      25.98922348      19.65197372
H       25.84275246      29.50595474      17.53070068
C       18.31460381      24.21008873      24.68285942
C       20.33360100      27.11378098      27.62636757
C       22.00825310       0.90516931      26.35244751
C       22.12167740      27.09791756      24.39332008
C       19.23072815      24.94482040      23.92159271
C       39.01285172      28.07613564       0.04828991
C       20.98697853       0.39550814      27.16726303
C       22.85713387      26.15095139      23.73711967
C       19.37084389      24.67501450      22.59181595
C       38.04469299      27.96335602       1.06192958
C       20.75510216       0.75596052      28.50897789
C       23.23443604      26.29883575      22.38505173
C       33.79629517      25.44535446       0.34452277
C       22.30353165      28.53448868      22.52729416
C      -13.79057789       0.01234581      21.84784698
C       37.44254303      25.84443855       0.19569476
C      -14.57868862       0.41708970      22.86324310
C       19.47587395      26.02227974      27.63384438
C       15.44576931      25.05156326      27.64776421
C       21.86384583      28.29676056      23.75576019
H       18.15996552      24.48792076      25.76366425
H       20.85910034      27.49482918      26.80363846
H       22.09537888       0.54187399      25.35174751
H       21.69682884      26.83626175      25.31778336
H       19.46654701      25.97503281      24.29203415
H       20.71131897      29.05231285      28.40826035
H       20.20124626      58.72278214      26.75921822
H       23.24216270      25.25270081      24.17507744
H       34.19908524      26.41907883       0.56026244
H       22.18848801      29.49924278      22.17664909
H      -13.97021580      57.96066284      21.43228149
H       36.86243820      24.94039917       0.19258922
H      -15.19600677      58.49391556      23.33647919
H       19.55447006      25.22542000      26.95298576
H       16.21357155      25.69889069      27.19610977
H       21.36441040      28.98097038      24.42738533
C       31.70568466       1.60301065       3.17118073
C       32.26207733       4.84075117       5.62957764
C       -2.90400910       7.23859310       5.18000460
C       35.70350647       4.60346699       3.17797732
C       32.65104675       2.42695117       2.65198493
C       31.57007599       5.75752878       6.38367462
C       -3.68038654       6.49273968       6.03423166
C       36.56708908       3.86200047       2.44367361
C       32.84986496       2.30420780       1.21262991
C       31.52041245       5.47273350       7.73415852
C       -3.83511639       6.83058596       7.41328764
C       36.86145020       4.22494364       1.05381596
C       29.12342072       3.52912903       6.29583073
C       35.57153320       6.26551151       1.40746427
C        0.07165489       5.65775585       0.80203235
C       32.75173950       3.31097054       7.48957825
C       -0.34023318       5.98714161       2.06716132
C       32.79502106       3.65552306       6.15767717
C       29.08862305       2.98082566       5.06100225
C       35.24963379       5.78626013       2.66326118
H       31.70477676       1.51918709       4.36706114
H       32.67267609       5.12458277       4.61355591
H       36.87399292       7.00936842       4.12783480
H       35.31711197       4.13772297       4.17664051
H       33.27178574       3.19517875       3.18622708
H       31.08221817       6.60978699       5.99865532
H       35.58117676       5.60096025       5.68411112
H       36.82309341       2.82333922       2.77661848
H       29.52772522       4.55601978       6.25770426
H       35.35243607       7.24282789       1.13910759
H       -0.01566949       4.65689039       0.31845975
H       33.01364517       2.40773058       7.91648865
H       -0.95233911       5.41368628       2.76796007
H       33.13017273       2.99501371       5.43450356
H       29.52898026       3.63212371       4.33756399
H       34.54790497       6.37833071       3.13790488
C       28.09049416       2.70700550       9.77311325
C       27.95639420       4.74160480      12.45659161
C       -7.70416880       7.36368561      12.95915699
C       31.54474258       5.02592087      10.54893112
C       28.68541527       3.44845724       8.70318031
C       27.03943634       5.44702005      13.24475384
C       -8.52675247       6.56135941      13.64252472
C       32.10758972       4.14932108       9.72418308
C       28.72619438       2.83192778       7.45680046
C       26.72334480       5.01818800      14.57436848
C       -9.02626324       7.07038927      14.85312939
C       32.08651733       4.30379009       8.29783154
C       24.37605858       2.76137161      14.38959599
C       30.92997169       6.49983311       8.63224983
C       -4.56326675       6.05642557       8.33390522
C       28.60796356       3.49532771      14.38053513
C       -4.92219114       6.51135921       9.55353737
C       28.78259277       3.85240197      13.08858109
C       24.33493423       2.77176213      13.03091907
C       31.03431511       6.25769186       9.97857189
H       27.96654892       3.09637904      10.72083950
H       28.00282097       5.06000805      11.39711571
H       -7.42252302       7.07243061      11.92498779
H       31.46226120       4.72458172      11.62018204
H       29.28314781       4.36450529       8.98134804
H       26.47449875       6.25581551      12.87716293
H       30.94013596       5.60975218      13.25545406
H       32.50152206       3.15984797      10.07686424
H       24.40719795       3.71007919      14.80744076
H       30.56858635       7.47259712       8.27222633
H       -5.16479158       5.07482576       7.92106152
H       29.32164383       2.88454247      14.96771145
H       -5.72617817       6.02821589      10.10557461
H       29.60820389       3.32806468      12.65727520
H       24.43482971       3.71315503      12.51931763
H       30.63834000       7.00978470      10.58399582
C       24.75612831       0.43014693      17.16127205
C       23.47682762       4.81026316      19.51171112
C      -12.28122902       7.58594894      19.57102394
C       26.41888046       4.30138350      17.30201912
C       24.54136276       1.57121301      16.43379402
C       22.79780769       5.55662107      20.41980553
C      -12.96515274       6.60596132      20.31687164
C       27.32310677       3.72763157      16.48390388
C       24.53046608       1.52734780      15.09846210
C       22.38979530       5.09630918      21.72364235
C      -13.38912201       6.87065887      21.61092567
C       27.47014427       3.97729373      15.13347149
C       19.55724525       3.37991428      21.63674545
C       25.85547829       5.77805328      15.43362236
C       -9.81445217       6.12237644      15.74252129
C       23.49297142       3.05586243      21.16851234
C       -9.80202866       6.32610035      17.09052658
C       23.88977623       3.53006697      19.98022652
C       19.98541069       3.17699218      20.31744766
C       25.74901581       5.47880030      16.78060722
H       24.85387039       0.48307118      18.15035820
H       23.75746346       5.01389837      18.45631790
H      -11.97556686       7.44113827      18.57619286
H       26.46380806       4.27869558      18.42597580
H       24.41176796       2.56340671      16.92255592
H       22.45349693       6.59828997      20.25012016
H       26.61144257       5.74952078      19.75632095
H       28.10235786       3.12655926      16.98823166
H       19.91221237       4.19186687      22.15645409
H       25.44482422       6.68683863      15.06682587
H       29.55025291       5.19143534      15.30974293
H       23.60821152       1.95185471      21.48692131
H      -10.27781296       5.56167364      17.68615341
H       24.49093819       2.86869216      19.39016724
H       20.53732300       3.90620470      19.81468773
H       25.14930153       6.15088797      17.33883476
C       17.47686768       1.49267781      24.26420975
C       18.45091248       4.84669161      26.94655037
C      -16.92953873       7.13033962      26.60782051
C       21.50080299       4.09787273      24.17321396
C       18.27562904       2.45868182      23.71600342
C       17.93086815       5.80275345      27.74295044
C      -17.50391197       6.22472620      27.37043571
C       22.22977066       3.28263068      23.31082344
C       18.85498810       2.41128850      22.36392212
C       36.39706039       5.46570635       0.59486389
C        0.81387687       6.60217571       0.10228483
C       22.73488045       3.77813625      22.10650826
C       33.74769211       3.15957522       0.59654099
C       21.69579315       5.91825342      22.61558342
C      -14.18995857       5.97447348      22.38135910
C       37.42571640       3.24993324       0.13243181
C      -14.61331558       6.19256783      23.61649132
C       18.75741196       3.61565423      27.38500977
C       15.24049568       2.92905903      27.81948471
C       21.29471588       5.47740316      23.90727806
H       16.97341156       1.57009339      25.15428352
H       18.56009483       5.19767809      25.91094208
H      -16.62211609       6.79087925      25.64050484
H       21.39376259       3.78979206      25.23697090
H       18.37390518       3.40232301      24.24347687
H       17.68846893       6.85547876      27.43571854
H      -17.79861450       5.17662525      27.04297829
H       22.37406731       2.21414447      23.54288483
H       34.19767380       3.97216654       1.17249072
H       21.25264931       6.77062893      22.09186935
H       25.34236145       5.12360954      21.73592758
H       37.53102493       2.14380407       0.46706161
H      -15.26677227       5.53781891      24.17845154
H       19.16733360       2.85417247      26.76759529
H       15.84422398       3.57990479      27.14744568
H       20.84093857       6.11063910      24.69420624
C       31.98858452       7.37624550       2.99261236
C       32.71475983      10.80360794       5.57031918
C       -3.37290573      12.79265594       5.34339237
C       35.77126312       9.94965076       3.29923439
C       32.69817734       8.22045135       2.17916512
C       31.97587776      11.55223846       6.46925449
C       -3.97447872      11.87750912       6.19595337
C       36.68127823       9.32113266       2.54595256
C       32.93251801       8.04282475       0.79295266
C       31.74858284      11.05284119       7.75014210
C       -4.12212467      12.21757698       7.59778357
C       36.91071320       9.58961391       1.21759188
C       28.98855782       8.70462799       7.11411428
C       35.41781235      11.45356369       1.51526499
C        0.05834931      11.44800282       1.36374366
C       32.81734085       8.94650459       7.14557171
C       -0.24354270      11.93617630       2.60476351
C       33.07324982       9.48586845       5.93147516
C       29.14003181       8.61695385       5.73172188
C       35.12231827      11.12410831       2.80145001
H       31.55548859       7.82060289       3.90760875
H       33.00153732      11.10935688       4.57277822
H       36.60231018      12.45617008       4.35963249
H       35.69245148       9.65703583       4.35577965
H       32.94027328       9.15446377       2.57521701
H       31.67279243      12.53750801       6.26622343
H       35.48846817      10.89656353       5.79010534
H       37.39942551       8.57629490       2.96486664
H       29.46549225       9.52141190       7.58549356
H       34.91207886      12.18161201       1.01269615
H       -0.29476261      10.38183403       1.03338027
H       33.02011108       7.96390200       7.44443083
H       -0.87399882      11.39666271       3.28357673
H       33.66995621       8.75280762       5.32655191
H       29.85289574       9.28887939       5.43608046
H       34.55806732      11.76174831       3.48200774
C       26.98691940       7.14027166       9.93538952
C       28.27657890      10.12968731      12.10341740
C       -7.63516855      12.67710686      12.74864578
C       31.46915627      10.04675674      10.38817215
C       27.89789200       8.02171135       9.33291912
C       27.63870621      11.02610397      12.86258888
C       -8.53306293      12.02630043      13.44096947
C       32.12434769       9.35133457       9.44588852
C       28.08973885       7.92085743       7.86421347
C       27.10530281      10.63555145      14.08106518
C       -8.96953678      12.46334648      14.78174019
C       32.28452683       9.81809330       8.13185978
C       24.13197327       8.88288403      14.34297657
C       30.97647667      11.65608978       8.78928375
C       -4.83424759      11.39561272       8.58784294
C       28.03137588       8.40945244      13.70746422
C       -5.15306520      11.79827690       9.85649014
C       28.42305374       8.77089882      12.48945618
C       24.39787674       8.74792671      13.05605221
C       30.80447578      11.20398712      10.06753922
H       26.72940254       7.27693796      10.99371338
H       28.75482941      10.42124844      11.21561909
H       -7.28145027      12.24510479      11.80271339
H       31.47872162       9.64110947      11.40768242
H       28.38088417       8.87410736       9.84155560
H       27.91013718      12.00412178      12.56676292
H       30.73537445      11.08647728      13.14284801
H       32.62655258       8.44759274       9.64741993
H       24.34035110       9.81898785      14.76087952
H       30.50926399      12.64570808       8.59096718
H       -5.10515356      10.38706589       8.38159943
H       28.26766396       7.43747187      13.93902779
H       -5.82134104      11.18409348      10.47678375
H       28.99690819       8.08197594      11.88120651
H       24.79326057       9.72837162      12.50810909
H       29.98666763      11.85930729      10.63642311
C       22.72876739       6.73718214      17.14320374
C       23.13930321       9.79070377      20.18030548
C      -12.31012821      12.93172741      19.73372650
C       26.44909287       9.83433056      16.71360970
C       23.24337196       7.91193485      16.43030167
C       22.59063911      10.82447910      20.91921616
C      -13.30775738      12.27877331      20.51980591
C       27.19489098       8.95242310      15.91440868
C       23.46019173       7.80672169      15.04463863
C       22.26079369      10.61326504      22.31332016
C      -13.41901016      12.54509640      21.91884804
C       27.34492111       9.30281925      14.54631519
C       19.46281815       8.90613365      21.40632057
C       26.34676743      11.51680946      14.94137001
C       -9.85271072      11.69907379      15.46785641
C       23.41790199       8.41645622      22.17300606
C      -10.11513519      11.98412132      16.79921341
C       23.52499771       8.60865402      20.83944893
C       19.74239922       8.55333424      20.11546898
C       25.99971771      11.07639027      16.21850204
H       22.65241241       6.83639860      18.17628860
H       23.50679970       9.97853756      19.15196037
H      -12.04941845      12.67716026      18.72729874
H       26.46084023       9.63207436      17.78223228
H       23.53708076       8.84866524      16.91386223
H       22.10743141      11.71801186      20.49355507
H       25.97343826      11.45693588      20.00811005
H       27.43960381       7.96582699      16.12046433
H       19.56115913       9.92703247      21.61256981
H       26.14111710      12.60338116      14.71543121
H       29.31362152      10.87224007      15.04317188
H       23.41536903       7.39717817      22.56108093
H      -10.84120274      11.32768822      17.19755554
H       23.99423599       7.96111107      20.16077995
H       20.04819298       9.35948563      19.47573662
H       25.59911728      11.79925060      16.96823120
C       17.59870911       7.72285652      24.34894180
C       18.53406906      10.25200653      27.01679993
C      -17.05678177      12.52075577      26.73620415
C       21.33152390      10.00611019      24.84982300
C       18.42142487       8.46531391      23.59313393
C       17.69025803      11.02707672      27.86903763
C      -17.96766663      11.81592369      27.56008911
C       22.20802307       9.12167072      24.22712517
C       18.75681305       8.06130409      22.28011131
C       36.17667770      10.66589546       0.62891066
C        0.58261937      12.36630440       0.29765078
C       22.66016006       9.41411591      22.90477562
C       33.68068695       8.91608047       0.04319181
C       21.43561363      11.56462288      22.96459961
C      -14.05196857      11.61776161      22.75384903
C       37.70708847       8.75967407       0.35966685
C      -14.36323643      12.00293350      24.02741623
C       19.05551720       9.05504704      27.58517265
C       15.16343689       8.79030132      27.28581429
C       21.00386620      11.28477192      24.27508163
H       17.30251312       7.85372114      25.32371140
H       18.91889000      10.79296589      26.12307358
H      -16.69468689      12.25668812      25.74808693
H       20.65045738       9.62017632      25.64917946
H       18.73672295       9.39273739      24.03505135
H       17.10546875      11.84104061      27.36707497
H       21.45814705      10.86007118      27.31923103
H       22.31495857       8.13364792      24.59740639
H       33.84349442       9.84860229       0.61939758
H       21.16696739      12.45668030      22.32955551
H      -14.63487720      10.82605839      22.30904579
H       37.98418808       7.80377483       0.87465453
H      -15.04900742      11.45555592      24.64323807
H       19.62182999       8.42633057      26.92846870
H       15.56257534       9.54263115      26.64231491
H       20.39574051      11.93309784      24.82012367
C       32.10571289      12.90974522       3.06765628
C       32.85618973      16.14326096       5.46754169
C       -3.21216083      18.18994141       5.56021595
C       35.56740570      15.70156956       3.21655965
C       32.82042313      13.74692726       2.24300551
C       32.06278610      16.85903549       6.26408148
C       -4.09795618      17.49892426       6.38622761
C       36.57629395      14.98218060       2.57907152
C       33.03295136      13.49953270       0.85791463
C       31.78005219      16.43064690       7.61607218
C       -4.29108763      17.85815048       7.70783663
C       36.80057526      15.23837662       1.18135536
C       29.03917885      14.45333290       7.32467699
C       35.42324066      17.16866302       1.26759708
C       -0.22106555      16.77181053       1.11561346
C       33.12845230      14.34333229       7.19109297
C       -0.53018367      17.09008789       2.40257096
C       33.28406143      14.87604713       5.90665483
C       29.36197662      14.06596375       6.05777407
C       35.06687927      16.81154633       2.52313542
H       31.78773689      13.11097622       4.09760904
H       33.14020157      16.45412254       4.52667570
H       36.73616791      17.85399818       4.55991888
H       35.35807800      15.50388050       4.29306316
H       33.14213562      14.70253372       2.62804508
H       31.61188698      17.77765465       5.83203983
H       35.14228821      16.60975456       5.95073032
H       37.05992126      14.13883305       3.13283563
H       29.11202431      15.48528481       7.51858807
H       35.04037476      18.03933907       0.79551381
H       -0.53189737      15.77092361       0.81633002
H       33.34317398      13.30027199       7.59831810
H       -1.20923567      16.57730675       3.04669070
H       33.86555862      14.35856152       5.20884895
H       30.00408554      14.76196861       5.55129051
H       34.32429123      17.42447281       3.10524392
C       27.01035500      13.39436340      10.21883774
C       28.04736900      15.90139771      12.61053848
C       -7.96292353      18.32146835      12.54074097
C       31.03788376      15.41885471      10.09652710
C       27.62090683      14.20466232       9.37186718
C       27.34843063      16.77965164      13.40505314
C       -8.59270954      17.45280266      13.37291908
C       31.77790070      14.67706871       9.30170441
C       28.17946243      13.73221970       8.09655285
C       27.14479065      16.37787819      14.77523136
C       -8.84890938      17.75237274      14.69825459
C       32.26874161      15.15949440       8.03313065
C       24.47525597      14.39819527      14.47027111
C       30.93385124      17.19853020       8.45094967
C       -5.12453604      17.07191467       8.54916000
C       28.01893425      14.18658352      14.27297878
C       -5.39746046      17.48733139       9.82594872
C       28.25660896      14.57647324      12.99835300
C       24.79370499      14.09889126      13.17753124
C       30.73627090      16.82297707       9.81544304
H       26.55874634      13.80685902      11.17642117
H       28.38445663      16.34108925      11.65192318
H       32.11749649      17.89584923      11.58955479
H       30.65183640      15.05481338      11.07404327
H       27.82945633      15.27565575       9.62762165
H       27.21802521      17.78609276      13.09615707
H       30.88840485      16.46380234      12.97701073
H       31.95676994      13.68249226       9.57422638
H       24.77625847      15.26734924      15.06776142
H       30.77907181      18.30467796       8.27681446
H       -5.33222198      15.99991226       8.38173485
H       28.38608742      13.12736797      14.57899666
H       -6.06567192      16.90174294      10.47938251
H       28.73076820      13.88273907      12.38155365
H       25.42247963      14.73099899      12.59727192
H       30.17555237      17.45403290      10.55284786
C       22.55106926      12.99756145      17.24316978
C       23.49632645      15.99544716      19.67178154
C      -12.31529236      18.29977226      19.97728348
C       26.82311440      15.70515251      17.45517349
C       23.23767662      13.92130184      16.57146645
C       22.73324776      16.82005882      20.53158760
C      -13.23772907      17.60333252      20.76408958
C       27.32545090      14.78820419      16.60659027
C       23.61224556      13.56174660      15.18545532
C       22.43675804      16.35066605      21.77280617
C      -13.56380081      17.98429871      22.12720108
C       27.51473618      15.13124084      15.21955967
C       19.70019341      14.28678417      21.73406410
C       26.53341484      17.31202698      15.71311378
C       -9.62480927      16.84771729      15.54506016
C       23.50935364      14.15327930      21.22697639
C       -9.88522243      17.20690537      16.83795929
C       23.72926521      14.61157703      20.02748108
C       19.95020485      13.81486225      20.39228058
C       26.40969086      17.00110435      17.06637383
H       22.34646416      13.22051430      18.31878281
H       23.74050140      16.44756508      18.66551590
H      -12.01488113      17.89928818      19.08453369
H       26.76220894      15.45774364      18.51971436
H       23.52590370      14.82851601      17.06749916
H       22.45218849      17.86503220      20.37198448
H       26.18260384      16.67635155      20.41957855
H       27.54792213      13.80933666      16.94749641
H       20.27766418      15.21440887      22.13193703
H       26.14759064      18.18832779      15.18844414
H       -9.91591549      15.88176250      15.20198536
H       23.62069321      13.08978081      21.45760345
H      -10.42541504      16.59187317      17.51396942
H       24.13766670      13.95061111      19.23393059
H       20.71115494      14.30677509      19.81211090
H       25.91442680      17.60868645      17.82270813
C       18.08296967      13.00842190      24.78316307
C       18.76823998      15.95874596      26.96653366
C      -16.89822769      18.23063850      26.69849777
C       21.79010582      15.21023941      24.29209328
C       18.96588135      13.72369766      23.98326302
C       17.87785912      16.74178123      27.69571304
C      -17.79278564      17.37153625      27.41618538
C       22.57223892      14.50979424      23.50414848
C       18.90977287      13.49391747      22.61898613
C       36.35948181      16.45341492       0.49442428
C        0.67062235      17.55342484       0.30939192
C       22.82211494      15.06433105      22.16745949
C       33.86693954      14.34173298       0.09777400
C       21.67030907      17.06788445      22.65900803
C      -14.25076389      17.05850029      22.95726395
C       37.51415253      14.37808704       0.34287402
C      -14.57199478      17.55088806      24.16700554
C       19.01973915      14.66227818      27.59688950
C       15.37300777      13.94875526      27.32279015
C       21.31420708      16.48013306      23.83021545
H       17.93981361      13.27566338      25.85250664
H       19.13992310      16.27001572      25.91057014
H      -16.53654861      17.79848099      25.78628540
H       21.48633003      14.90758324      25.27828407
H       19.32462883      14.60982323      24.50095940
H       17.63964462      17.74584198      27.27529907
H       21.63238335      16.56156921      26.68461800
H       22.78778076      13.50883198      23.70708466
H       34.13905334      15.20959854       0.62834263
H       21.16499710      18.04952240      22.53352165
H      -14.55303288      16.11238861      22.64724159
H       37.81507492      13.30686474       0.60492134
H      -15.01181221      16.80063248      24.81759262
H       19.57287598      13.99139404      26.94948578
H       16.12835884      14.61030579      26.80501366
H       20.71799469      16.97324371      24.50156975
C       31.90819359      18.59266090       3.30420256
C       32.87492752      21.09624100       5.84182644
C       -3.46824265      23.50603104       5.57081270
C       35.94935989      20.96086121       3.33676624
C       32.70842361      19.44753647       2.60893917
C       32.19033051      22.09347725       6.45208263
C       -4.12391663      22.69817543       6.49574518
C       36.68004227      20.19906044       2.43500686
C       32.95606232      19.20925140       1.22032404
C       31.69561386      21.89002991       7.78754139
C       -4.48538446      23.23531723       7.76837206
C       36.86713409      20.56029892       1.11667550
C       29.14279556      19.75747490       7.00350952
C       35.74193573      22.66156960       1.52981412
C       -0.27061221      22.56629181       1.22604609
C       32.70369720      19.63339996       7.66112661
C       -0.67290294      23.03266716       2.36876869
C       33.09502029      19.78125381       6.36881399
C       29.35136414      19.40181160       5.71981764
C       35.43878174      22.22717476       2.72890687
H       31.66842651      18.68239403       4.46165323
H       33.10001755      21.29583359       4.78275204
H       36.54771042      23.17257309       4.56245756
H       35.70190811      20.80521584       4.36660433
H       33.18057632      20.22946548       3.01535988
H       32.32574844      23.08368874       6.10306454
H       35.14451218      21.78519249       6.13467979
H       37.19195175      19.34638214       2.76915312
H       29.43643761      20.80810165       7.27320862
H       35.30507278      23.55322838       1.16978741
H       -0.50736701      21.58492088       0.87536484
H       32.91895676      18.66484642       8.15850639
H       -1.29854929      22.57194519       3.07985163
H       33.45001984      19.08992767       5.61479282
H       29.91236687      20.07530594       5.08969736
H       34.78771973      22.96425819       3.23964119
C       27.31596375      18.68437386      10.11989307
C       28.18059349      21.56906509      13.03804684
C       -7.72300339      24.01988411      12.92469692
C       30.75831985      21.46529388      10.34662724
C       28.05902863      19.43376160       9.23896217
C       27.59794235      22.40106773      13.95688629
C       -8.50782490      23.19161987      13.75012875
C       31.36402893      20.44104385       9.70862007
C       28.32686996      18.98886490       7.94739437
C       27.27218056      22.04413605      15.29926014
C       -9.04313087      23.73036385      14.96795273
C       31.83077049      20.57621765       8.36887550
C       24.32219315      20.01596832      14.77838039
C       31.06319237      22.98504829       8.53445435
C       -5.13373613      22.44166946       8.71940327
C       28.29693985      19.93607521      14.87750530
C       -5.29423809      22.79701424      10.00752640
C       28.59421158      20.28410912      13.58368778
C       24.73443604      19.66751480      13.55820274
C       30.56451416      22.75072289       9.72769833
H       27.20244980      18.96381378      11.17124558
H       28.45611954      21.98868179      12.00193787
H       -7.18335438      23.65032578      12.04889107
H       30.39841080      21.35071564      11.32239437
H       28.34373283      20.40011406       9.54228878
H       27.25325966      23.42757988      13.68777657
H       -8.82990170      22.16414642      13.68114281
H       31.41491699      19.46949959      10.27601528
H       24.54952240      21.08509445      15.08457756
H       31.11918259      23.94288826       7.97553635
H       -5.37746477      21.39748955       8.50939369
H       28.57201767      18.93046951      15.29161072
H       -5.62755013      21.96968842      10.69549274
H       29.18694115      19.57979393      13.03947163
H       25.49384308      20.32749939      13.04700375
H       30.27052879      23.58715057      10.28754711
C       22.39644241      18.40543747      17.61384010
C       23.41413307      21.18334579      19.76679230
C      -12.51874065      24.13861275      19.61941528
C       26.28335762      21.10102844      17.78267097
C       23.18401146      19.28375435      16.91276169
C       22.83620071      22.17805862      20.55715179
C      -13.18574810      23.29006767      20.46552277
C       27.02596283      20.26904678      16.98825073
C       23.58246994      19.03578567      15.55912495
C       22.59965706      21.86632347      21.92103004
C      -13.45967674      23.54911804      21.84699249
C       27.60149193      20.80552101      15.81647587
C       19.78890419      20.03312492      21.73978043
C       26.52593613      22.86588097      16.08646202
C       -9.66391087      22.90048790      15.88565636
C       23.53742981      19.72262573      21.66767502
C       -9.94991970      23.35123444      17.07203674
C       23.80683708      20.02165222      20.37487602
C       20.09121704      19.69708061      20.43318748
C       26.07266045      22.47428513      17.26949501
H       22.03036118      18.68326187      18.63335228
H       23.75591469      21.45569611      18.69517517
H       27.35901833      24.00096512      18.58488464
H       25.64181137      20.78211021      18.61550140
H       23.35699081      20.29240990      17.35910988
H       22.60259438      23.26836205      20.38480186
H       26.14101028      22.36845016      20.05909348
H       27.20133972      19.26770210      17.14770126
H       20.27119446      20.95817375      22.09404755
H       26.38089752      23.87050438      15.71336555
H       -9.66345310      21.88166809      15.76278687
H       23.83036613      18.67333221      22.07854652
H      -10.47487736      22.75356102      17.84097099
H       24.51976204      19.39376068      19.83427620
H       20.64919472      20.34066772      19.84754181
H       25.46981239      23.19542503      17.86135483
C       18.04506493      18.59742355      24.82328224
C       18.87038231      21.47138786      27.04453850
C      -16.89304161      23.86660957      26.88219452
C       21.94232368      21.29213715      24.56796074
C       18.81255913      19.47489929      24.11484528
C       18.16315651      22.27568817      27.88797379
C      -17.76332092      23.07916260      27.64062691
C       22.57509804      20.40550613      23.80972481
C       19.10713005      19.17084312      22.67625237
C       36.50895691      21.87819290       0.67824757
C        0.57673651      23.36358643       0.39252597
C       22.88537788      20.64558029      22.50240707
C       33.89789200      20.03063202       0.61384887
C       22.13743973      22.95365715      22.80922317
C      -14.10961437      22.61564255      22.61872864
C       37.67633820      19.74622536       0.27107358
C      -14.51932621      22.96722221      23.90177727
C       19.35260391      20.22625351      27.53609467
C       15.49284363      19.77431107      27.86325645
C       21.71565056      22.59247017      24.01927376
H       17.67565346      18.85538101      25.84165573
H       19.18272018      21.78679085      26.07842064
H      -16.64121056      23.44830322      25.94414711
H       21.73002625      20.78600883      25.53690147
H       19.34996223      20.30546188      24.58343697
H       17.95385361      23.20965385      27.38584328
H       21.58225441      22.22443008      27.21632576
H       22.68240738      19.40641212      24.26303482
H       34.28482819      20.71825027       1.32887208
H       21.81369591      23.95282364      22.47105980
H      -14.44411469      21.68717575      22.32757378
H       38.05030060      18.77543259       0.62316102
H      -15.33181953      22.30717659      24.30107117
H       19.94555283      19.60463524      26.87114334
H       16.31328011      20.37464905      27.36169243
H       21.36659241      23.46785927      24.60735703
C       -0.30776238      24.40047646       2.77121139
C        0.36858389      26.26910973       5.41478205
C        4.04232073       1.32798100       5.12420034
C        3.37339187      26.86868286       2.54023647
C        0.46794569      25.19227219       2.05639338
C       -0.48929748      27.18747902       5.97475958
C        3.24566507       0.59233290       6.00766420
C        4.23439360      25.95099831       1.99318314
C        1.01929545      24.67324829       0.83256298
C       -0.73685408      26.87356567       7.33347797
C        3.07661915       1.06600547       7.32033110
C        4.95683432      26.33150101       0.81746387
C       -3.45813847      25.31627464       7.17502499
C        4.02357960      28.63700676       1.05460370
C        6.60297871       1.26215911       0.94064254
C        0.56893772      24.89388847       7.34356499
C        6.42592955       1.62206447       2.23552346
C        0.98970890      25.19078255       6.12206125
C       -3.08607984      24.75969505       5.98115873
C        3.24028277      28.24924088       2.11962867
H       -0.69445717      24.78144073       3.76288795
H        0.59842026      26.46621323       4.39769030
H        4.15051317       0.95712763       4.14744949
H        2.82837534      26.63599014       3.44518423
H        0.71594757      26.18058014       2.42137504
H       -0.90095520      27.94013023       5.31345606
H        2.73487830      58.50723267       5.83835602
H        4.13269281      24.93955803       2.28392410
H       -3.19053292      26.32480812       7.23966837
H        3.90075994      29.68248558       0.69762677
H        5.97416162       0.45596021       0.46443754
H        0.92414165      24.03150177       7.92885828
H        5.49982548       1.30259895       2.73376417
H        1.65421534      24.55525780       5.66290808
H       -2.55932999      25.52547073       5.35535908
H        2.75384498      28.94832420       2.77139854
C       -4.94996691      24.13892174      10.47133160
C       -3.66994977      26.72195625      12.90048695
C        0.08082387       2.06893969      12.27142620
C       -1.32372606      26.52221870      10.06158447
C       -4.39223528      24.84661102       9.50885773
C       -4.37862778      27.68467903      13.62195778
C       -0.85571224       1.33438671      12.98338318
C       -0.64106828      25.61410713       9.42658043
C       -4.10021114      24.50002098       8.13520432
C       -4.93154430      27.37786293      14.86962414
C       -0.97165108       1.62269890      14.38407326
C       -0.29730031      25.79441261       7.97579384
C       -7.88841724      25.91810417      14.31007290
C       -1.55249465      27.73134613       8.07970524
C        2.24401855       0.42094064       8.21476173
C       -3.95855308      25.02663612      14.66732121
C        2.08015203       0.90780896       9.48454094
C       -3.49319386      25.40986061      13.40890789
C       -7.55806541      25.40554810      13.11338329
C       -1.93001938      27.58734322       9.34904289
H       -5.17589188      24.61286736      11.40067959
H       -3.29440451      27.10283852      11.89932632
H        0.15589805       1.80679190      11.27273464
H       -1.32872117      26.48732758      11.16977787
H       -4.03389692      25.94880486       9.66704750
H       -4.43443775      28.72643089      13.25865746
H       -1.34199655       0.49902323      12.54950809
H       -0.27640903      24.65951347       9.84588242
H       -7.79748297      26.89286995      14.71596336
H       -1.87752879      28.61407661       7.50844908
H        1.80480540      58.34399796       7.95996046
H       -3.82435417      24.03733635      15.01706982
H        1.32677793       0.44562301      10.11989784
H       -2.86752892      24.75076675      12.92814350
H       -7.06637478      25.99020958      12.31148148
H       -2.59941816      28.28549004       9.80221367
C       -9.68577766      24.67544556      17.38826752
C       -8.85555935      27.39702988      19.56045723
C       -5.56801414       1.52256119      19.40762520
C       -5.81109476      26.59547615      17.45711708
C       -9.02459526      25.46898270      16.56068230
C       -9.63870144      28.29991341      20.34008598
C       -6.32163191       0.68202102      20.21370697
C       -5.00850010      25.77371025      16.75837898
C       -8.72584629      25.06651497      15.21710777
C       -9.90662098      27.96882629      21.74568939
C       -6.31576347       0.98163944      21.67436218
C       -4.72656775      26.05220413      15.34938908
C      -12.34472466      25.62231064      21.48567772
C       -5.77342129      28.25720787      15.69247055
C       -1.73711061       0.64974970      15.09549808
C       -8.67796803      25.80377769      21.44921303
C       -2.04060221       0.83631325      16.42092514
C       -8.40837383      26.20977402      20.13214874
C      -12.02592468      25.33465576      20.16802216
C       -6.25757742      27.90361786      16.93911934
H      -10.08005142      25.06387711      18.35853386
H       -8.64255905      27.54134560      18.44047165
H       -5.52621222       1.27475345      18.30177307
H       -5.96524954      26.46200371      18.47894287
H       -8.79911804      26.53451157      16.73414421
H       -9.93195343      29.26295090      19.91111946
H       -6.95626020      58.76839828      19.99911499
H       -4.89349651      24.70116997      17.12781525
H      -12.10452652      26.62898827      21.92771530
H       -6.11659288      29.25187492      15.32182026
H       -1.87084329      58.64147949      14.53337097
H       -8.37444210      24.79556274      21.79692268
H       -2.45424438       0.02689208      17.08724976
H       -7.89898396      25.36884308      19.58120346
H      -11.43555450      26.08800507      19.67316627
H       -6.93489599      28.57756615      17.45294762
C      -14.38970089      24.28986359      24.36231804
C      -12.59502125      27.07684898      26.99197578
C       -9.43111801       1.34186316      26.90038681
C      -10.33316231      27.21714973      24.43857574
C      -13.48538589      25.13065720      23.70720482
C      -13.24895000      28.01101303      27.75779533
C      -10.44789886       0.86099708      27.58534622
C       -9.68830013      26.39939499      23.65591812
C      -13.07307625      24.81645584      22.39258194
C        4.84738112      27.65020370       0.33018768
C        7.78281498       1.53820693       0.23517880
C       -9.42224312      26.67793083      22.25611305
C        1.86990762      25.57351112       0.03268063
C      -10.62553501      28.82151794      22.64019966
C       -7.08211470       0.19679692      22.58225632
C        5.77948236      25.42898369       0.05286770
C       -7.24035788       0.69687456      23.84124947
C      -12.49472618      25.76250839      27.38897324
C      -16.45916176      25.15252304      27.39276886
C      -10.82190895      28.49145126      23.99579239
H      -14.79598713      24.66202164      25.28025246
H      -12.37757969      27.26197243      25.91583061
H       -9.13846588       0.88783181      26.02113533
H      -10.63953876      26.90148926      25.37299347
H      -13.29505253      26.02820969      24.20746040
H      -13.37434769      28.89137077      27.19499207
H      -10.98118019       0.03392718      27.16004181
H       -9.41655159      25.30499077      23.96602249
H        2.21840954      26.64381218       0.17590250
H      -10.98150730      29.77090836      22.25064278
H       -7.64688301      58.30800247      22.18994331
H        5.88440847      24.44810104       0.40192294
H       -7.93422270       0.10736257      24.44284439
H      -11.94090652      25.01613235      26.93843079
H      -16.00234985      25.94454765      26.81208229
H      -11.38995552      29.18055916      24.58844757
C       -0.50952524       1.72441077       2.64982390
C        0.82659590       4.68975830       5.29461384
C        4.78201151       7.07326269       5.63902473
C        3.40306377       4.04185581       2.61092472
C        0.38921568       2.32741404       1.87933290
C        0.17471331       5.50737715       6.13581562
C        3.93835640       6.20777321       6.19020939
C        3.85027957       3.20491362       1.60782588
C        0.59633189       1.88963962       0.44052595
C       -0.29942262       5.12459517       7.39135122
C        3.64538836       6.50871992       7.58568382
C        4.34631968       3.72438788       0.38672912
C       -3.05504131       3.48954844       7.18257189
C        3.90694523       6.03583384       1.35086358
C        7.29915810       6.06156111       1.40405214
C        0.52859205       2.91593170       6.90584803
C        7.00379896       6.42811775       2.68756604
C        1.02496707       3.33501220       5.68848610
C       -2.74781108       3.22670507       5.84934902
C        3.40499520       5.39561987       2.45236516
H       -0.55288255       2.01158953       3.71624255
H        1.12908649       5.13287926       4.33857250
H        5.04859018       7.01603460       4.59997511
H        2.96169686       3.67492151       3.53174019
H        0.99294686       3.11414719       2.25699282
H       -0.10130864       6.53854513       5.76703215
H        3.54408312       5.34251118       5.73707008
H        3.70075130       2.10516977       1.70483696
H       -2.62199187       4.40383673       7.66856813
H        3.97083235       7.13542986       1.31098843
H        6.77694988       5.25127983       0.90964621
H        0.41156787       1.81221807       7.12537241
H        6.37678766       5.73437357       3.31151986
H        1.58869302       2.67314816       5.11199713
H       -2.15802622       3.89348960       5.35377741
H        3.08450556       5.98468685       3.29835200
C       -4.82820797       2.10181975      10.18386459
C       -3.91497803       5.02128887      12.58709431
C        0.19340508       7.53931189      12.53283787
C       -1.19816864       4.23791933       9.99091244
C       -4.07483482       2.94327331       9.40809059
C       -4.61583233       5.86237955      13.29990292
C       -0.51507336       6.61942959      13.29391575
C       -0.49550262       3.39347219       9.17998028
C       -3.89189529       2.69049501       7.98109865
C       -4.97805834       5.47547579      14.62428093
C       -0.72050053       6.80681896      14.75821495
C       -0.10576340       3.76362801       7.86896992
C       -7.48737478       3.18336463      14.57580757
C       -0.87487388       5.99597549       8.28794384
C        2.70952678       5.66060829       8.30415058
C       -3.80268717       3.47275090      14.39458275
C        2.34691715       5.96561050       9.55620766
C       -3.32761931       3.82978034      13.15959644
C       -7.13831329       2.80014801      13.23102283
C       -1.34281588       5.63179207       9.48610973
H       -4.93163729       2.23129439      11.23343372
H       -3.67202497       5.17762613      11.55314064
H        0.25055432       7.29982471      11.49409676
H       -1.54966998       3.96418691      11.01222420
H       -3.53842425       3.76313257       9.79996586
H       -5.16640091       6.70278072      12.77607918
H       -0.92371124       5.74448061      12.72684383
H       -0.28756961       2.42487311       9.33899212
H       -7.45571136       4.16459942      15.03017807
H       -0.76560313       7.00940275       8.03779316
H        2.30707788       4.75086594       7.77507067
H       -3.43117332       2.49071503      14.70272827
H        1.71997583       5.30680656      10.14496231
H       -2.79578781       3.15759182      12.55438137
H       -6.75024939       3.60113287      12.62836075
H       -1.76795888       6.42682409      10.06034374
C       -8.52795696       1.61450183      17.77030182
C       -8.34612751       4.97961903      19.98543358
C       -4.52618456       7.36250067      19.86851883
C       -5.81173468       4.80297327      17.26143265
C       -8.07517910       2.59126496      16.88784218
C       -8.98482704       5.85845709      20.80371094
C       -5.24709177       6.51848602      20.57647133
C       -5.11473942       3.92616129      16.51066399
C       -7.84875202       2.21987367      15.51410484
C       -9.51758862       5.50349188      22.06805992
C       -5.59282827       6.83193588      21.92667770
C       -4.55539846       4.25913239      15.21309376
C      -12.22819805       3.19988179      20.84513664
C       -5.62623882       6.41783476      15.42139721
C       -1.53215337       5.89017105      15.41497612
C       -8.53812981       3.23770189      21.60933113
C       -1.97652900       6.18479061      16.64332771
C       -8.06985950       3.60293460      20.37917709
C      -11.53898335       2.85190725      19.64949036
C       -6.01400518       6.06204367      16.76940346
H       -8.63842392       1.82088053      18.86972618
H       -7.69728470       5.23709154      19.14170074
H       -4.28733063       7.03339529      18.79759789
H       -6.16597462       4.42730474      18.17139244
H       -7.98310375       3.56333399      17.10147858
H       -9.03726196       6.89748955      20.45217133
H       -5.60809708       5.58939409      20.09955597
H       -4.88610363       2.94884396      16.89803886
H      -12.30696678       4.18116283      21.16272545
H       -5.82723761       7.37049389      14.99774265
H       -1.84291875       5.01165724      14.97388077
H       -8.23438263       2.28524399      22.14105988
H       -2.62643003       5.51237869      17.10661697
H       -7.58784723       2.93140244      19.71238327
H      -11.01538563       3.62522125      19.13717461
H       -6.41740847       6.78269482      17.48838806
C      -14.28559685       1.68566465      23.45345306
C      -13.31636715       4.96726465      26.63581848
C       -9.22941303       7.32563877      27.12118149
C      -10.48434925       4.53277969      24.53886223
C      -13.48152351       2.59213376      22.80342674
C      -13.89490414       5.67690611      27.58527946
C      -10.17183399       6.58462667      27.78348351
C       -9.59270763       3.73768616      23.75026321
C      -12.88568115       2.24635530      21.57978821
C        4.37531376       5.20483112       0.27848238
C        8.15279770       6.91820002       0.60081923
C       -9.21061230       4.16433287      22.46012688
C      -17.22979927       2.46514297      28.06266594
C      -10.09404945       6.39962196      22.94155693
C       -6.29147482       5.87415934      22.64371109
C      -13.99532795       2.95378566      27.86169052
C       -6.64394188       6.14737320      23.98294830
C      -13.48694229       3.52890277      26.75107765
C      -16.80062485       1.83808589      26.88180733
C      -10.60089588       5.91531563      24.13506699
H      -14.78297901       1.96051157      24.44217110
H      -12.89135361       5.41510773      25.72311211
H       -9.02477551       7.23350430      26.11557198
H      -10.80738258       4.24717522      25.58405113
H      -13.36821270       3.56939244      23.21349335
H      -13.79600334       6.79855490      27.39678192
H      -10.75963688       5.71259642      27.32390785
H       -9.43955898       2.63961077      23.95686340
H      -16.82292366       3.47397256      28.28420448
H      -10.31748962       7.40320492      22.65316963
H       -6.53572273       4.96778488      22.18379402
H      -14.00500679       1.84320474      27.81235123
H       -7.18897438       5.37864590      24.63603783
H      -12.79415226       2.96853065      26.10386467
H      -16.01907730       2.11386538      26.22043037
H      -11.06098938       6.66810989      24.86801529
C       -0.00930718       7.31215906       2.65362144
C        0.98149258      10.01945114       5.17697763
C        5.02586269      13.01181030       5.54081392
C        3.82074380      10.09109974       3.14172888
C        0.72320461       8.19411087       1.97298086
C        0.27587697      11.02208233       5.88068390
C        4.27755499      12.02856159       6.08402348
C        4.68448019       9.24869251       2.45268965
C        1.02279913       7.85618782       0.65611839
C       -0.08382487      10.84313393       7.28386116
C        4.07076502      12.22467422       7.47171831
C        5.09429407       9.69894314       1.14669418
C       -2.52805305       8.84478950       6.97737026
C        3.76835442      11.68109417       1.36001456
C        7.87536955      11.40758705       1.45756829
C        1.09049618       8.54535103       7.16106558
C        7.54876757      11.81353950       2.76929450
C        1.31140816       8.73160458       5.76114130
C       -2.21712112       8.44469643       5.70180035
C        3.34742284      11.29046059       2.63451481
H       -0.36702496       7.64784861       3.64867306
H        1.18579173      10.26804638       4.17550659
H        5.27474165      12.85325146       4.50473452
H        3.33570552       9.70338917       4.02514935
H        0.87853444       9.19180202       2.36317515
H        0.01276868      11.92287064       5.33132839
H        3.85852051      11.13944912       5.57700872
H        4.82478237       8.19889259       2.69538999
H       -2.18700767       9.74974251       7.39783907
H        3.29216385      12.56160355       1.11776125
H        7.48771667      10.53824615       0.97528422
H        1.49711192       7.71613789       7.66463614
H        6.83607483      11.03304386       3.12100124
H        1.88071978       7.96989536       5.33995676
H       -1.41828811       8.99462318       5.19773626
H        2.58548069      11.81989861       3.19071388
C       -4.40896225       7.71638060       9.98740673
C       -3.92973828      10.13537216      12.71854305
C        0.18003359      12.56286049      12.41765690
C       -0.50660294      10.21610928       9.95621586
C       -3.57283616       8.51438713       9.16585350
C       -4.59624767      11.01405430      13.48975849
C       -0.46359143      11.73956299      13.32428551
C        0.15992725       9.32724094       9.20548153
C       -3.34491181       8.07398701       7.89416027
C       -4.88716936      10.84463692      14.88162804
C       -0.74178535      12.13055611      14.62903881
C        0.30900988       9.55756187       7.83542824
C       -7.64233351       9.03047180      14.65398216
C       -0.67753118      11.79226112       8.13205624
C        3.38895655      11.28256702       8.25261879
C       -3.61117387       8.71558094      14.64793110
C        3.10668230      11.40487099       9.59710026
C       -3.39490843       8.98852444      13.35984230
C       -7.18952847       8.58179855      13.43850422
C       -0.93808401      11.45807648       9.44780922
H       -4.74771929       8.13276005      10.94862175
H       -3.74068546      10.33486462      11.61042309
H        0.56950641      12.06732845      11.51782513
H       -0.89778173       9.96367168      10.91137981
H       -3.34550810       9.47913933       9.47543430
H       -4.82054520      11.98985386      13.12566662
H       -0.71591508      10.79775715      12.94891262
H        0.18721965       8.29260445       9.62649536
H       -7.47297430       9.96191406      15.04572487
H       -1.03718054      12.75369930       7.90725088
H        3.08906341      10.26839828       7.83250952
H       -3.03197861       7.89242029      15.11316109
H        2.49535584      10.62214851      10.07583618
H       -2.65559483       8.34034729      12.76912975
H       -6.53087807       9.12175751      12.80969429
H       -1.45133829      12.14621544      10.15094948
C       -9.42017841       7.59282541      17.62435341
C       -8.37485790      10.62556744      20.01736641
C       -4.65829754      13.14586926      19.73814964
C       -5.35276699      10.10788155      17.61092949
C       -8.85943031       8.56134033      16.76554298
C       -9.10070419      11.36992168      20.89720345
C       -5.46315908      12.41887379      20.53874588
C       -4.43833828       9.38658524      16.85544777
C       -8.52013016       8.22752094      15.43286419
C       -9.36408997      10.91326427      22.23947525
C       -5.63412142      12.61868477      21.96428490
C       -4.29332161       9.68355846      15.45742130
C      -12.12224770       9.00591850      21.53291130
C       -5.58484602      11.70420837      15.65090275
C       -1.35139215      11.30184460      15.59819317
C       -8.09297657       8.96245384      21.64462471
C       -1.74962640      11.77685452      16.80361557
C       -7.88624620       9.33793926      20.34575462
C      -11.85298634       8.70545101      20.23171425
C       -5.85759735      11.33062935      17.01682281
H       -9.76063061       7.99923182      18.53622627
H       -8.32997131      11.07664776      19.07426643
H       -4.35109377      12.91555786      18.70895195
H       -5.66599464       9.91315079      18.60949135
H       -8.56240368       9.61009598      17.11036873
H       -9.56207848      12.22446918      20.50535011
H       -5.96907187      11.55988789      20.03046417
H       -4.02515841       8.40754509      17.20750237
H      -11.85768986       9.95043087      21.96164322
H       -6.05203772      12.63993454      15.32558823
H       -1.74792087      10.41571999      15.13751984
H       -7.84942913       7.94516659      21.94845390
H       -2.19146681      11.17835331      17.54060364
H       -7.64816952       8.73402500      19.52189255
H      -11.39948273       9.48845005      19.69300842
H       -6.50326395      12.00693607      17.56186867
C      -14.23810673       7.44905376      24.24231911
C      -13.06813717      10.59183693      27.06660843
C       -8.92843151      12.72326756      27.02253151
C       -9.68939400       9.84507942      24.75876617
C      -13.40059280       8.31995678      23.52929115
C      -13.89196682      11.30745983      27.84137344
C       -9.56204605      11.82071781      27.83358765
C       -8.80674171       9.30432510      23.93430901
C      -12.96524048       8.03201389      22.22853851
C        4.70596504      10.94521713       0.68657988
C        8.73194313      12.19786739       0.58781558
C       -8.71486759       9.77996063      22.60268593
C      -16.95331001       8.78216457      28.41731644
C      -10.35747814      11.58440304      23.14739037
C       -6.44119358      11.74833393      22.74964523
C        5.84891748       8.95053482       0.25633073
C       -6.62151718      12.07220173      24.07627678
C      -12.54690933       9.40973282      27.59408379
C      -16.67421913       8.51895714      27.16622925
C      -10.43843937      10.99886703      24.43543816
H      -14.54487801       7.78826475      25.25664711
H      -12.81768036      10.80243397      26.06323051
H       -8.68243980      12.50611973      26.03731346
H       -9.97659492       9.40156651      25.73147774
H      -13.12716198       9.21723747      23.99892616
H      -14.50197124      12.09553528      27.36705208
H       -9.68062496      10.73677826      27.45841599
H       -8.44294167       8.32422924      24.19563675
H        2.11221862       9.74145889       0.40477458
H      -10.76100159      12.48674774      22.72812843
H       -6.73451471      10.80349827      22.38588715
H        6.24106836       8.01262665       0.82557791
H       -7.16566515      11.41740513      24.82887459
H      -12.07461166       8.65312195      26.92439079
H      -16.01347733       9.22891808      26.71510887
H      -11.07604122      11.49296188      25.17281151
C        0.32408521      13.25505161       2.97790217
C        1.07406604      15.40354156       5.53017664
C        4.92099476      18.12853432       5.37518549
C        4.03491163      15.64398384       2.81810284
C        0.96709591      13.99953651       2.01434612
C        0.19042847      16.31541252       6.10116434
C        4.34802485      17.25505829       6.24041700
C        4.92762518      14.84664440       2.10711718
C        1.11555851      13.61278534       0.68967038
C        0.00202160      16.25059128       7.47190952
C        4.05587530      17.70061874       7.49884844
C        5.15977430      15.12682247       0.78850240
C       -2.84326553      14.22853947       7.20489216
C        3.73808861      17.12716484       0.89917952
C        7.88820791      16.86623383       1.49801397
C        1.38192785      14.21171856       7.60660887
C        7.59366703      17.16394234       2.78468513
C        1.72262216      14.35992432       6.25971460
C       -2.76341772      14.00290298       5.86666393
C        3.55514669      16.82765579       2.22945523
H        0.30069992      13.72920418       4.00186729
H        1.57103693      15.62930870       4.56126261
H        5.12209368      17.96836090       4.30637026
H        3.88340402      15.30555916       3.83120012
H        1.55442643      14.84168530       2.24432778
H       -0.01058242      17.22875977       5.56202602
H        4.10689783      16.22488022       6.02637196
H        5.39820385      14.05391121       2.56878471
H       -2.20678306      14.98717308       7.60099125
H        3.37725830      18.11264038       0.41614103
H        7.61948109      15.95778561       1.06712377
H        1.79212797      13.39470387       8.19072914
H        6.82247877      16.68844223       3.35276318
H        2.47737765      13.78822899       5.81725025
H       -2.12082672      14.57154751       5.29329014
H        2.93503189      17.57548332       2.75421286
C       -4.69050074      13.06647301      10.25694847
C       -3.83846116      15.83025837      12.43364429
C        0.23596987      18.34523773      12.67952442
C       -0.68472350      15.80959415      10.19142532
C       -3.87892818      13.71952248       9.42335129
C       -4.45690966      16.73180771      13.23788643
C       -0.63393307      17.53316498      13.42395306
C        0.02758707      14.89003563       9.53968430
C       -3.63392162      13.37224102       8.08648872
C       -4.65688562      16.45666313      14.58724213
C       -0.99399418      17.74905586      14.78037834
C        0.47723627      15.06532478       8.15279388
C       -7.33595037      14.36189556      14.65011406
C       -0.81698573      17.18214226       8.10979652
C        3.42129970      16.89127731       8.41106510
C       -3.48406863      14.27481937      14.18330383
C        3.21860313      17.19807434       9.73236847
C       -3.47411942      14.58027172      12.80372143
C       -7.03872776      13.81367588      13.35968208
C       -1.16950321      16.93475342       9.39985275
H       -4.86077309      13.52144527      11.27543831
H       -3.46908021      16.15333748      11.47171307
H        0.43854913      17.93619728      11.68821239
H       -0.84991658      15.59455967      11.17204571
H       -3.31101847      14.63434124       9.59951973
H       -4.78708220      17.69042969      12.88907051
H       -1.23044062      16.65271759      12.94061279
H        0.14932556      13.94999886      10.05034542
H       -6.87850237      15.24191093      15.27611542
H       -1.12106705      18.11773872       7.65621376
H        3.09375143      15.95621681       7.99520969
H       -3.09097457      13.45619011      14.57504368
H        2.53688908      16.49956131      10.25776482
H       -2.97739744      13.81603622      12.18374252
H       -6.35612917      14.36093140      12.75051975
H       -1.97898054      17.53178978       9.86038494
C       -9.58613396      13.10915565      17.47518921
C       -8.45368004      16.22291565      19.64845848
C       -4.48017216      18.40900040      19.80952644
C       -5.07156277      15.66339779      17.20393372
C       -8.69607544      13.82914639      16.75593567
C       -9.47949505      16.86346054      20.44260025
C       -5.22446346      17.54964828      20.57156944
C       -4.37899160      14.74151802      16.49867249
C       -8.34842587      13.59555149      15.40107155
C       -9.60582066      16.44278526      21.70576477
C       -5.56039238      18.07566261      21.86426544
C       -4.22980976      15.13713551      15.04504013
C      -12.14336205      14.45271015      21.64997482
C       -5.48279381      17.25142097      15.45942116
C       -1.63098907      16.86133194      15.65382576
C       -8.32809353      14.43347549      21.28584099
C       -1.97858429      17.12763405      17.02447891
C       -8.02782631      14.94552135      20.05401802
C      -11.74026775      14.04373360      20.39366150
C       -5.67331457      16.81497574      16.68759537
H       -9.94528866      13.27883816      18.54393578
H       -8.35111046      16.70792580      18.71075630
H       -4.15342617      18.12116241      18.79541206
H       -5.09072399      15.57927799      18.23280144
H       -8.08420086      14.64972115      17.26854134
H       -9.96251297      17.81479645      20.18054771
H       -5.56373072      16.54310608      20.24333572
H       -4.15455294      13.74401474      16.77391624
H      -11.66085148      15.28976440      22.06638145
H       -6.07290602      18.12456512      15.13363457
H       -1.85018694      15.84753704      15.32481384
H       -7.93758535      13.51117229      21.70189476
H       -2.36486340      16.26907730      17.54084015
H       -7.50277996      14.40676594      19.32051277
H      -10.92899799      14.59871197      19.89171219
H       -6.38701487      17.29093933      17.29743004
C      -13.79099083      13.15711117      24.67420769
C      -13.17399597      15.75939369      26.55792618
C       -9.26739502      18.20153046      27.00414658
C       -9.80842113      15.68623352      24.49338150
C      -13.04522705      13.94362450      23.90365982
C      -13.93882275      16.56959724      27.32682228
C      -10.00136185      17.38713455      27.83679390
C       -9.08728218      14.93557358      23.60947037
C      -12.92461681      13.70843029      22.48827362
C        4.65119791      16.29975510       0.18052228
C        8.62348366      17.79337883       0.61109221
C       -9.05835819      15.24255657      22.21148300
C      -16.89506149      14.46752739      28.29970551
C      -10.33428383      17.19688225      22.72308922
C       -6.36789608      17.33635902      22.74323654
C      -12.77128983      14.32031441      28.50296402
C       -6.65141153      17.81762123      24.02438354
C      -12.51560211      14.69246483      27.20265579
C      -16.53779602      13.82152748      27.13942146
C      -10.35925198      16.90835381      24.02280998
H      -13.98297310      13.39617252      25.71973228
H      -12.87568188      16.13577080      25.57027245
H       -9.08390331      17.85865784      26.00242996
H       -9.67962551      15.56863880      25.56549835
H      -12.42912579      14.71461487      24.24973106
H      -14.28420639      17.58437538      27.10716820
H      -10.37203121      16.41732407      27.55125237
H       -8.27629948      14.26036453      23.91677094
H        2.11977100      15.45757580       0.16793928
H      -10.78996849      18.07596970      22.28558159
H       -6.83827114      16.54809570      22.15594482
H        6.51147270      13.50793743       0.38227931
H       -7.38741446      17.18109894      24.56082535
H      -11.82456112      14.11188602      26.60850143
H      -15.94692612      14.32714558      26.33760071
H      -10.88438225      17.61887741      24.68515587
C       -0.01859449      18.33867455       2.92835212
C        0.80502093      21.25444984       5.67204428
C        4.25223160      23.87685394       5.15954542
C        3.76917005      20.90173340       3.05891967
C        0.70757037      19.22663307       2.17822170
C       -0.10551418      22.00400162       6.31095648
C        3.74043560      22.85884476       5.96412516
C        4.55024862      20.11170006       2.31846619
C        1.11372972      18.79149818       0.87027162
C       -0.41624045      21.88768196       7.74242687
C        3.36985326      23.33706474       7.27830458
C        5.02252579      20.48598099       0.99795157
C       -2.83328700      19.71524429       7.37897205
C        3.70771384      22.56083107       1.38120461
C        7.65043592      22.49864388       1.16605663
C        0.96449095      19.87414169       7.55303478
C        7.07733536      22.95164490       2.31210256
C        1.37711656      20.07567406       6.32987738
C       -2.57036781      19.36202621       6.09798908
C        3.34111834      22.16510773       2.62694526
H       -0.37521464      18.61266708       3.93623900
H        1.00541043      21.43288612       4.62840176
H        4.83525896      23.51872063       4.28487730
H        3.27681231      20.38906670       3.85673881
H        0.92663878      20.16129494       2.63239050
H       -0.56594402      22.76506805       5.67988682
H        3.83653283      21.73599243       5.61161327
H        4.80037403      19.04145622       2.54833865
H       -2.47193885      20.59907913       7.87826252
H        3.56335449      23.60014153       1.17015886
H        7.59769344      21.45873642       0.96630532
H        1.23810279      18.91034126       7.97436190
H        6.43568850      22.29048729       2.95950770
H        2.00500321      19.42929459       5.73875523
H       -2.14266872      20.03190613       5.31158209
H        2.70435548      22.73192215       3.37703824
C       -4.94981194      18.70440102      10.31998539
C       -3.81336451      21.19691086      13.07634258
C        0.03842141      23.27775764      12.41926956
C       -1.14712274      21.26144409      10.33402824
C       -4.02292824      19.39912224       9.57196712
C       -4.65856552      22.09110260      13.70801449
C       -0.75053245      22.65819550      13.38888168
C       -0.14267893      20.49192429       9.71085072
C       -3.72984552      19.00958061       8.20949078
C       -5.07337379      21.84605026      15.03265667
C       -1.00917733      23.32046318      14.63896370
C        0.22072087      20.77158928       8.35863113
C       -7.73539448      19.92869186      14.36747551
C       -1.38507617      22.67609787       8.38334751
C        2.92852306      22.35025406       8.25050735
C       -3.66320562      19.78692818      14.99026299
C        2.60448170      22.67757034       9.49572945
C       -3.33826232      20.02649498      13.68989754
C       -7.51441479      19.60026932      13.01424122
C       -1.81087470      22.34195137       9.61487198
H       -5.10870934      18.95259094      11.36442661
H       -3.59518218      21.22434235      11.95796013
H        0.37464836      22.68626213      11.62449360
H       -1.63945138      20.91723442      11.24487209
H       -3.42951703      20.20006943       9.97899437
H       -5.05584002      22.86702728      13.05529976
H       -1.26819217      21.73348236      13.14290047
H        0.43435717      19.71627235      10.25415039
H       -7.44264841      20.88761139      14.80297375
H       -1.82714474      23.47857857       7.79189825
H        2.71647954      21.28961754       8.03556538
H       -3.41957211      18.90600395      15.55239582
H        2.42047715      21.85949707      10.11968040
H       -2.59010792      19.39341354      13.13121319
H       -6.94843101      20.25195885      12.33254623
H       -2.68821526      22.86758232      10.04186249
C       -9.44247818      18.42738342      17.37938118
C       -8.73925495      21.25780487      19.93056107
C       -4.54520988      23.73219299      19.87682724
C       -6.00588703      21.01721382      17.52804947
C       -8.81842995      19.37417984      16.56781387
C       -9.42910194      22.19457054      20.59071732
C       -5.39079428      23.01078606      20.66476250
C       -5.03730440      20.26852608      16.91055679
C       -8.40506744      19.00968361      15.25585461
C       -9.77241707      22.01294327      21.91045570
C       -5.74035501      23.46667862      21.96400261
C       -4.57532215      20.62593079      15.63721561
C      -12.13888550      19.94786644      21.72498131
C       -6.03682041      22.63796806      15.71451473
C       -1.90337229      22.79279327      15.59407711
C       -8.46867466      19.98599243      21.94968605
C       -2.06300139      23.33886147      16.79607391
C       -8.20301628      20.14676285      20.63870811
C      -11.73816490      19.51762390      20.46123695
C       -6.49827003      22.21461487      16.89827919
H       -9.79709721      18.75884628      18.33191681
H       -8.44529724      21.33565712      18.93808937
H       -4.29315424      23.42510223      18.89242935
H       -6.21492624      20.69323540      18.54268074
H       -8.48657799      20.36790085      17.00601196
H       -9.85653305      23.11234283      20.18459511
H       -5.55969524      21.95614243      20.44021034
H       -4.70485878      19.34544563      17.40422821
H      -11.80062008      20.98568535      21.85571289
H       -6.31468296      23.60787773      15.19573689
H       -2.23647952      21.82527733      15.41202831
H       -8.18597317      19.10094070      22.46542168
H       -2.53311729      22.75280190      17.57808113
H       -7.56293583      19.40456390      20.05713463
H      -11.19029999      20.11931992      19.78922081
H       -7.38823557      22.73422623      17.28358841
C      -14.16962528      18.82511520      24.62185860
C      -13.06697750      21.32184601      27.00666428
C       -9.11400414      23.94329643      26.88355637
C      -10.50539207      21.57390976      24.54201317
C      -13.39077759      19.64115334      23.83427620
C      -13.94572067      22.06330872      27.68358231
C       -9.81789112      23.04212761      27.58667183
C       -9.70418358      20.67175293      23.92609596
C      -12.95158005      19.21218872      22.58755112
C        4.50790739      21.66787148       0.54116994
C        8.46588135      23.32053375       0.40800691
C       -9.37142277      20.87755394      22.60914803
C        1.88957059      19.67517853       0.06951980
C      -10.47201633      23.01259041      22.68678665
C       -6.63772678      22.68858337      22.73398590
C        5.86755037      19.67934990       0.24499030
C       -6.98978233      22.99024773      23.98917961
C      -12.59346294      20.09895325      27.57364464
C      -16.41654396      19.35799026      27.36968040
C      -10.89819145      22.79266357      23.98020935
H      -14.51612568      19.18886566      25.64389992
H      -12.76239586      21.51294136      26.01161194
H       -8.68201542      23.68005180      25.88307190
H      -10.93683815      21.22673798      25.48156166
H      -13.23438263      20.67819977      24.18981171
H      -14.41074657      23.00061989      27.24502754
H       -9.78739738      22.08384323      27.18540573
H       -9.35601044      19.79044151      24.41601562
H        2.04889226      20.66882515       0.61228907
H      -10.68647385      23.98094368      22.19638634
H       -7.00390434      21.79447746      22.31933784
H        6.17774296      18.65478706       0.77526462
H       -7.71444273      22.26655579      24.46155930
H      -11.86979008      19.55568886      26.89433098
H      -15.62359428      20.00213432      26.93316460
H      -11.54451370      23.45471573      24.48819542
C        7.41929960      24.33229065       2.74789619
C        6.63911438      27.42751694       5.11395502
C       13.15924454       2.36478662       5.44776201
C       11.67750835      27.28151512       3.55937028
C        8.26591682      25.16889381       2.06317782
C        5.83692980      27.81703186       6.22197914
C       12.54576111       1.23164785       6.01913977
C       12.44620037      26.36594009       2.89764214
C        8.72736073      24.69639015       0.80879647
C        6.17324114      27.21772766       7.44933701
C       12.28592110       1.37217498       7.41147375
C       12.64282799      26.52234077       1.53780091
C        3.67028809      25.58798790       6.80667973
C       11.17365932      28.57464027       1.59266746
C       15.67897320       0.79611248       1.25475180
C        8.06724834      26.03395844       6.45670128
C       15.26314545       1.26026785       2.46562314
C        7.77582979      26.59221268       5.21720648
C        4.18327045      25.25680923       5.54246855
C       11.04401493      28.41829491       2.92548251
H        6.79037857      24.60670662       3.67831802
H        6.40789700      27.90410614       4.14657021
H       13.43054867       2.44957566       4.36493206
H       11.56126404      27.14561462       4.68606853
H        8.38476467      26.14269638       2.28720260
H        5.18843269      28.72010231       6.15660858
H       12.43406487       0.33182621       5.49296856
H       12.98077011      25.68755150       3.48806429
H        3.58808970      26.63947105       7.12295771
H       10.77595711      29.48438454       1.03227866
H       15.14426517      58.89512253       0.79030657
H        8.82037735      25.28724861       6.54767513
H       14.31216526       0.97211075       3.00058031
H        8.31026077      26.30061340       4.33787918
H        4.41241264      26.08951378       4.86548662
H       10.64816093      29.06212807       3.61109042
C        2.95623016      24.00153160      10.01951408
C        3.76880455      26.22306442      12.78356361
C        8.92793846       2.56290889      12.01012993
C        7.06266165      26.31488800       9.99465942
C        3.44842100      24.96404076       9.15817738
C        3.07944274      27.12372780      13.53144360
C        8.01725101       1.64850581      12.45411015
C        7.61706161      25.76082802       8.84922123
C        3.49680805      24.66987038       7.73961306
C        2.80704451      26.99028206      14.92246151
C        7.35046244       1.86696076      13.68818951
C        7.29419804      26.31145287       7.57233047
C        0.17670928      25.26478958      13.88969994
C        5.53951120      27.69741058       8.69693184
C       11.68842316       0.22263454       8.13797760
C        4.19110537      25.02998924      14.79533958
C       11.61803246       0.21552266       9.49113560
C        4.29045630      25.14095688      13.45204258
C        0.44481581      24.65005302      12.62154865
C        6.01921940      27.21335602       9.86972618
H        2.78184986      24.22230721      11.10809803
H        3.90988469      26.38577652      11.73521233
H        9.70228481       2.15577316      11.25050640
H        7.13705730      25.71825027      10.91619205
H        3.58190513      25.94671822       9.48023605
H        2.48506641      27.89324379      13.01104832
H        7.89860582       0.62991017      12.00282097
H        8.45338821      25.03063965       8.88602638
H        0.57483327      26.27121925      13.95243835
H        4.72252560      28.40724373       8.55185699
H       11.62902737      58.26703262       7.50860739
H        4.58452272      24.16856194      15.23380375
H       11.49287701      58.29492188      10.11743927
H        4.70786953      24.34345818      12.85722542
H        0.94926012      25.25980377      11.75516605
H        5.68996334      27.59625435      10.80818462
C       -1.60472965      24.62938881      17.00731468
C       -0.82981741      27.20778465      19.48204994
C        3.23769975       1.04200220      20.32322693
C        2.43843555      26.52664566      17.65204620
C       -0.86828786      25.31934547      16.07609749
C       -1.38210356      28.05182076      20.44636726
C        3.21905065       0.13661651      21.35644722
C        3.21293592      25.68518829      16.90859604
C       -0.42885011      24.55438805      14.91737556
C       -1.43785906      27.68762588      21.71777916
C        2.68875861       0.59527832      22.59228706
C        3.41635466      25.88121986      15.54874706
C       -4.36869955      25.46249008      21.56725883
C        1.82431471      27.68971443      15.69783974
C        6.66847563       0.89956635      14.46948719
C       -0.23911563      25.59687233      21.17307854
C        6.26430607       1.09430861      15.70992088
C       -0.25841868      25.98604012      19.83975029
C       -3.93353415      24.96558380      20.37037277
C        1.70948148      27.55798340      17.05018425
H       -1.86153257      25.05656433      17.93243408
H       -0.64129472      27.54948807      18.46478271
H        3.57601309       0.78482652      19.31454659
H        2.07559204      26.26269722      18.71529007
H       -0.63524717      26.31887245      16.37415123
H       -1.76633942      29.01025200      20.08339691
H        3.42263627      57.99904633      21.15222168
H        3.31146622      24.56745720      17.23836708
H       -3.93277645      26.30649567      22.05358315
H        1.17547262      28.39789963      15.12309456
H        6.34803009      58.81148911      14.01817989
H        0.11367925      24.60658073      21.53650665
H        5.63576269       0.46372515      16.16678619
H        0.22044855      25.25648499      19.07741928
H       -3.19967556      25.46429634      19.77757263
H        1.11509955      28.39897156      17.50920868
C       -6.44335365      24.21288872      24.53409195
C       -5.56324291      26.79389000      27.42894936
C       -0.85945958       1.70621884      27.04591179
C       -1.70946801      26.68969917      24.40053940
C       -5.71477985      25.09858894      23.77627182
C       -6.46238613      27.73981094      27.88862228
C       -1.63470268       0.90732026      27.89727783
C       -1.11274147      25.96434021      23.45736504
C       -5.25936317      24.73729324      22.43582916
C       11.93678474      27.52417946       0.80874807
C       16.57439995       1.49278319       0.45922452
C       -0.93997872      26.42041969      22.08088684
C       -9.45531178      25.63766479      28.48039818
C       -2.06932950      28.42937088      22.81807709
C        2.42931199      58.48900986      23.56434059
C       13.33370781      25.48978043       0.84289247
C        2.28349543      58.88656616      24.86234856
C       -5.02850437      25.68021584      28.13295555
C       -8.82440281      25.27975082      27.33308220
C       -2.24925137      27.94261551      24.02509117
H       -6.62790394      24.38959503      25.61437225
H       -5.16337729      26.88773918      26.42323875
H       -0.34802261       1.35140467      26.08884430
H       -1.95760238      26.28014755      25.40102386
H       -5.34937954      26.08597755      24.21594048
H       -7.05342913      28.44458199      27.28591919
H       -1.88606179      58.90490723      27.48913002
H       -0.70086503      24.98737144      23.56329727
H        9.37945557      26.67140961       0.24868979
H       -2.84385729      29.22901344      22.49482155
H        2.66278481      57.43645859      23.31349373
H       13.62474632      24.66619492       1.44758844
H        2.37586117      58.10712814      25.66978455
H       -4.41457844      24.93536949      27.59760475
H       -8.16539860      25.89004135      26.77907753
H       -2.87590456      28.40465927      24.62433052
C        7.32095909       2.49771690       2.84529305
C        8.89714050       4.47046328       5.32226467
C       12.97197437       7.68851662       5.59303617
C       11.79563522       4.48489666       2.94952750
C        8.39982510       2.98992968       2.11818576
C        8.02832413       5.24939299       6.05063534
C       12.06159782       6.80693960       6.02248287
C       12.45273113       3.55580616       2.20162201
C        8.64861679       2.56358647       0.73621923
C        7.51332998       4.78726387       7.26736879
C       11.48445988       6.92998219       7.28196859
C       12.80973625       3.81430197       0.88015532
C        4.69013596       2.90101790       6.75841045
C       11.78462791       6.03398466       1.07644343
C       15.70787048       5.81635952       1.15521371
C        9.04542446       2.89969969       7.13126755
C       15.34352207       6.12569284       2.39334202
C        9.40004253       3.24635053       5.82131386
C        4.69918633       2.44071198       5.51589108
C       11.44002724       5.73457718       2.36784744
H        7.39376211       2.64649272       3.99817491
H        9.07910347       4.78545856       4.25748682
H       13.18973255       7.70862389       4.53333712
H       11.29678917       4.24894476       3.90995169
H        9.12899303       3.67924070       2.54228234
H        7.63650846       6.17589664       5.57286310
H       11.64101696       6.04146719       5.40917778
H       12.74187565       2.53671741       2.50983262
H        5.03625631       3.91133809       7.05226040
H       11.30778503       6.87510490       0.60221773
H       15.44638157       4.93813467       0.61132216
H        9.51316738       1.97633445       7.49033928
H       14.76878548       5.53340244       3.04196811
H       10.01771164       2.50335097       5.34007597
H        5.24843693       3.04935002       4.75403452
H       10.65874004       6.35201931       2.90943813
C        2.58032584       2.13104415       9.85555077
C        4.38122034       4.04347372      12.46711159
C        7.54904175       7.51054621      12.43979931
C        6.84194756       3.95970821       9.90182209
C        3.49489737       2.67331672       9.02002430
C        3.70105195       4.94096518      13.30133724
C        6.66025496       6.92979860      13.34465599
C        7.63344336       3.11865664       9.08339596
C        3.93558645       2.18329167       7.71553850
C        3.31659031       4.45287561      14.64212990
C        6.73126745       7.19096518      14.72400284
C        8.05210400       3.58757949       7.79776621
C        0.34120280       3.53683043      14.14102459
C        6.76841211       5.61329269       8.15614986
C       10.66461563       5.84928513       7.86975479
C        4.05956793       2.25010967      14.00299549
C       10.23883629       5.90941286       9.16816044
C        4.55827522       2.69708371      12.85640144
C        0.65752018       3.20531893      12.86178398
C        6.49793530       5.26963949       9.45517349
H        2.37756586       2.51641631      10.79762650
H        4.57167244       4.49645758      11.48943996
H        7.50938082       7.11997366      11.48818970
H        6.54062462       3.53801179      10.84204674
H        3.91872787       3.58026862       9.29532528
H        3.26967859       5.94295645      13.04792309
H        5.99192667       6.17409897      13.04183388
H        7.87317276       2.03560138       9.35161400
H        0.79461372       4.43925381      14.66021538
H        6.64722919       6.63410902       7.84789801
H       10.39988899       4.95467472       7.29021502
H        4.20256329       1.19581842      14.25829697
H        9.51028538       5.21347284       9.53010368
H        5.03990507       2.00025535      12.19001102
H        1.50499332       3.74011636      12.33362484
H        6.09103584       6.01973343      10.10285664
C       -1.62073183       2.06259203      16.95130539
C       -0.87168086       4.61768293      19.61972237
C        3.49614763       6.44803429      19.87886238
C        2.34227347       3.44508624      17.09054756
C       -0.75025970       2.94082570      16.29436302
C       -1.47093546       5.54173183      20.52322578
C        2.58802700       5.98879623      20.71163368
C        2.95892692       2.63258529      16.16990089
C       -0.43422794       2.76634216      14.94431019
C       -1.83692908       5.08744955      21.78935623
C        2.30298495       6.62644720      21.97173309
C        3.51496410       3.10279894      14.96287251
C       -4.74866819       2.83857083      21.35331154
C        2.66473842       5.25440693      15.57218075
C        5.99827337       6.48496675      15.69221687
C       -1.05017102       2.85114145      21.34666061
C        6.21212959       6.59330654      17.01599693
C       -0.56957763       3.29272223      20.08440018
C       -4.74212456       2.62340474      19.98525429
C        2.19216323       4.82679939      16.80602646
H       -1.74339664       2.14276838      18.03555298
H       -0.63904405       5.00217485      18.61535454
H        3.72468638       5.86535358      19.01101303
H        1.94971597       2.98622918      17.97952461
H       -0.24361227       3.81136274      16.81450081
H       -1.76131117       6.54210329      20.22076416
H        2.09990048       5.00472498      20.47420692
H        3.13277268       1.59853327      16.51530838
H       -4.00382757       3.63447714      21.73585510
H        2.50782752       6.31757784      15.35087013
H        5.42939281       5.60789728      15.39648056
H       -0.95436502       1.81393075      21.56054306
H        5.57021666       6.00312901      17.62259865
H       -0.24536480       2.50447369      19.52435112
H       -4.11010885       3.09900141      19.30242538
H        1.61775136       5.57016516      17.40189362
C       -6.54352856       1.74613893      24.30160141
C       -5.06236124       4.38917685      26.89936256
C       -1.28046560       7.56872272      26.93437386
C       -2.46181655       4.31259775      24.51379776
C       -5.65197325       2.42318821      23.53111839
C       -5.99543333       5.19799709      27.43434334
C       -2.08132339       6.64796925      27.56649017
C       -1.87124550       3.39190125      23.65229607
C       -5.62950850       2.12205744      22.21556282
C       12.44740200       5.00220108       0.28473508
C       16.37862778       6.82536650       0.41377556
C       -1.63111079       3.80042982      22.27016830
C        9.80306244       2.97827363       0.06124909
C       -2.49181628       5.97681475      22.69175339
C        1.36443961       5.94369316      22.80318832
C       13.46515751       2.88165188       0.03152103
C        1.06142664       6.47323561      24.00386238
C       -4.79436207       3.11988473      27.40789986
C       -8.69110394       2.39483142      27.35252190
C       -2.80321527       5.61094046      24.00041389
H       -6.78101301       2.08743858      25.29129410
H       -4.65419579       4.60281229      25.87773132
H       -0.92959911       7.34240961      26.01073456
H       -2.73277903       3.89085865      25.51036072
H       -5.16200399       3.26531863      23.94634056
H       -6.25941229       6.18859005      27.14747810
H       -2.35187006       5.69332314      27.12734222
H       -1.39845836       2.52476215      24.13572121
H       10.47828865       3.76335359       0.48717186
H       -2.89428139       6.84624386      22.23805237
H        0.92584401       5.08205032      22.42133903
H       13.77232265       2.03214884       0.55463052
H        0.37793294       5.89789724      24.71856689
H       -4.06438780       2.46877241      26.89463043
H       -7.70220041       2.65455294      26.93544197
H       -3.28105712       6.30369282      24.67727852
C        7.55725908       7.61761475       3.28519201
C        8.84045601      10.02091885       5.36825657
C       12.83104324      12.94571877       5.71224546
C       11.81808090      10.24990273       3.12845922
C        8.41578674       8.37225437       2.61123872
C        8.21570206      10.95964623       6.10882568
C       12.01516533      12.06833363       6.42009592
C       12.46349525       9.28885651       2.45861363
C        8.78573895       8.02828026       1.26578856
C        7.74456120      10.59482765       7.44729662
C       11.74393368      12.34407902       7.79908133
C       12.93062401       9.63610172       1.07560372
C        4.88476038       8.58475399       7.43468380
C       11.74934578      11.71417522       1.19935894
C       15.82688904      11.53622627       1.55513680
C        8.79349232       8.43354130       7.12686634
C       15.36236000      12.01006985       2.87258196
C        9.25279808       8.71797371       5.88549328
C        5.32079983       8.16504002       6.26717710
C       11.51526737      11.48968601       2.53164458
H        7.15044689       7.97445631       4.18695164
H        9.25902843      10.39482021       4.40110445
H       13.06561279      12.72580051       4.73026180
H       11.60837173      10.04418373       4.13053656
H        8.95461655       9.28833866       2.98608088
H        8.07101631      11.98759556       5.82194328
H       11.62079334      11.21226311       5.97956944
H       12.87594986       8.40481567       2.93704295
H        5.33006763       9.45342731       7.89583588
H       11.58677197      12.71399403       0.89985782
H       15.49625587      10.59443760       1.32899857
H        8.92149448       7.41449690       7.46069765
H       14.79265594      11.37780762       3.50608969
H        9.77354050       7.94283342       5.27317095
H        6.17840481       8.58686543       5.77464533
H       11.03662777      12.38479137       3.10223579
C        2.82750773       7.09076548      10.19533539
C        3.66288400      10.31037617      12.94575310
C        7.92080927      12.23652649      12.87494946
C        7.25474739       9.94274616      10.11703014
C        3.60638332       7.97388744       9.51956463
C        3.36425447      11.25634193      13.83114243
C        7.44660664      11.46051216      13.87739658
C        7.84248877       8.97452354       9.26707077
C        3.99409890       7.73359299       8.17720985
C        3.08255696      10.86497688      15.20832634
C        7.21744204      11.99078369      15.15335655
C        8.06629086       9.31574535       7.93640089
C        0.34457606       8.88540745      14.49059486
C        7.06299400      11.49479389       8.23834801
C       10.76834774      11.49907303       8.43842697
C        3.96300006       8.77920437      14.72521687
C       10.42499065      11.73630142       9.75069141
C        4.06366110       9.04238892      13.36259174
C        0.64067441       8.74808311      13.16520977
C        6.86198092      11.15444183       9.59353733
H        2.43139195       7.21123552      11.19924736
H        3.83238935      10.64240170      11.94254303
H        8.17391109      11.87633991      11.92078018
H        7.21480942       9.71055889      11.22425461
H        3.69268107       8.88632965      10.00388813
H        3.22843194      12.30948830      13.54896069
H        7.15571403      10.46251106      13.61812878
H        8.08651543       7.97473478       9.68918324
H        0.67721206       9.80709457      14.87701511
H        6.78458500      12.42338753       7.75996923
H       10.23331547      10.79236889       7.77229547
H        4.17441750       7.83271170      15.13362408
H        9.80902672      11.02301502      10.25300121
H        4.64455461       8.21364689      12.90652180
H        1.26969218       9.39758015      12.58263874
H        6.10132599      11.69748116      10.17659950
C       -1.66819167       7.39866304      17.19697762
C       -0.32309115      10.10894299      19.78133774
C        3.37111998      12.81824684      19.91311264
C        2.29198503       9.88003063      17.77604485
C       -0.74613887       8.26382065      16.66707039
C       -0.94681495      11.09881115      20.52338982
C        2.72714639      11.95577526      20.72017860
C        3.11110234       9.08120346      17.02497101
C       -0.30171928       7.97769690      15.32064629
C       -1.39772117      10.79667950      21.80617142
C        2.33833170      12.22324848      22.01787186
C        3.37265849       9.63016510      15.67926598
C       -4.45947647       8.95452595      21.70178604
C        2.44039464      11.68806362      16.13747406
C        6.43080235      11.25234318      16.03320694
C       -0.29480278       8.60747910      21.66582108
C        5.95050716      11.79135418      17.24596214
C        0.01180954       8.84379673      20.31552505
C       -4.03530884       8.59353161      20.46965218
C        2.00294614      11.19178486      17.30736542
H       -2.08599949       7.81512499      18.13900757
H       -0.11209115      10.23683262      18.77457809
H        4.04261303      12.47734261      19.08856010
H        1.96185696       9.49731541      18.72064972
H       -0.27549455       9.03106976      17.32442474
H       -0.97294086      12.17826939      20.19781876
H        2.56987953      10.96174717      20.26340675
H        3.30423570       8.10666370      17.27387619
H       -4.15995741       9.87671947      22.25056839
H        2.14680815      12.71235657      15.83775711
H        6.33825207      10.25160122      15.68995762
H       -0.11055072       7.65928411      22.13988113
H        5.46851110      10.94441605      17.69548416
H        0.54272854       8.12329483      19.70834541
H       -3.36552620       9.25232792      20.05133438
H        1.32592011      11.80622959      17.92952538
C       -6.20350218       7.29198313      24.60547829
C       -5.04391050      10.30514050      27.02809715
C       -1.19417536      13.06513691      27.07115364
C       -2.43168187      10.00938034      24.28554726
C       -5.45338488       8.21647835      23.93535805
C       -5.90194798      11.16698170      27.70925331
C       -1.95698786      12.19325352      27.80334091
C       -1.68610513       9.04991436      23.58626938
C       -5.15176105       8.01540089      22.57056618
C       12.49244022      10.80613613       0.44385335
C       16.46738052      12.48574257       0.65262252
C       -1.13091791       9.54088974      22.38043976
C        9.81123066       8.70073891       0.56482589
C       -2.27029228      11.64066219      22.52049637
C        1.52661526      11.37455463      22.78305817
C       13.90318012       8.89003277       0.40261880
C        1.15810132      11.66450405      24.05762672
C       -4.48570728       9.28322506      27.64389420
C       -8.61460495       8.42060757      27.81103516
C       -2.63103366      11.36892509      23.74587822
H       -6.25543499       7.38677216      25.68585968
H       -4.63577890      10.54152775      26.03616142
H       -0.83241850      12.81745338      26.11668968
H       -2.79442048       9.86534786      25.30571365
H       -5.11881828       9.18880939      24.32712746
H       -6.56304264      11.99048805      27.25948143
H       -2.43325329      11.28956890      27.42493629
H       -1.35239100       8.17593765      24.15136719
H       10.13171291       9.60935593       1.11984754
H       -2.49984193      12.50109863      21.93714714
H        1.12851501      10.55912113      22.30502510
H       14.31385231       7.99744177       0.90673888
H        0.69687790      10.89796543      24.65207100
H       -3.62106800       8.69063282      27.24268913
H       -7.85021925       8.99294186      27.30305862
H       -2.87208581      12.14592743      24.43540764
C        7.94240761      13.08494282       3.25413752
C        8.83427334      15.90229511       5.42409897
C       13.20469666      18.00606155       5.38615942
C       11.81904125      15.46526432       2.92204571
C        8.61687183      13.92109585       2.34135199
C        8.14359856      16.69314384       6.40648031
C       12.28994942      17.22773552       6.05181026
C       12.55515003      14.72753334       2.03480744
C        9.03593540      13.56478024       1.04558432
C        7.88088512      16.28310585       7.75870514
C       11.76186848      17.49423218       7.39481831
C       13.07010555      15.29876232       0.85517991
C        5.39804316      14.31951809       7.49036121
C       11.84397888      17.33344269       1.43760622
C       15.89037991      17.02648926       1.39113736
C        9.01647282      14.29176807       7.15549469
C       15.41637707      17.39447594       2.59894371
C        9.28194618      14.64871597       5.91403294
C        5.64404535      14.12086010       6.19225311
C       11.44071007      16.86440277       2.63695169
H        7.70812225      13.43394279       4.23704100
H        8.98742199      16.27769279       4.51488161
H       13.72259045      17.79036140       4.52747965
H       11.51099968      14.92918015       3.81737876
H        8.80403519      14.94607449       2.56932402
H        7.63661957      17.53665352       5.99350834
H       11.90385056      16.33152580       5.64461803
H       12.89642811      13.69026661       2.43743706
H        5.77868319      15.16339302       8.03279400
H       11.53413868      18.28103638       1.04438663
H       15.61056137      16.05488205       0.96584314
H        9.36895657      13.34291840       7.57394695
H       14.81598282      16.69175720       3.18342185
H        9.88148689      13.97350216       5.12182379
H        6.15560055      14.67085552       5.50464773
H       10.75448990      17.41169167       3.23405409
C        3.56660151      12.58918858      10.19569111
C        4.33225250      15.72142982      12.47393131
C        8.36878109      18.26732826      12.62942791
C        7.08582211      15.20453644      10.14762306
C        4.23657370      13.52769089       9.52144146
C        3.44829035      16.61484909      13.14418983
C        7.50140238      17.46029472      13.40376282
C        8.11022282      14.59812832       9.38242245
C        4.47898149      13.36266327       8.14505005
C        3.15552354      16.36923790      14.52768803
C        7.21630764      17.80622673      14.67276573
C        8.27877140      14.99785137       8.11454201
C        0.38231471      14.23775578      14.12785339
C        6.98399925      17.00895119       8.52296066
C       10.84402275      16.78992844       8.08750057
C        4.35201836      14.13600826      14.28461075
C       10.42429638      17.05783272       9.41872597
C        4.72091627      14.50345230      13.05559826
C        0.60135776      13.83480740      12.83510780
C        6.63420820      16.43423271       9.74760056
H        3.57980824      12.65385818      11.30122662
H        4.59719658      16.06529427      11.47622490
H        8.69651508      18.13424683      11.61184597
H        6.82047224      14.74807739      11.05997849
H        4.43157291      14.51662254       9.87710857
H        2.99946690      17.50819969      12.66417694
H        7.20743561      16.53197098      13.04187965
H        8.64607716      13.73107719       9.75702572
H        0.85299855      15.09963608      14.52976131
H        6.53774118      17.92045021       8.15888023
H       10.24777794      16.01829910       7.64067793
H        4.73145294      13.23403931      14.76639843
H        9.65577126      16.50676155      10.02923107
H        5.41029692      13.91730785      12.52092266
H        1.30074263      14.33642006      12.26897907
H        5.95752239      16.88188744      10.46714306
C       -1.25448740      13.08505440      17.19505119
C       -0.42385894      15.90594101      19.81009483
C        3.40124059      18.58536148      19.80068588
C        2.65723968      15.75555992      17.20867729
C       -0.59819698      13.85167694      16.34119606
C       -1.26320136      16.70781898      20.48849297
C        2.48830318      17.74222565      20.47146988
C        3.37420774      14.85635567      16.43106842
C       -0.35302442      13.40430832      15.02463627
C       -1.59762800      16.39686966      21.86126900
C        2.15553164      18.03506851      21.81421661
C        3.73091674      15.12283707      15.08686066
C       -4.27734709      14.55991268      21.65414238
C        2.28438497      17.08727264      15.28690433
C        6.35263634      16.98343849      15.46179771
C       -0.43027598      14.31439686      21.65310669
C        6.01876307      17.33257484      16.70417595
C       -0.01547879      14.65280533      20.37394714
C       -3.91130567      14.17383003      20.39728355
C        1.98958743      16.80542374      16.58337593
H       -1.56204593      13.33328247      18.17866325
H       -0.03841352      16.17605591      18.79415321
H        3.68487072      18.44421196      18.70376968
H        2.52258468      15.57522678      18.23708916
H       -0.23834163      14.85937119      16.69379234
H       -1.64751410      17.66848183      20.10231400
H        2.08966064      16.89515495      19.89818954
H        3.87196469      13.95506191      16.89458275
H       -3.65762877      15.35004616      21.95518875
H        1.74414384      17.89455986      14.83425808
H        5.97328663      16.09407997      14.89169598
H        0.04960233      13.46600723      22.13677597
H        5.50937080      16.63476944      17.41035461
H        0.58042049      13.88614368      19.80300140
H       -3.06744790      14.61559105      19.83137512
H        1.33347297      17.46442795      17.07425880
C       -6.18785286      13.32452011      24.63213348
C       -5.28180599      16.20782661      26.81163788
C       -1.12234163      18.36365891      26.96843910
C       -2.03383660      15.95046902      24.60227776
C       -5.45860767      14.17987919      23.83655167
C       -5.92956638      16.99209785      27.71876144
C       -1.74727583      17.47190666      27.82560158
C       -1.38388038      15.01106453      23.84643555
C       -5.16382647      13.84182262      22.46387482
C       12.63262463      16.56101990       0.51364779
C       16.82746887      17.81662369       0.72601712
C       -1.20650148      15.19604683      22.46737099
C        9.81537628      14.41037273       0.24108350
C       -2.22678924      17.39742088      22.67032623
C        1.34056401      17.14290237      22.66081810
C       -4.93028879      14.53956795      28.46946526
C        1.32578170      17.30867577      24.00222778
C       -4.76970863      14.95600986      27.18930626
C       -8.64071941      14.02300453      27.50231361
C       -2.34664559      17.16742516      24.00695801
H       -6.62274981      13.76905632      25.52266884
H       -5.12338972      16.70967102      25.87553024
H       -0.92182195      17.99392509      25.97993469
H       -2.30322957      15.86385155      25.67127419
H       -4.97521448      15.06516552      24.28826141
H       -6.43270779      17.94730949      27.48615456
H       -2.19985795      16.49135971      27.35590744
H       -1.26510084      14.01661301      24.31396866
H       10.37809086      15.24596787       0.69490010
H       -2.64248085      18.20402527      22.12028122
H        1.10843253      16.15048027      22.28999901
H       14.06337070      13.49134254       0.26653337
H        0.80167949      16.58961296      24.59833336
H       -4.20667315      14.41817379      26.40893173
H       -8.15178585      14.70277977      26.79521751
H       -2.95659375      17.83702278      24.64571571
C        7.89696121      18.47000885       3.28291512
C        9.01080704      21.44474602       5.61582708
C       12.20260048      23.20775414       5.90351915
C       11.54792118      21.10565758       3.17461133
C        8.59342575      19.34453773       2.54009748
C        8.13171673      22.20170403       6.34998369
C       11.81860065      22.38879204       6.87700415
C       12.53381062      20.45431137       2.45987535
C        9.04562664      18.99682426       1.22002745
C        7.65356064      21.76419449       7.58219767
C       11.44149971      22.85844040       8.13381386
C       12.94383240      20.89431000       1.14050031
C        5.06705904      19.88165665       7.05595016
C       11.44948959      22.79362488       1.47369099
C       16.27677727      22.52425766       1.11448896
C        8.92863560      19.69373894       7.25096607
C       15.68410587      22.70590973       2.36122942
C        9.45013142      20.15428162       6.02082443
C        5.34385681      19.38363457       5.82099342
C       10.96674252      22.35324097       2.66203141
H        7.48249912      18.83065605       4.26252747
H        9.40639782      21.70867348       4.62588692
H       12.49790955      22.70942688       4.97769356
H       11.15597439      20.64178848       4.04066420
H        8.85808659      20.31482315       2.92633629
H        7.84330320      23.12880707       5.80187654
H       12.02317524      21.31479645       6.82430983
H       12.69674778      19.49032402       2.88396835
H        5.24637365      20.88227463       7.26123858
H       10.84897327      23.67110252       1.08692801
H       16.17007828      21.54701805       0.62148654
H        9.26163769      18.67289925       7.59230423
H       15.34318161      21.80417442       2.87659097
H       10.11567879      19.44994926       5.54247236
H        5.93952608      20.08446503       5.21485949
H       10.11070251      22.72568703       3.08456087
C        3.35508180      18.55639267      10.12786388
C        3.90823150      21.13595390      12.26325417
C        7.73249388      23.63495445      12.42548180
C        7.03620529      20.75730133      10.21491623
C        4.01571226      19.39363289       9.25360489
C        3.23645210      22.00878716      13.04450321
C        7.06140995      22.73188782      13.22869110
C        7.69297123      20.01658249       9.26072884
C        4.33381653      18.96455383       7.97478485
C        2.98103786      21.73882484      14.42448139
C        6.96681261      23.02431679      14.60738182
C        8.04553032      20.49757004       8.00774384
C        0.06551284      19.91973305      14.56640434
C        6.82508278      22.43721390       8.56902218
C       10.97993565      22.03227997       9.21852970
C        4.25684261      19.69588280      14.16600418
C       10.53522110      22.63837624      10.42115402
C        4.53684044      20.01365089      12.85643196
C        0.68017679      19.51603127      13.44606876
C        6.63735151      22.00862885       9.79642391
H        3.06782365      18.92440414      11.11866379
H        4.11076880      21.30775642      11.19473362
H        7.93215895      23.43716812      11.38289070
H        6.72198296      20.23514557      11.18328190
H        4.23769283      20.40513039       9.53524971
H        2.65907931      22.87310600      12.69600868
H        6.75001049      21.78608322      12.90165329
H        8.18963623      19.08671570       9.50373650
H        0.44448248      20.82098961      14.97164631
H        6.31333256      23.35148239       8.26122952
H       11.13342381      20.93417931       9.22599411
H        4.80684328      18.88965607      14.65726566
H       10.34855747      22.04089546      11.28097534
H        5.19073725      19.35999107      12.32808018
H        1.61632037      20.11720467      13.20631027
H        6.10247421      22.68655396      10.51453114
C       -1.68207812      18.40370178      17.53175735
C       -0.63056278      21.51323700      19.83104134
C        3.51408458      23.86750793      19.81286240
C        2.35263324      21.06961632      17.15797615
C       -1.17526305      19.35015297      16.62284088
C       -1.28951812      22.38659477      20.65118599
C        2.74238873      23.01794243      20.57900238
C        2.99221587      20.08887672      16.29355621
C       -0.77757460      19.02973175      15.31321144
C       -1.49781394      22.06713867      21.98150826
C        2.40882230      23.43989754      21.89122581
C        3.38793969      20.50971985      14.97692394
C       -4.14063072      20.09423828      21.57167053
C        2.15714097      22.60589790      15.22447014
C        6.18913221      22.21735764      15.42452717
C       -0.39333406      19.90163231      21.63099480
C        5.78735685      22.64632034      16.65023804
C       -0.22174798      20.26027298      20.29724312
C       -3.96622872      19.72886276      20.24786758
C        1.95553720      22.27550507      16.57075119
H       -1.90878165      18.94393158      18.56091690
H       -0.65503681      21.58661270      18.71763802
H        3.67460155      23.44570160      18.84528732
H        2.20085812      20.75256538      18.24161530
H       -0.87039256      20.36585617      16.95344353
H       -1.70318472      23.34218407      20.26467514
H        2.25626516      22.10412216      20.19051743
H        3.11693120      19.08900642      16.70417786
H       -3.78344750      20.94416046      21.93235588
H        1.84722662      23.57518196      14.90225792
H        5.85956287      21.24136543      15.07287121
H        0.20189400      19.09826279      21.99855614
H        5.30939341      21.93113708      17.25416756
H        0.36071655      19.65099335      19.61937904
H       -3.16410637      20.18484497      19.67170143
H        1.41738987      23.02108192      17.18066406
C       -6.06232071      19.01884842      24.53307915
C       -5.25207281      21.86615181      27.12338066
C       -0.80214423      24.57471848      27.10441780
C       -2.05964184      21.23883247      24.68330383
C       -5.15810823      19.69320869      23.78843117
C       -6.02842712      22.64612579      27.99381828
C       -1.29359770      23.48639107      27.72751045
C       -1.28232670      20.52401733      23.85666656
C       -4.99466181      19.32015419      22.40084457
C       12.48933125      22.13336372       0.67141074
C       16.80644989      23.62840462       0.46778572
C       -1.08851862      20.84859467      22.50291061
C        9.74070168      19.82276917       0.33186379
C       -2.04314399      22.90629768      22.93074226
C        1.79329979      22.52742577      22.79789925
C       13.86125469      20.13050270       0.31552929
C        1.29742372      23.05407333      23.98631287
C       -4.69519138      20.63714790      27.59285355
C       -8.80205250      19.40649796      27.51034355
C       -2.37861252      22.53534889      24.20105171
H       -6.31150007      19.33693886      25.47617149
H       -5.00936937      22.30509377      26.13891983
H       -0.22664909      24.37985611      26.16664124
H       -2.31788206      20.98139191      25.73741150
H       -4.63607597      20.49306488      24.21365738
H       -6.41856050      23.60890198      27.67092133
H       -1.09721065      22.45709038      27.40402985
H       -0.80340767      19.56936073      24.22983170
H        9.90180302      20.81571007       0.82185787
H       -2.47630954      23.91818047      22.70163345
H        1.43447733      21.58160591      22.31758690
H       14.16729259      19.20212746       0.73447651
H        0.66756201      22.59222031      24.79057693
H       -4.00884962      20.04782486      26.95086670
H       -8.41117477      20.04176903      26.78552055
H       -2.90569401      23.28738022      24.84758949
C       15.49251747      23.96685219       2.93569183
C       15.22474384      26.99126053       4.58834314
C       21.10049057       1.61287594       5.81970882
C       20.05238914      26.98673630       2.34172487
C       15.98068810      25.00838852       2.18024039
C       14.64957809      26.79240036       5.82148027
C       20.09105301       0.92964667       6.38589191
C       20.83052063      26.26636505       1.49571371
C       16.63803482      24.90872765       0.99882191
C       15.18951797      26.07957268       6.91488314
C       19.57642937       1.29307055       7.61983967
C       21.34438133      26.74303436       0.22589883
C       11.43702316      25.13586998       7.12779999
C       20.07129860      28.77891350       0.69286627
C       22.99338150      58.83441544       1.05276346
C       17.23181534      25.83518982       5.43866920
C       22.83242989       0.05657401       2.42411041
C       16.62215996      26.59719467       4.47290325
C       12.08022308      24.65903664       6.02397108
C       19.66487122      28.31931305       1.90189540
H       14.95402813      24.11848450       3.85869980
H       14.51471519      27.31875610       3.81614780
H       21.51884651       1.23875761       4.83803892
H       19.72440529      26.73329926       3.36390448
H       15.83171177      26.03535843       2.43394780
H       13.64194298      27.09386635       5.96627235
H       19.78466415       0.01584754       5.92752552
H       21.23899651      25.38871765       1.91592097
H       11.43522549      26.15507317       7.29744816
H       19.77966309      29.64645958       0.15717304
H       22.30620766      58.43803024       0.40832877
H       18.24965286      25.53058052       5.31389856
H       22.03612328      58.34291077       2.93536854
H       17.15315628      26.79843712       3.55473852
H       12.53170300      25.18706322       5.21696663
H       19.05467987      28.90356064       2.51857686
C       10.71353340      24.11347389      10.56258488
C       11.27430534      26.93844032      12.85043430
C       15.42096424       2.13833904      12.38203621
C       16.60343552      24.96584511       9.04976749
C       10.87574959      24.90262413       9.44325638
C       10.39834690      27.59813309      13.65655136
C       14.47527218       1.50578403      13.17322254
C       17.20811653      24.99701691       7.81986618
C       11.22385216      24.25869179       8.24761486
C       10.34581757      27.30363274      15.07928276
C       14.37659645       1.74906373      14.55296326
C       16.51787949      25.59583664       6.71056271
C        8.08368969      25.19080544      14.28581619
C       14.53681946      25.84254265       8.17112923
C       18.55162811       0.48947328       8.22149658
C       12.19831276      25.62704086      14.73766136
C       18.28928757       0.77122217       9.53706265
C       12.13402557      25.92361259      13.33275604
C        8.25163841      24.89167023      12.97760105
C       15.25400734      25.28754234       9.18090248
H       10.60919762      24.55317116      11.50605011
H       11.31681728      27.18173027      11.77037716
H       15.50015068       1.81874645      11.36426926
H       17.24266815      24.61797714       9.87872982
H       10.72515106      25.97479057       9.47567558
H        9.65328693      28.24772453      13.30149651
H       13.84624863       0.79383630      12.62213230
H       18.20149803      24.46239281       7.74856329
H        8.57910347      26.07696915      14.68766212
H       13.50198364      26.02387047       8.27431393
H       18.00053597      58.82513046       7.62666130
H       12.67766953      24.72661972      15.05957413
H       17.78259850       0.03779796      10.09583187
H       12.81390285      25.29216385      12.70079613
H        8.50799465      25.70532989      12.34152794
H       14.76869106      25.08336258      10.15416336
C        6.25115395      23.84354401      17.18607140
C        7.31315041      26.19054794      19.70884132
C       11.00168705       2.44498539      19.74438858
C       10.22123337      26.90164757      17.74985695
C        7.07684803      24.59068871      16.47937393
C        6.58000898      27.11210060      20.40155983
C        9.97457504       2.02819180      20.44439125
C       11.13751984      26.18209839      17.00049973
C        7.38613272      24.22993088      15.11200809
C        6.60425186      27.18036079      21.81368065
C        9.85054588       2.42973423      21.77756500
C       11.23444939      26.33865356      15.60707283
C        3.68864512      25.55302238      21.51629066
C        9.45630074      28.01575851      15.89254284
C       13.45828056       1.04647326      15.32001209
C        7.85959101      25.13609123      21.73435211
C       13.20416641       1.39261472      16.56311035
C        8.05426788      25.22831726      20.36832428
C        4.01287746      25.16173744      20.24714470
C        9.52155972      27.97525024      17.23757362
H        6.05812359      24.04924774      18.24102020
H        6.97080660      26.00856781      18.68169975
H       10.92360687       2.11907530      18.71570969
H       10.20842743      26.70809364      18.73964310
H        7.42503452      25.57239723      16.90783119
H        5.97006273      27.87660408      19.85345650
H        9.17429829       1.39547598      20.04461479
H       11.82787895      25.52391815      17.43874931
H        3.98894429      26.42683792      22.16942787
H        8.88486671      28.73778725      15.35496902
H       12.90639973       0.25918299      14.75953960
H        8.31637955      24.28334999      22.21798897
H       12.44050121       0.88062441      17.06704903
H        8.69052792      24.53541183      19.86891365
H        4.44954634      25.86411476      19.50758362
H        8.85378361      28.58214760      17.80477333
C        1.85988188      24.32031059      24.44548416
C        3.35373807      27.73916817      26.30375099
C        5.71717358       1.45382822      26.51848793
C        6.67636824      27.21792412      24.61410141
C        2.75406623      25.08399582      23.67873573
C        2.61450005      28.52088547      27.10253143
C        4.95307398       0.70085412      27.25795364
C        7.15713453      26.19534683      23.93036270
C        2.89972377      24.64795685      22.33856583
C        2.15976620      28.08587646      28.37161446
C       23.79287148       0.62463099       0.21299869
C        7.25273228      26.16335106      22.53424072
C       17.21459770      26.04566956       0.39861295
C        5.91405296      28.19231033      22.54297447
C        8.76682186       1.96514595      22.56938553
C        3.29981422      25.90542603      27.91415024
C        8.65812111       2.32064176      23.84522247
C        3.75853610      26.42306519      26.69965935
C       -0.87553024      25.84262085      27.76177216
C        5.86103868      28.11208916      23.90292549
H        1.43761027      24.76475906      25.40014648
H        3.92897511      28.14088249      25.50482941
H        5.51549244       1.49825025      25.47817802
H        6.78850174      27.28606224      25.72779083
H        2.97941232      26.13796043      23.96666336
H        2.35136056      29.45879555      26.60393906
H        4.08466434       0.27878428      26.82403946
H        7.75515842      25.54422760      24.47774696
H       17.11753082      27.04472733       0.82893187
H        5.48682737      29.00063133      21.91035843
H        8.01848507       1.37547600      22.02188873
H        3.53392720      24.90959549      28.23170662
H        7.65987587       2.11260390      24.26990700
H        4.40381002      25.99459648      25.94317245
H       -0.44055519      26.76671791      27.34963608
H        5.32309914      28.93817139      24.41451454
C       15.82711411       2.51278090       2.94511795
C       16.72524834       5.29750967       5.48919773
C       21.11106491       7.04961920       5.69175959
C       20.30203247       4.44189405       3.26089644
C       16.77361679       3.15130544       2.19640231
C       15.83724785       5.95897341       6.27981234
C       20.25712395       6.30372572       6.45939493
C       20.99851036       3.69066429       2.39399409
C       17.09023094       2.70578051       0.91132301
C       15.72770309       5.59065199       7.59940910
C       19.96580887       6.70554590       7.79051256
C       21.18287468       4.14229631       1.03590417
C       13.20362663       3.70816040       7.42874527
C       19.92102814       6.09531736       1.56823099
C       23.84774971       5.93388462       1.09693146
C       17.18196678       3.69240737       7.22775078
C       23.54779816       6.44789648       2.31784725
C       17.39933014       4.15830898       5.96399450
C       13.44999504       3.57651782       6.08876753
C       19.84836006       5.69671488       2.85068631
H       15.49519444       3.00478077       3.83196568
H       16.92541504       5.75796175       4.54814053
H       21.43437767       6.58658218       4.74910831
H       20.10267639       4.00007248       4.22301817
H       17.16232681       4.11156034       2.39196920
H       15.32312775       6.87388992       5.90160275
H       20.01461792       5.25367689       6.16185474
H       21.39302444       2.62110639       2.67009449
H       13.44068336       4.63064241       7.97278500
H       19.46930885       7.04940510       1.40922427
H       23.38101006       5.06808186       0.63817132
H       17.53835869       2.67575932       7.51083040
H       22.94170189       5.90396643       2.98240089
H       18.02138901       3.59699702       5.27317429
H       13.86451054       4.38506889       5.54287434
H       19.62010193       6.44496441       3.60956216
C       11.95619392       1.43745625      10.15722466
C       12.07468224       5.34970093      12.45731640
C       16.34768867       7.31341887      12.60546207
C       15.24852562       4.57405949      10.09630966
C       12.45736408       2.48657107       9.47821712
C       11.37705517       6.02637863      13.38677216
C       15.40998650       6.63371277      13.30350304
C       16.06206322       3.88779664       9.29544067
C       12.61060333       2.64370489       8.04263687
C       10.94673061       5.39680958      14.53502560
C       15.05421066       7.02360439      14.63945293
C       16.33047676       4.38948679       8.05621243
C        8.22966003       4.15561008      13.65260792
C       14.99785614       6.41066456       8.49739742
C       19.32624245       5.90399027       8.74892139
C       11.91197777       3.35963225      13.72650909
C       18.99563599       6.43532515      10.01017952
C       12.34430599       3.97418404      12.61143112
C        9.05464268       3.82221889      12.53969860
C       14.71665287       5.84261799       9.72876740
H       11.90657330       1.54834485      11.24315071
H       12.64186192       5.89363766      11.71038818
H       16.72029686       7.01407766      11.68664551
H       15.09275436       4.25559998      11.04673767
H       12.59829426       3.38023877      10.10825634
H       11.15178680       7.08137274      13.32044792
H       15.27227020       5.53374434      13.01535320
H       16.53417397       2.90914607       9.70223331
H        8.41951180       5.10970926      14.12607479
H       14.73485756       7.44114542       8.25363636
H       19.08572388       4.89735556       8.51699448
H       12.00854874       2.34940171      14.00196743
H       18.41378784       5.87333059      10.74234104
H       13.15244198       3.47275162      12.03563404
H        9.49188519       4.68761635      12.03897572
H       13.98687744       6.38897038      10.37389851
C        6.53882980       2.32702112      16.37590408
C        7.54699135       4.84207678      19.35577393
C       11.56791878       6.92229986      19.72867203
C        9.98471069       4.20068598      16.85294533
C        7.11953592       3.29855251      15.67988110
C        7.10997200       5.66715622      20.31733513
C       10.66321278       6.33980942      20.61163139
C       10.66387367       3.40567780      15.93657589
C        7.65886450       3.12288737      14.37067699
C        6.36348438       5.07912683      21.43880844
C       10.36936188       6.93606806      21.80508232
C       11.21683502       4.07325220      14.73284626
C        2.75520611       2.90889025      21.76627159
C       10.18817902       6.15187502      15.53957558
C       14.25286293       6.15150070      15.42546749
C        6.60934210       2.85390043      20.45052528
C       13.93243122       6.44323397      16.68388176
C        7.25016069       3.40760636      19.44784927
C        3.01098609       2.43328857      20.53706360
C        9.78030491       5.57781267      16.65081787
H        6.02500534       2.57304764      17.29728508
H        8.09928608       5.08534241      18.47573280
H       11.79690456       6.53301907      18.73012352
H        9.43577671       3.77829432      17.72727966
H        7.20616007       4.33566284      16.12599945
H        7.23696375       6.78435278      20.36723328
H       10.14280033       5.35424757      20.33438492
H       10.89096165       2.39802384      16.15513420
H        2.88261676       3.88261414      22.12997627
H       10.02507019       7.19034767      15.46226406
H       13.89391518       5.18062019      14.94156265
H        6.46328354       1.84859204      20.56296349
H       13.24229813       5.77336168      17.17269516
H        7.64873505       2.70558166      18.71399689
H        3.24125552       3.07794356      19.66661453
H        9.16078377       6.09669304      17.32864761
C        2.08282781       1.31422865      25.16570473
C        2.38257766       4.99833965      26.81656265
C        6.71879148       7.24504709      26.49092674
C        5.20714521       3.90632462      23.72860718
C        2.22453260       2.29902434      24.20901299
C        1.76593351       5.76287031      27.77727890
C        6.08505964       6.37166739      27.30290413
C        5.72018480       3.13748574      22.75807381
C        2.53895950       1.95909643      22.84954453
C       20.61245728       5.42305946       0.64326489
C       24.51364899       6.81137180       0.16445394
C        6.20600748       3.67488146      21.55983734
C       17.87230492       3.49524379       0.04860826
C        5.88816690       5.85747719      22.46712685
C        9.55838108       6.12681007      22.62901115
C       21.72869110       3.37003231       0.00840432
C        9.40126324       6.52696466      23.88879585
C        3.02930856       3.81762838      27.27500343
C       -0.60021073       3.01812959      27.35551262
C        5.35075426       5.30107164      23.67290115
H        2.10300517       1.70830882      26.17765236
H        2.41265845       5.31010246      25.73687553
H        7.11660099       7.02846193      25.49241638
H        4.88547421       3.43156338      24.66159630
H        2.12132216       3.37956643      24.49589539
H        1.19067526       6.64485025      27.55845451
H        5.78374863       5.35088348      27.06543922
H        5.78053331       2.06932497      22.80685997
H       18.08551407       4.56038761       0.35982284
H        5.84014559       6.89751768      22.40500450
H        9.16310406       5.24426794      22.24923325
H       22.21824455       2.45102835       0.37519670
H        8.71124268       5.91151333      24.54936600
H        3.45991611       3.17790961      26.50628853
H       -0.13511291       3.71538639      26.60360527
H        4.89975071       6.02803516      24.30941200
C       15.69769478       7.39156675       3.06814766
C       16.74864006      10.38242531       5.63046026
C       20.72862053      12.71805382       5.59089661
C       20.29359627      10.20304966       3.28517485
C       16.38118553       8.34093285       2.37049460
C       15.96640968      11.11561108       6.48444462
C       20.12573242      11.84531307       6.41587067
C       21.01262283       9.44183064       2.46846056
C       16.76878548       8.04658890       1.04019761
C       15.77533340      10.69008064       7.76730919
C       19.77524948      12.21339130       7.76841545
C       20.98412323       9.67152214       1.00243008
C       12.96124744       8.88846779       7.76072168
C       19.44523811      11.48801041       1.43849611
C       23.70322800      11.66703892       0.82218552
C       17.26682663       8.75125885       7.33878469
C       23.24951553      12.10560894       2.13096404
C       17.32872200       9.13100243       6.02861786
C       13.42653561       8.75806236       6.46927357
C       19.38865471      11.22196674       2.74594092
H       15.37299824       7.52500868       4.09514952
H       16.91236114      10.91568565       4.67816114
H       21.05271339      12.55903149       4.59923077
H       20.42208290      10.02510166       4.37292433
H       16.64901161       9.31481743       2.61328483
H       15.57015514      12.14390183       6.01445627
H       19.85151863      10.79795742       6.15208673
H       21.75781441       8.72520924       2.79668021
H       13.38809872       9.56537628       8.39228725
H       19.07514572      12.45635033       1.10483801
H       23.10799789      10.82732677       0.35296440
H       17.66909409       7.78508043       7.75345421
H       22.72018814      11.46672916       2.73842931
H       17.79705238       8.44654655       5.31835461
H       14.10744476       9.61942863       6.06819963
H       18.70168114      11.81747150       3.48708010
C       10.48344421       7.11942863       9.96955013
C       12.03052807      10.36775780      12.69423485
C       16.37912750      12.92473602      12.55635262
C       15.53845215       9.89483547      10.42702961
C       11.37927818       8.02132511       9.52623177
C       11.38858128      11.22801876      13.64778614
C       15.64037800      12.08706284      13.28220844
C       16.29739571       9.09950447       9.51599884
C       11.94815063       7.96949053       8.13343430
C       11.26770592      10.83671951      14.96680355
C       15.18010807      12.37491703      14.61913967
C       16.44949722       9.55064487       8.17940331
C        8.48786736       8.74826050      14.23678493
C       15.05545807      11.50422001       8.72608376
C       18.94879723      11.41701508       8.58217430
C       12.15605927       8.66383457      14.33618450
C       18.70568275      11.76823330       9.88959694
C       12.41228485       9.08099651      13.08183193
C        8.55862331       8.38602161      12.90305614
C       14.92163372      11.10068989      10.01684475
H       10.04572487       7.18516397      10.93460941
H       12.33460617      10.59919834      11.67016602
H       16.89279938      12.75975227      11.65302658
H       15.57671738       9.47740364      11.41623974
H       11.60439014       8.82232189      10.23159885
H       11.03466225      12.19924831      13.37899685
H       15.56583500      10.97422028      12.93974876
H       16.74785995       8.19664192       9.91889668
H        9.24868870       9.28226948      14.72431087
H       14.77861500      12.42682552       8.23525810
H       18.72612381      10.40326786       8.29385853
H       12.47506618       7.68133259      14.66700649
H       18.28041458      11.00635433      10.51108265
H       12.87539291       8.36918449      12.38225937
H        9.24514961       8.76750469      12.09069920
H       14.38929367      11.82989979      10.75477028
C        7.12007141       7.59621525      17.45090485
C        7.83420324      10.14810848      19.69277191
C       11.48849583      13.28537083      19.90224075
C       10.93308067      10.22290707      17.58628845
C        7.87374926       8.38770580      16.60223961
C        7.02296829      11.07510185      20.38479233
C       10.89564514      12.32804012      20.64952278
C       11.49655914       9.24260807      16.78684044
C        7.64548540       8.17589855      15.17061996
C        6.70206022      10.86010075      21.76686668
C       10.59665680      12.58083344      22.01852226
C       11.75225735       9.57399750      15.40999603
C        3.81831431       8.36674690      21.32224464
C       10.54166222      11.63940620      15.80551052
C       14.49917984      11.42612457      15.39573956
C        8.01796627       8.81761169      21.60980415
C       14.04732132      11.88419914      16.63860703
C        8.31860733       9.00180435      20.33556938
C        4.10252142       7.66644955      20.18049049
C       10.36337566      11.42692280      17.13361931
H        7.08735228       8.02793121      18.53659439
H        7.98462248      10.26655865      18.61655045
H       11.68382549      13.10123920      18.83614540
H       11.01012325       9.87177849      18.62446594
H        8.66914845       9.07822704      16.92409706
H        6.77459574      12.06036949      20.02190018
H       10.52958202      11.48331547      20.11692429
H       11.88634110       8.35003662      17.24534988
H        4.20333195       9.44741249      21.35546112
H       10.02380180      12.50626373      15.31248188
H       14.28060627      10.37117004      14.98812199
H        8.50333309       7.95572805      22.04314613
H       13.34572792      11.16604805      17.28983688
H        8.99875545       8.28209019      19.91744041
H        4.79645729       8.09259319      19.38028145
H        9.76545906      12.11350441      17.75516319
C        1.67247522       7.72035646      24.44408607
C        2.42503452      10.48622990      26.89784813
C        6.47650766      13.19268036      26.42785072
C        5.78131485      10.12950039      24.24476051
C        2.60770369       8.27150154      23.60943604
C        1.60830104      11.18721485      27.73618889
C        5.78711939      12.29793930      27.18534851
C        6.76316929       9.36560154      23.66413498
C        2.93525243       7.73818111      22.34245491
C       20.25683594      10.76575565       0.53663218
C       24.48371696      12.58121490       0.06271227
C        7.21023464       9.68399143      22.40523148
C       17.45977783       9.03470421       0.30416447
C        5.71456862      11.69668102      22.36177254
C        9.67115211      11.78820801      22.74358559
C       21.74394035       8.95392609       0.10175236
C        9.30975342      12.20664597      24.00176239
C        3.06619954       9.35141850      27.29944038
C       -0.91985518       8.76517105      27.57759476
C        5.26966476      11.33167362      23.55830956
H        1.39945781       8.15916252      25.35182190
H        2.72904730      10.90204906      25.95453644
H        6.49909544      12.96725082      25.31056404
H        5.54497576       9.96474266      25.25484657
H        3.07204962       9.24976254      23.80135536
H        1.08718407      12.10917377      27.50010300
H        5.44290924      11.51365185      26.58399963
H        7.23170185       8.40854359      24.05589867
H       17.92287254      10.06095505       0.61131418
H        5.61442423      12.76036263      22.01373291
H        9.21825123      10.91228294      22.18520546
H       22.03647041       8.00422192       0.29992488
H        8.82727909      11.49170971      24.68956947
H        3.75324368       8.78970718      26.61157608
H       -0.48439077       9.58210087      27.10080719
H        4.51989937      11.95726299      24.03164673
C       15.84673119      13.24667072       3.37185097
C       17.19134140      15.95969963       5.77689934
C       20.98407745      18.43928146       5.46936893
C       19.91917801      15.65245056       2.96108627
C       16.62727356      14.02983475       2.47805643
C       16.37358093      16.76268578       6.53720760
C       20.15165138      17.61446381       6.14577389
C       20.57651520      14.80714417       2.05724692
C       16.92692947      13.67343616       1.19056892
C       15.86043835      16.20472717       7.75436306
C       19.76120567      17.80975533       7.49465179
C       20.87864113      15.36141968       0.79436594
C       13.05353737      14.39397526       7.65878725
C       19.95253372      17.49790001       1.42864346
C       23.76939201      17.27384758       1.20340621
C       17.11936188      14.16305828       7.40816307
C       23.25210762      17.49592400       2.41071558
C       17.51839256      14.63018990       6.21429253
C       13.42226887      14.00357723       6.38816833
C       19.67855835      16.99516678       2.66347575
H       15.33882141      13.62399769       4.26030016
H       17.48366928      16.46475410       4.85849047
H       21.01769638      18.26503563       4.37114573
H       19.46566582      15.23414993       3.96640277
H       16.98077583      14.98542213       2.83920193
H       16.02960587      17.71511078       6.20430946
H       19.71651077      16.75767136       5.59374475
H       20.86451340      13.75878334       2.20066905
H       13.29798508      15.29266548       8.14219379
H       19.72596931      18.54774094       1.25213778
H       23.30580711      16.48069572       0.65835118
H       17.45980835      13.22189522       7.73695898
H       22.56304741      16.72456360       2.76418829
H       18.20356941      14.01163864       5.63947725
H       14.12958241      14.68228149       5.95344782
H       19.08459091      17.44575310       3.47880077
C       10.88744354      12.86748219      10.33848953
C       11.96268558      15.63691998      12.87190151
C       15.99503517      18.40575790      12.82199001
C       15.06013012      15.30049896      10.28877544
C       11.69338417      13.80781269       9.70092010
C       11.21990299      16.53033257      13.66193390
C       15.17636395      17.70434761      13.59144497
C       15.84021568      14.49960709       9.51086998
C       12.11398506      13.62317371       8.40132427
C       11.12078285      16.42125702      15.05280209
C       14.88470078      18.07055092      14.89995766
C       16.35470581      14.99429321       8.24973202
C        8.18410397      14.14667320      14.44311142
C       15.02547646      17.02871323       8.57395554
C       18.90937996      16.95308113       8.23613930
C       12.35654926      14.28596973      14.75226402
C       18.65368843      17.25171661       9.54528522
C       12.59787846      14.55765152      13.46440315
C        8.28160667      13.56071854      13.23368835
C       14.61225319      16.66324806       9.81276226
H       10.69670868      13.12904930      11.42499924
H       12.11644745      15.95133972      11.81442356
H       16.19107056      17.93683052      11.82283020
H       14.55960655      14.94384384      11.12414455
H       12.04914856      14.64653683      10.21062946
H       10.75900173      17.41284943      13.27089310
H       14.69349766      16.82074165      13.17556095
H       15.89672375      13.44193649       9.64569378
H        8.41880894      15.13293266      14.81072044
H       14.60091400      17.86696053       8.05571556
H       18.53424454      16.05194473       7.74174595
H       12.78125286      13.39468288      15.21874905
H       18.13449097      16.53637886      10.09601974
H       13.20781422      13.93375778      12.81180096
H        8.55054283      14.20154858      12.41264725
H       13.97824383      17.23553085      10.50683498
C        6.35924482      13.16709232      17.61393738
C        7.93175030      15.81953144      19.82474709
C       11.96947575      18.57253265      20.04576874
C       10.84925747      15.93775463      17.75026703
C        7.16044807      13.83907700      16.70809746
C        7.02073479      16.64212036      20.35260963
C       11.02114010      17.93261147      20.75115776
C       11.41231918      14.98692608      17.00461960
C        7.50433874      13.34284019      15.44053364
C        6.50937462      16.44863701      21.72295380
C       10.71217251      18.17633057      22.03676033
C       11.58768940      15.18932152      15.59239197
C        3.57298565      14.40169621      21.84053802
C       10.58046532      17.48298836      15.93597507
C       14.16656494      17.20620346      15.78994751
C        7.49957085      14.23532009      21.63509941
C       14.13507271      17.56233597      17.14692307
C        8.12022686      14.54736614      20.45944786
C        3.70974755      14.08902550      20.50408173
C       10.52077389      17.23781776      17.28265572
H        5.79819489      13.63698292      18.51396751
H        8.54857349      16.01276970      19.00940895
H       12.07828999      18.27704430      18.95733833
H       10.82039070      15.86263275      18.87855911
H        7.47160864      14.88458920      16.78926468
H        6.79561377      17.56287766      19.76276207
H       10.56052876      17.00165367      20.34995270
H       11.86281967      14.07979870      17.43550682
H        3.90944767      15.33242130      22.23381615
H       10.39998627      18.44045639      15.48242950
H       13.64002037      16.36293793      15.43273163
H        7.58374882      13.32236385      22.14198112
H       13.78660679      16.84459114      17.84866905
H        8.70339584      13.82240582      19.94133949
H        4.26117373      14.84128761      19.87929153
H       10.20150185      18.01992989      17.99744415
C        1.74077475      12.82400894      24.65190315
C        2.96418190      16.48532867      26.84452438
C        6.77403784      19.31144142      27.02190781
C        5.56844234      15.80865955      24.26706886
C        2.41589880      13.74109650      23.94436073
C        2.23779368      17.24826622      27.77954864
C        6.11544037      18.26641655      27.62847137
C        6.39026356      14.89054012      23.63582230
C        2.78555822      13.51497555      22.59295082
C       20.57765961      16.70983124       0.47292677
C       24.51138496      18.26714706       0.48789600
C        6.73689175      15.18613625      22.36205101
C       17.79143333      14.60556602       0.44053945
C        5.58882618      17.35674286      22.39826965
C        9.88846683      17.34098053      22.84937859
C        2.85808325      14.66027355      28.36980248
C        9.61267376      17.55295753      24.11213493
C        3.21859765      15.14720345      27.17038345
C       -0.72588187      14.32669258      27.63799286
C        5.18910503      17.02998543      23.69109726
H        1.58322430      12.88018513      25.75189972
H        3.27267551      16.77417374      25.87729263
H        7.06755352      19.17477798      25.99002457
H        5.29431629      15.72165585      25.31226730
H        2.85616159      14.56132889      24.47866249
H        1.92505515      18.25293541      27.52921867
H        5.73182583      17.51342201      26.99309349
H        6.59772062      13.93010330      24.11284447
H       18.19285965      15.49209690       0.98700094
H        5.29379940      18.28193474      21.98180389
H        9.52716637      16.42397690      22.24394226
H       21.76087761      13.61248302       0.20298921
H        9.01556396      16.90309715      24.67631340
H        3.67535782      14.40875340      26.52001381
H        0.05430604      14.82657528      27.21252060
H        4.69759607      17.83670616      24.25943375
C       15.91588116      18.57650566       3.13504362
C       16.70167160      21.30651283       5.47616100
C       21.11510849      23.95999527       5.55369472
C       19.96973991      21.46213531       3.01856065
C       16.80229759      19.39480400       2.47507977
C       15.79655838      22.00639725       6.18336630
C       20.36814880      23.03912926       6.24828672
C       20.70016289      20.64728546       2.22490859
C       17.27256393      18.99738121       1.19584668
C       15.38391685      21.66978645       7.48491240
C       20.06317329      23.19712639       7.67217970
C       21.08771706      20.99873734       0.91317678
C       13.28199387      19.33214569       7.33019304
C       19.96540451      23.09279060       1.27900910
C       23.78057861      22.82730484       2.11464071
C       16.94680214      19.68894386       7.21067572
C       23.62597847      23.17571449       3.41593528
C       17.33180618      20.16330338       6.00267124
C       13.79533386      19.10090637       6.11552000
C       19.57513237      22.70467949       2.58039165
H       15.60910320      19.01347351       4.10664797
H       17.03724289      21.77021980       4.57139969
H       21.21219444      23.87032127       4.50147629
H       19.54041672      21.05766106       4.08246279
H       17.10368919      20.30092430       2.89657307
H       15.49043465      22.98142815       5.73492527
H       19.69055367      22.34936333       5.68146229
H       20.99621201      19.75047874       2.71124983
H       13.79049206      20.07125092       7.87748623
H       19.57733154      23.97947121       0.86815751
H       23.08606148      22.10428429       1.71900070
H       17.40792656      18.90956879       7.75919056
H       23.07280922      22.47528076       4.05139875
H       18.28864098      19.87038231       5.63515806
H       14.49281120      19.82884789       5.88552332
H       18.91824913      23.34453392       3.12739253
C       11.09705257      18.08195877      10.08791924
C       12.34519863      21.59788322      12.92006588
C       15.53723431      24.03969955      12.74854088
C       15.26090527      20.99719048      10.11441994
C       11.94033337      18.91387749       9.43557549
C       11.61788273      22.51734734      13.65936756
C       15.06791687      23.08197784      13.59989071
C       15.91945171      20.14055634       9.32999325
C       12.42480564      18.57210922       8.11123276
C       11.20342731      22.15399551      14.94545078
C       14.84794235      23.41222572      15.00528812
C       16.00235558      20.47149467       7.96767712
C        8.32269669      19.91064262      14.31395626
C       14.55390930      22.39452934       8.37822056
C       19.13957405      22.40310097       8.34597111
C       12.43669701      20.04093933      14.70878029
C       18.91834259      22.64756966       9.72872734
C       12.79745483      20.38991165      13.43039989
C        8.68840599      19.56387520      13.02732086
C       14.58769608      22.12213898       9.67412758
H       10.75833225      18.47691345      11.00550270
H       12.46910667      21.81866074      11.81501293
H       15.65785599      23.78610039      11.73884106
H       15.24619198      20.90363693      11.18526649
H       12.29330349      19.80116272       9.98227310
H       11.22744751      23.41749191      13.17356968
H       14.79141426      22.04258156      13.20668697
H       16.25869751      19.17686844       9.54975319
H        8.61167240      20.88584709      14.70443726
H       14.03498173      23.14216232       7.90824127
H       18.48870659      21.63726234       7.80450535
H       12.76175499      19.06092644      15.10171986
H       18.13992310      22.05432892      10.19846630
H       13.42088985      19.71724510      12.83989716
H        9.25566483      20.24488068      12.42011070
H       14.15883064      22.81719780      10.40903664
C        6.55083656      18.57482147      17.27215195
C        7.74114466      21.02893639      19.91126442
C       11.12996578      23.55889320      19.85583687
C       10.22693348      21.26266861      17.53042603
C        7.34997129      19.39275932      16.49527931
C        7.03553724      21.99425316      20.60832787
C       10.58079147      22.63984871      20.67431831
C       11.18412304      20.54718590      16.81783485
C        7.68918371      18.96731186      15.20002174
C        6.56872845      21.71089363      21.90402031
C       10.54205227      22.95606804      22.05162621
C       11.58273411      20.86919403      15.47945023
C        3.48802304      20.03823090      21.62697411
C       10.10924816      22.80685997      15.58157444
C       14.27537251      22.66282654      15.98722076
C        7.57118368      19.48718643      21.74838257
C       14.17625618      23.04008675      17.23869133
C        8.11314487      19.88501358      20.54902458
C        3.87944412      19.71539497      20.43827820
C        9.62541389      22.35360146      16.79199409
H        6.25716257      18.73364639      18.22142601
H        8.09045506      21.26554108      18.93389893
H       11.39911079      23.28565598      18.84933662
H        9.92478371      21.19776535      18.58402634
H        7.73208809      20.37328148      16.83905411
H        6.77915239      23.00243378      20.22008133
H       10.25290394      21.61800194      20.35004807
H       11.72153854      19.62345314      17.18261719
H        3.95209050      20.87702370      22.12932205
H        9.71221542      23.77473831      15.11988640
H       13.78146744      21.68446732      15.76640701
H        7.84787464      18.47415733      22.10782051
H       13.63366127      22.39774513      17.92832565
H        8.74370575      19.11112785      20.01416969
H        4.51775646      20.38920784      19.98473930
H        8.80025482      22.81593704      17.28432083
C        1.83505678      18.50254250      24.62784576
C        2.69361615      21.72080040      26.72451782
C        6.48290873      24.19788933      27.53374481
C        5.44449043      21.03557205      24.48096085
C        2.55434370      19.29638672      23.83939171
C        2.04234719      22.53639603      27.54331589
C        5.75574780      23.41305923      28.34897041
C        6.28973913      20.18302155      23.71581459
C        2.69384170      19.15514374      22.40451622
C       20.67012596      22.22024727       0.44275886
C       24.59981537      23.63838005       1.21185136
C        6.72590160      20.44177437      22.38605118
C       18.00885582      19.92020988       0.31748369
C        5.67275143      22.56500626      22.61296654
C       10.01404953      22.01758003      22.90805244
C       21.74317932      20.13022041       0.06433266
C        9.57909966      22.28040504      24.11670685
C        3.21520567      20.50769234      27.27960587
C       -0.70181775      19.58201599      27.49233627
C        5.21086693      22.31745911      23.86172676
H        1.90392411      18.64291573      25.63841057
H        2.86612248      21.89417076      25.70524406
H        6.41786003      24.11065102      26.44314384
H        5.19914961      20.87193680      25.58413315
H        3.04135799      20.09961510      24.35455513
H        1.50155163      23.37070465      27.00319672
H        5.12719297      22.56924438      28.08067513
H        6.46764946      19.19229507      24.08604813
H       18.26088905      20.87497139       0.64740461
H        5.67356682      23.58131981      22.35410500
H        9.87915802      20.98479843      22.47530556
H       22.07501221      19.25044823       0.48793766
H        9.15522003      21.47135544      24.76141357
H        3.87067437      19.85988617      26.66582298
H       -0.19268458      20.23413086      26.84109116
H        4.70908928      23.12780952      24.33377838
C       24.12036705      24.43393707       3.92076135
C       25.90315056      27.76847076       6.20397758
C       28.58780098       1.67509007       4.85566044
C       28.59723282      26.83094025       3.49785876
C       24.87231064      25.18748283       3.11484265
C       25.28369141      28.48488617       7.23042536
C       28.21693230       0.97498238       5.96453810
C       29.23883057      25.93815231       2.71021891
C       25.15242195      24.86185265       1.69951928
C       24.62988091      27.78754997       8.29160404
C       28.34556580       1.50021231       7.29198265
C       29.40568542      26.12677574       1.29682291
C       21.66814613      24.97391891       7.63584471
C       28.18979645      28.25376701       1.63123155
C       30.91038132       0.80489713       1.08840144
C       25.46615982      25.62013817       7.38479662
C       30.74210358       0.87469947       2.40854979
C       25.81399155      26.30022430       6.25182056
C       21.86222267      25.07756615       6.30053091
C       28.14219093      28.04962349       2.95332217
H       24.34877014      24.57282639       4.98377800
H       26.37076569      28.33782578       5.42422581
H       28.44517708       1.37773693       3.83329368
H       28.39645958      26.63500595       4.55055571
H       25.42588806      26.06916809       3.48248172
H       25.38211441      29.54123688       7.50835991
H       27.87058449      58.88566971       5.86641979
H       29.56196976      24.99973106       3.16701865
H       22.31625175      25.53398514       8.31860256
H       27.89985847      29.22583389       1.18274260
H       30.20700645       0.10422343       0.57587421
H       25.42644882      24.52467918       7.32286024
H       29.90668869       0.28707632       2.88703966
H       26.49809456      25.74038506       5.56682587
H       22.64938354      25.67774963       5.74024725
H       27.64003944      28.79563522       3.60338497
C       19.67382622      23.53749657      10.43503094
C       20.70332718      26.72891426      12.88284683
C       24.35390282       1.51548350      12.25874424
C       23.73179054      26.53374481      10.54139328
C       20.58954811      24.30035591       9.76471233
C       19.99835777      27.57148552      13.66953659
C       24.58969498       0.40052348      12.99940300
C       24.45923805      25.79329872       9.66605282
C       20.75197220      24.13563919       8.36367798
C       19.41960907      27.12437820      14.86375809
C       24.77555084       0.35139772      14.39331436
C       24.93184853      26.41161919       8.39894485
C       15.93194866      25.54519653      14.45558167
C       23.81804276      28.45657539       9.26503944
C       27.67213440       0.81005007       8.35608768
C       20.74262047      25.12323189      14.67517471
C       27.55339241       1.43287647       9.55374146
C       21.13651657      25.50983047      13.44007778
C       16.05741501      25.33709908      13.14990997
C       23.27556992      27.83065605      10.32650661
H       19.75290680      23.49119377      11.51479053
H       21.09350967      27.09713173      11.90862465
H       24.06339264       1.53848231      11.20814419
H       23.33172798      25.93446159      11.46418190
H       21.18024063      25.05278587      10.24963188
H       19.54723167      28.48775864      13.35108662
H       24.77121353      58.37583923      12.47848320
H       24.47595787      24.73067856       9.88263321
H       16.19400978      26.51910973      14.83844185
H       23.70549393      29.55269051       9.26684666
H       27.25005913      58.72154236       8.05085468
H       21.11613464      24.20986938      15.14507103
H       27.01730728       0.91319799      10.33247662
H       21.95221138      24.89448166      12.86056137
H       16.67597389      25.90494728      12.46363354
H       22.68737602      28.37774849      11.12248325
C       14.49432564      24.35912323      17.60010529
C       15.81649017      27.08752251      19.94729996
C       19.74849701       1.85339808      19.71418381
C       18.22536278      26.13630676      17.03398705
C       15.12879467      25.19491577      16.74668121
C       14.59611702      27.54167938      20.45318604
C       19.17280769       0.88644481      20.45712280
C       19.34863663      25.55167198      16.65432167
C       15.28081703      24.72211075      15.35153103
C       14.29782677      27.36995888      21.77948189
C       18.72020340       1.14467919      21.75592613
C       19.89877319      25.93554497      15.44117832
C       11.34319305      25.20594215      21.60837364
C       18.46388817      27.95695305      15.56860161
C       24.96263695      58.12094498      15.13752365
C       16.34938240      26.08903503      21.97655869
C       24.79126930      58.13986969      16.48871613
C       16.75640488      26.49290466      20.77169609
C       11.59120750      24.79240608      20.31063843
C       17.81950378      27.38183022      16.59274292
H       14.32676220      24.61832237      18.65401077
H       16.05673790      27.19110489      18.94614792
H       19.90158653       1.69802606      18.63325119
H       17.59632301      25.59717178      17.79456711
H       15.28596497      26.26124954      16.94421577
H       13.97494316      28.07468414      19.75820351
H       19.16160202      58.83220673      19.94407272
H       19.77310753      24.61508560      16.98854637
H       11.66179371      26.14876366      22.02945328
H       18.35993004      29.01116562      15.22124958
H       25.08692932      57.20190811      14.56185627
H       17.00756836      25.31324768      22.48536110
H       24.77704048      57.18603516      17.00724602
H       17.58699608      26.04938507      20.38443184
H       12.14067554      25.51212692      19.58997345
H       16.90774155      27.87924767      16.87853622
C        9.89856720      23.52543259      24.71031380
C       10.79705048      26.56636810      26.99465370
C       14.41189957       2.09045076      27.04917336
C       13.54634857      26.49234200      24.42078972
C       10.50342751      24.48036766      23.90330887
C       10.15950394      27.35733795      27.88448334
C       13.34766293       1.39751959      27.61223984
C       14.73973083      26.08425903      23.90174484
C       10.92248821      24.19564056      22.49552536
C       28.83218384      27.29198837       0.72701210
C       31.99128151       1.45551896       0.45007956
C       15.10236645      26.48038292      22.57918930
C       25.81453323      25.70829201       0.75191164
C       13.12131023      27.82805443      22.40247345
C       18.01552773       0.07861418      22.41387558
C       30.12608719      25.23693275       0.43067190
C       17.44440460       0.30509740      23.59627151
C       11.33871460      25.43594170      27.62273216
C        7.13651562      25.35029030      27.92741776
C       12.78314018      27.29944420      23.61174011
H        9.74040413      23.78844643      25.75431252
H       10.99465847      26.77495003      25.94561195
H       14.56881332       2.03614712      25.98304176
H       13.26275253      26.23025131      25.44253922
H       10.82468891      25.46282196      24.24231911
H        9.74635792      28.25624275      27.49965858
H       12.81226158       0.78830963      26.94426155
H       15.39886856      25.42472458      24.34498978
H       26.34359360      26.53782654       1.13841724
H       12.26968193      28.36533356      21.95238113
H       17.90778351      57.99449921      21.86249924
H       30.44545746      24.29191780       0.87729508
H       16.85200310      58.33979797      24.00068283
H       12.09299374      24.80703163      27.02786827
H        7.70869541      25.97698784      27.27860641
H       11.75754356      27.55872345      23.97184753
C       23.61060715       0.96823895       3.04603887
C       24.65107346       4.31768990       5.10818768
C       28.56316566       7.62748957       4.99636459
C       27.52007866       4.64460802       2.83471942
C       24.67953873       1.64692402       2.30761123
C       24.14940834       5.27097988       5.87073898
C       27.78452683       6.70382833       5.73063612
C       28.24101639       3.93892956       1.96479857
C       24.60566521       1.58245575       0.85266638
C       23.89026260       5.02549553       7.25519991
C       27.58643913       6.81411505       7.13679790
C       28.56115532       4.38483238       0.65013802
C       21.07200432       3.20027900       7.56265831
C       27.37960052       6.37607908       1.29657161
C       31.71022987       5.92450666       1.03906286
C       24.84747696       2.85083127       6.97617579
C       31.45806885       6.18754625       2.38612270
C       25.06729317       3.10877085       5.69431543
C       21.54121590       2.83665109       6.34359932
C       27.10937691       5.97051764       2.54007506
H       23.45986366       1.07206905       4.06282759
H       24.74529839       4.53608370       4.02071524
H       28.58575249       7.55927420       3.86592817
H       27.32808113       4.17682695       3.82626152
H       25.19420624       2.46440744       2.74772024
H       23.82972145       6.30354929       5.62403393
H       27.30437851       5.82903576       5.23298311
H       28.61926270       2.96882343       2.27819514
H       21.41145325       4.17313576       7.97603846
H       26.99707794       7.26425123       0.85236561
H       31.33814621       5.16641378       0.41681972
H       25.08300018       1.91876626       7.38768482
H       30.62090874       5.57768202       2.75113463
H       25.62337685       2.37256765       5.17687798
H       22.23826599       3.43550301       5.84243155
H       26.51719475       6.53424454       3.24977732
C       18.74420738       1.96710384      10.13184643
C       19.93168640       4.52617598      12.60533428
C       24.19993591       7.56579685      12.26554203
C       23.06492424       4.35468006       9.93221664
C       19.61763191       2.74063349       9.47643089
C       19.36083603       5.54784060      13.35614395
C       23.60609627       6.50069952      12.95965099
C       23.88447380       3.45053673       9.20523357
C       20.06797600       2.48464775       8.18055344
C       19.06921005       5.31552172      14.78381443
C       23.13506126       6.64125299      14.30019569
C       24.32850838       3.78638649       7.87715054
C       16.14921761       3.41987872      14.17782211
C       23.33736229       5.97952652       8.06435871
C       26.92214012       5.80897522       7.88731909
C       20.40515327       3.37286925      14.62911701
C       26.49854088       6.06715870       9.12442780
C       20.49771309       3.43307090      13.27052879
C       16.22760773       3.10500813      12.86656570
C       22.89060593       5.59406757       9.32789040
H       18.40020752       2.00124335      11.15350533
H       20.04982567       4.55565119      11.49177933
H       24.50383186       7.45457745      11.22090817
H       22.61948967       4.15553474      10.92996120
H       20.06503868       3.53865099      10.01865005
H       19.21349716       6.52712488      13.02739811
H       23.49612045       5.54500437      12.52593613
H       24.14224052       2.45711756       9.51826477
H       16.74448013       4.32193804      14.56822205
H       23.13386154       7.03853083       7.73729229
H       26.47488594       5.02837372       7.30189371
H       20.90621758       2.57441711      15.12154579
H       25.79657364       5.33056402       9.48052692
H       20.97119904       2.64100504      12.67153645
H       16.90567207       3.67186403      12.21226883
H       22.17653656       6.24045610       9.72634602
C       14.12044525       2.27932882      17.24507713
C       15.43178749       4.92071676      19.83776283
C       19.47200775       7.22178268      19.66955185
C       18.58149719       4.82308340      17.41340256
C       15.19830704       2.92174172      16.52014923
C       14.69227409       5.66548061      20.77229691
C       18.76340485       6.39997578      20.46897507
C       19.53968430       4.13507366      16.78857613
C       15.31413364       2.73960996      15.11490059
C       14.58232117       5.26481438      22.18107033
C       18.40789032       6.82678795      21.79747009
C       19.69408417       4.25904131      15.38943100
C       11.99052620       3.60047221      21.66252327
C       18.23446083       6.21419430      15.50396919
C       22.55631447       5.55761242      15.02455330
C       15.89251328       3.30307913      21.58041763
C       22.36937523       5.62598085      16.36693382
C       15.99240494       3.68380928      20.20231819
C       12.01539707       3.28028798      20.33766556
C       17.96272087       5.96992302      16.77980232
H       14.00153065       2.64816499      18.25261116
H       15.48098564       5.29294014      18.78862953
H       19.74498367       6.79764128      18.74130249
H       18.43173599       4.68960810      18.49944687
H       15.76901627       3.62554026      17.12458038
H       14.14692593       6.54811287      20.46719742
H       18.42556381       5.38758802      20.22106171
H       20.03828621       3.29739690      17.21490097
H       12.69857597       4.40328741      22.01944542
H       17.80108833       7.04270363      14.98696136
H       22.07670975       4.70831585      14.56486416
H       16.35462761       2.33895087      21.87350464
H       21.77080917       4.85553408      16.84294510
H       16.68700790       3.16531944      19.59901619
H       12.80049229       3.73598957      19.70394897
H       17.37584686       6.61615324      17.39121246
C        9.61266899       3.07714510      24.51457405
C       10.56413937       5.53072834      26.75866890
C       14.86687279       7.51621485      26.79749489
C       14.16675568       4.31063700      24.67516136
C       10.79807854       3.42854357      23.84702683
C        9.57679272       6.12283754      27.58409691
C       14.13817501       6.57514763      27.45921516
C       14.84536076       3.56300855      23.78024101
C       10.84937859       3.17842531      22.43621254
C       28.15035248       5.65887308       0.39101592
C       32.54980850       6.83885145       0.25223908
C       15.08576488       4.00548220      22.49017715
C       25.39393616       2.49786687       0.03498479
C       13.76757812       6.01082850      23.10774803
C       17.62698746       5.92136812      22.62184143
C       10.63163757       3.64255428      28.34959793
C       17.34521484       6.39195967      23.90262413
C       11.02755260       4.26330280      27.19400597
C        6.68598461       2.32729387      27.20812035
C       13.64117527       5.51006651      24.35976601
H        9.47939205       3.23432708      25.56868553
H       10.75230885       5.92791653      25.79222107
H       15.27539253       7.19740820      25.80737877
H       13.80796051       3.90314174      25.62310600
H       11.46612549       4.02285576      24.44919968
H        9.12215996       6.98001099      27.15655327
H       13.80675030       5.68084717      26.86905479
H       15.23165131       2.60130906      24.08840561
H       26.17652702       3.09371114       0.54789990
H       13.21022320       6.88861799      22.80126762
H       17.45574188       4.88845444      22.25691223
H       29.74095917       2.62228918       0.00249553
H       16.91255379       5.85805893      24.72531891
H       11.88964748       3.77192783      26.63283348
H        7.31569433       3.04252672      26.65731239
H       13.01388264       6.10730028      25.03865242
C       24.02898788       7.64943123       2.81331348
C       24.83024406      10.85561943       5.08486509
C       29.03061867      12.79122543       5.64277601
C       28.05106735      10.71745777       2.93668580
C       24.76339531       8.47222996       2.01724792
C       24.02283478      11.47080040       6.04560184
C       28.19062424      11.95335293       6.38667965
C       28.82587242       9.72827911       2.23776984
C       24.92699242       8.03859138       0.66980183
C       23.76793098      11.04403782       7.35782385
C       27.89072990      12.34782887       7.71777678
C       28.93389511       9.78285599       0.83651584
C       21.14945602       8.79084969       7.29101086
C       27.54528046      11.85713291       0.87438452
C       31.96685028      11.36003494       1.20122838
C       25.04757881       9.03514290       6.65331984
C       31.76974678      11.68606281       2.56094527
C       25.51189423       9.57320023       5.47432995
C       21.57836151       8.33238697       6.04921865
C       27.34377098      11.71747208       2.22673035
H       23.84609222       8.02942848       3.82560062
H       25.11909676      11.19060135       4.06073093
H       29.29250145      12.53290272       4.55583382
H       27.80112457      10.49789810       4.00848770
H       25.12142181       9.49904728       2.30748963
H       23.63358116      12.45268059       5.88416719
H       28.01593971      10.95927715       6.11781120
H       29.13603020       8.93785572       2.87924647
H       21.58182144       9.67533112       7.63739824
H       26.96830940      12.60916042       0.39106977
H       31.55847168      10.42402458       0.80323094
H       25.38871956       8.06594372       7.00035620
H       31.15784264      11.01883602       3.18233728
H       26.18399811       9.11478901       4.73008966
H       22.13243866       8.93480968       5.45351839
H       26.52279282      12.37092781       2.50908351
C       19.43887520       7.74724579      10.45056248
C       20.59477806      10.32947826      12.60372162
C       24.29257965      12.89189053      12.52908611
C       23.23987389       9.84989166       9.80173206
C       20.09996986       8.46831799       9.59284496
C       19.68720627      11.13901901      13.24056530
C       23.48640060      12.06522560      13.26969242
C       23.98077393       9.09728909       8.96751881
C       20.43992996       8.03100014       8.28053093
C       19.16089439      10.80052185      14.57719421
C       23.20680428      12.35702324      14.67012978
C       24.25727844       9.67466736       7.64582300
C       16.32491302       9.11026192      14.40646648
C       22.85545540      11.61789608       8.24637222
C       27.01345253      11.62183762       8.53311157
C       20.59296036       8.70479393      14.46062660
C       26.62319946      12.15064049       9.76855469
C       20.96067238       9.11243916      13.19651985
C       16.72502899       8.63211060      13.17294216
C       22.68643188      11.03227711       9.52013779
H       19.20190048       8.24341202      11.37158203
H       21.07900047      10.71129704      11.67129898
H       24.53855324      12.68159294      11.48864174
H       22.95778084       9.42786980      10.76924801
H       20.46056557       9.47886562       9.86503029
H       19.34359932      12.16476536      12.90280914
H       23.17470932      11.04416275      12.83123207
H       24.33967590       8.14441586       9.22747135
H       16.81075859       9.95279121      14.76500416
H       22.61961746      12.65520573       8.12227345
H       26.63320923      10.75314236       8.08895969
H       20.86538124       7.65952969      14.82443523
H       25.91586685      11.46937752      10.32513618
H       21.62674141       8.39314270      12.82867908
H       17.47077370       9.25204182      12.63957787
H       22.33278847      11.53647900      10.41774750
C       14.51880741       7.55404806      17.30386543
C       15.48126221      10.50592804      19.61936760
C       19.36182404      12.54883289      20.00657082
C       18.30919075      10.17012596      17.08529282
C       15.31726646       8.43813419      16.60227585
C       14.81128216      11.37286854      20.42115974
C       18.47789383      11.95293427      20.87661552
C       19.26984024       9.30391788      16.53676224
C       15.53060627       8.23944092      15.27853680
C       14.48668003      10.94420338      21.73982048
C       18.24588776      12.38970089      22.17218208
C       19.68985939       9.60482121      15.18638515
C       11.62725353       8.89098644      21.15863800
C       18.22913933      11.65298557      15.25508595
C       22.41359901      11.39370632      15.35473824
C       15.66615391       8.74549484      21.28780556
C       22.12014008      11.70403004      16.67970467
C       16.00595474       9.20011806      20.06587410
C       12.05690670       8.21242428      20.05997849
C       17.81500626      11.40286446      16.52504349
H       14.28015614       7.84771395      18.32768822
H       15.81836891      10.89939308      18.61643410
H       19.59232521      12.09596157      19.05046272
H       18.21709824       9.87531281      18.12183571
H       15.60442638       9.27036285      17.19467354
H       14.51938534      12.34044933      20.04114723
H       17.83661842      11.21386528      20.45336151
H       19.61224747       8.49031353      17.14310837
H       11.91584492       9.92068100      21.38702393
H       17.96000290      12.54079723      14.60197639
H       22.27031708      10.37359142      15.00241661
H       15.92088699       7.72092676      21.41637039
H       21.71612167      10.85607147      17.26199722
H       16.54721642       8.48185444      19.54636192
H       12.67501640       8.78428555      19.35195732
H       17.25488091      12.08987427      17.13337517
C        9.88398552       7.81007528      24.29358864
C       10.70731831      10.26323223      26.58868408
C       14.65635967      12.83507061      26.80159760
C       13.82732677      10.00416374      24.37241745
C       10.58617592       8.61248779      23.43691826
C        9.87488747      11.11341286      27.25432587
C       13.80516720      11.98991776      27.52715302
C       14.66287613       9.24998474      23.52985382
C       10.85620880       8.21649837      22.14855385
C       28.38770294      10.98421955       0.13905446
C       32.52693176      12.31385517       0.31803739
C       15.00671577       9.67378140      22.19960022
C        6.91752529       8.83086586      28.36758232
C       13.70503616      11.66026402      22.64601707
C       17.43269539      11.57812691      23.01592255
C       10.81214046       8.82904911      28.52595901
C       17.31401062      11.96412468      24.28150749
C       11.17349148       9.03784657      27.21171951
C        7.13490868       8.54174805      27.06109428
C       13.45280552      11.25286388      23.92243004
H        9.76428604       8.11894226      25.25065231
H       10.94480419      10.44044781      25.48501015
H       14.59898758      12.72133160      25.69489861
H       13.58733463       9.58144474      25.31201553
H       10.93772984       9.56097507      23.81485558
H        9.70068550      12.09080505      26.83449173
H       13.03457737      11.20454597      27.15210342
H       15.12483215       8.22016239      23.80017471
H       25.98963928       9.76020813       0.31040180
H       13.27290154      12.64096165      22.36858559
H       16.86268806      10.80736923      22.55170059
H       30.05385017       7.85707331       0.39369628
H       16.62989044      11.42995167      24.89654922
H       11.59867764       8.22191525      26.62779617
H        7.84848166       9.17728519      26.62925148
H       12.91865349      11.85791397      24.66966438
C       23.70247841      13.36493874       2.72052598
C       24.94106483      15.75769520       5.67501783
C       28.89053535      18.17907906       5.29684591
C       27.71467018      15.11799812       2.74982500
C       24.46086884      14.16813850       1.92401302
C       23.99998856      16.48625183       6.39574480
C       28.11245918      17.40778542       6.10760641
C       28.70471573      14.41607380       2.04188347
C       24.82063675      13.78652954       0.60904562
C       23.63910103      16.11915398       7.69518900
C       27.89923668      17.79894066       7.49280882
C       29.09710312      14.95623779       0.78906119
C       20.86003494      14.28011417       7.34070396
C       27.78655243      16.96873474       1.12904298
C       31.72086716      17.04577637       1.36976480
C       25.03408241      14.18377113       7.42352962
C       31.36994171      17.38690376       2.68044853
C       25.34331703      14.55367470       6.12762356
C       21.14580345      13.97925854       6.07500267
C       27.25186539      16.37399483       2.25967574
H       23.31736374      13.79843807       3.64963031
H       25.38854599      16.15884590       4.71119928
H       29.08658409      17.69097900       4.38571501
H       27.58329964      14.75244427       3.73768353
H       24.79012299      15.15702534       2.29134369
H       23.58195114      17.33276367       5.98725414
H       27.80918884      16.39430809       5.90635872
H       29.15438652      13.46320152       2.43574286
H       20.97422028      15.24094963       7.76790476
H       27.52420616      17.96197319       0.78739905
H       31.53495979      16.06454659       0.90475726
H       25.37601089      13.19351196       7.67750740
H       30.83280373      16.58264160       3.20486927
H       25.93362236      13.83462048       5.54281998
H       21.62843895      14.63471985       5.34966326
H       26.49907303      16.90101814       2.76378465
C       19.20008278      12.95482922      10.38366032
C       19.78495598      15.85830498      12.57927513
C       24.40415001      18.42632484      12.93649864
C       22.85256577      15.24001408      10.31881714
C       19.88123512      13.84671783       9.57034206
C       18.96773911      16.50645447      13.50424862
C       23.42644501      17.65512657      13.50714493
C       23.79364014      14.48231411       9.59221554
C       20.17841911      13.45045280       8.25790977
C       18.91667748      16.18805885      14.89043045
C       23.06833076      17.89261246      14.84194851
C       24.11289215      14.89272308       8.24257755
C       16.17800713      14.57712173      14.34255886
C       22.80383301      16.94638634       8.55005169
C       27.20584297      17.01337814       8.40341282
C       20.36495399      14.39085007      14.44275284
C       26.90830231      17.45939446       9.63312626
C       20.54501534      14.74893475      13.10903454
C       16.65246773      14.20312786      13.12931824
C       22.34546852      16.48180389       9.81335068
H       19.02136612      13.23427868      11.39597988
H       19.64701271      15.98681545      11.44128132
H       24.72305298      18.16400337      11.90918350
H       22.54531860      14.86508560      11.23673439
H       20.09641647      14.81279564      10.06108570
H       18.46246338      17.45894051      13.44406605
H       22.88784790      16.85523033      13.02886009
H       24.00307465      13.43377495       9.96525764
H       16.21629333      15.60353851      14.72948933
H       22.52548599      17.91285133       8.18932629
H       26.91072655      16.03334808       8.03133202
H       21.06896782      13.72312069      14.94106960
H       26.25306129      16.91562080      10.38178253
H       21.18904686      14.18895149      12.51093960
H       17.12135315      14.78400612      12.41673660
H       21.50664711      16.90268517      10.38822651
C       14.32044315      13.14839649      17.19048882
C       15.89673328      16.06400490      19.76179314
C       19.58101463      18.43218994      19.92066765
C       18.39719963      15.50146580      17.47107315
C       15.04475117      13.98422527      16.43455696
C       15.37556362      16.97093010      20.66275978
C       18.96379662      17.54011917      20.78237152
C       19.09271812      14.59365940      16.65435410
C       15.43993378      13.68063641      15.15237904
C       14.86765671      16.60602188      21.92922974
C       18.66161156      17.94656372      22.10906601
C       19.46637154      15.01327705      15.35579681
C       11.66664219      14.83052540      21.68673897
C       18.04876900      17.04917526      15.70771408
C       22.29014778      17.00078201      15.58716202
C       15.96092510      14.45591354      21.48966980
C       21.92470932      17.19891357      16.93880463
C       16.21286201      14.77103424      20.18312645
C       11.90147686      14.51606274      20.37850380
C       17.80837822      16.71451187      17.04070663
H       13.85043716      13.45361996      18.08229446
H       15.99774551      16.25918388      18.65155792
H       19.66687965      18.01278687      18.88193321
H       18.10855103      15.11511326      18.43248367
H       15.43338585      14.90323067      16.92975616
H       15.10858822      17.92503548      20.25074387
H       18.64056778      16.51537895      20.39512253
H       19.29721260      13.62049007      17.05511665
H       11.92450237      15.74520779      22.13724327
H       17.40307617      17.83370209      15.19530201
H       22.20929337      16.07266808      15.12008190
H       16.29184151      13.47455692      22.06149673
H       21.54727173      16.41231918      17.56452560
H       16.85874367      14.02330685      19.67678833
H       12.47922325      15.12748051      19.61658287
H       17.20512009      17.45428658      17.52498245
C        9.74077225      13.45856857      24.48880196
C       11.14667320      15.86677933      26.73639488
C       14.88097382      18.71063042      27.20576096
C       13.80373669      15.62172413      24.31912041
C       10.56972408      14.30259895      23.79929733
C       10.21839905      16.63524437      27.54517746
C       14.03143501      17.78344345      27.84855270
C       14.56369877      14.79173374      23.51091003
C       11.03527069      13.87191486      22.54930115
C       28.59096146      16.15479660       0.28943616
C       32.57170486      17.99186134       0.63482356
C       15.16826630      15.27393723      22.28747749
C        6.67354345      14.77971554      28.26435852
C       14.02662277      17.30365944      22.69464302
C       18.01619530      17.04237747      22.97376823
C       11.11927986      14.16430569      28.42850304
C       17.56676674      17.37687302      24.22396088
C       11.58000088      14.65640545      27.25581169
C        6.99816990      14.42406368      26.92160606
C       13.41700554      16.90247536      23.85550308
H        9.28956127      13.72923756      25.41468811
H       11.57447910      16.33218193      25.92253876
H       15.05104923      18.60397911      26.13318253
H       13.49951935      15.12173367      25.27725792
H       10.76488304      15.18763733      24.29992104
H        9.93611050      17.50874329      27.01152229
H       13.63928986      16.98907852      27.23452950
H       15.05336285      13.85284996      23.80124664
H       25.67512703      15.76352978       0.15183131
H       13.88909626      18.32527351      22.35246658
H       17.82144737      15.98625183      22.79306984
H       30.14867592      13.11650467       0.18019934
H       17.13375664      16.63724518      24.93102074
H       12.42395020      14.23913956      26.73397064
H        7.47532034      15.13270950      26.30547905
H       12.81686592      17.52479744      24.32079315
C       23.84714508      18.58383369       3.21978974
C       25.33319664      21.58027840       5.88077784
C       29.03162575      24.02549934       5.75144053
C       28.21853828      21.46325111       3.43312240
C       24.76302719      19.42752838       2.65990686
C       24.44185257      22.23049927       6.72449875
C       28.22169685      23.19781303       6.53807497
C       28.87774658      20.56055641       2.57988453
C       25.06674957      19.36845779       1.25432932
C       24.07955170      21.78615570       8.01384926
C       27.98022652      23.50611114       7.91020441
C       28.93452072      20.92351532       1.21626472
C       21.13730431      19.82164001       7.40803480
C       27.85552788      23.11603355       1.57976794
C       32.07671356      22.45828819       1.56846225
C       25.24188042      19.68547630       7.37194729
C       31.74543381      22.81670189       2.81984162
C       25.74571037      20.29582214       6.23550940
C       21.45404434      19.57925606       6.10583067
C       27.78698540      22.73086929       2.94202805
H       23.68746758      18.67114830       4.25867414
H       25.47777939      22.05553627       5.02077389
H       29.49621963      23.67954254       4.80901146
H       28.06104660      21.37810707       4.42245388
H       25.43506241      20.07765388       3.28651023
H       24.07562065      23.16537476       6.44433784
H       27.74946976      22.30802155       6.02134180
H       29.12904739      19.58073235       2.97317839
H       21.40946960      20.67864609       7.91098642
H       27.27172470      23.91153908       1.20555806
H       31.87342834      21.46529579       1.33585620
H       25.49953651      18.61617088       7.60458565
H       31.26303101      22.12155914       3.49143219
H       26.47973824      19.75909996       5.68812561
H       22.29364395      20.19505882       5.68697691
H       27.33769417      23.36264610       3.67218494
C       19.13440132      18.42198944      10.18174839
C       20.00086784      21.12274742      12.86342812
C       24.34847641      23.64084244      12.67498493
C       23.20360756      20.58621788      10.38774109
C       19.88503838      19.30189514       9.47946835
C       19.20466614      21.97933578      13.52591896
C       23.70326424      22.72706223      13.40733528
C       24.03209114      19.83339691       9.54261398
C       20.24949074      18.97344589       8.15663910
C       18.97590446      21.68597794      14.85586166
C       23.36261177      23.06547737      14.76488686
C       24.44266701      20.40241241       8.26487160
C       16.42918396      19.97245407      14.67557621
C       23.20480919      22.50542831       8.91654301
C       27.39334869      22.61152458       8.76248264
C       20.08559227      19.56553078      14.74125576
C       27.01579857      22.91661072      10.02084541
C       20.37505531      19.89244652      13.43095398
C       16.70211601      19.57347488      13.34155846
C       22.81566429      21.87636185      10.08266067
H       18.74965668      18.56429291      11.19670582
H       20.28640175      21.33089447      11.81455994
H       24.54003716      23.48714256      11.64073277
H       22.91568184      20.08181381      11.37323666
H       20.32398415      20.09759331       9.97832203
H       18.77443123      22.82489395      13.05648136
H       23.21740150      21.86649513      13.06101799
H       24.10100746      18.77645493       9.78872299
H       16.95912933      20.86970711      15.06597042
H       23.10886574      23.60466003       8.76518631
H       27.09196854      21.67316246       8.38811302
H       20.25295448      18.62200737      15.28028107
H       26.51053429      22.18113708      10.64211941
H       20.99363899      19.14933395      12.78395844
H       17.17381859      20.21184158      12.68228054
H       22.38766098      22.47044563      10.90305233
C       14.60239601      18.80610466      17.56060028
C       15.92770004      21.87658501      20.07518005
C       19.62364197      24.04488182      19.85694885
C       18.47846985      21.26142120      17.61221695
C       15.31618977      19.60918999      16.74733925
C       15.44305420      22.68724251      21.12600517
C       18.98706818      23.11965752      20.56278992
C       19.21853447      20.34167099      16.89643478
C       15.56322479      19.21894264      15.42748070
C       14.96030808      22.06610107      22.30291939
C       18.78421974      23.46378326      21.95433044
C       19.51328278      20.52499008      15.49562263
C       12.14844036      20.05651474      21.84285545
C       18.18915749      22.62447166      15.66257381
C       22.49880409      22.29216385      15.59828567
C       16.05231094      20.01439095      21.57103348
C       22.09028816      22.72538376      16.83700180
C       16.15648842      20.52481079      20.32840729
C       12.34631634      19.82924843      20.56030655
C       17.90886116      22.43811226      16.96478462
H       14.53678131      19.05065155      18.60568047
H       15.99052811      22.21143150      19.02004623
H       19.80979729      23.85429192      18.82704926
H       18.03473473      21.03289795      18.60812950
H       15.65207386      20.62750435      17.12377930
H       15.30318832      23.65536690      20.88358307
H       18.57704926      22.20589638      20.23917007
H       19.47755051      19.42784882      17.44021606
H       12.69063377      20.95114326      22.20205307
H       17.75973320      23.49367332      15.18345737
H       22.13121414      21.31216812      15.26176167
H       16.28324699      18.98279762      21.85622978
H       21.41175652      22.04606438      17.33804703
H       16.55169106      19.83339882      19.58238411
H       12.82344913      20.55904770      19.94001389
H       17.37107086      23.19933128      17.52189636
C       10.23813725      18.73196411      24.80457115
C       10.91346550      21.77161789      27.17518997
C       15.13955402      23.84183311      27.02965355
C       14.25808430      20.95288658      24.74794388
C       11.07802486      19.50299644      24.05362511
C        9.97307301      22.53059387      27.89380646
C       14.50687599      23.00623703      27.98423004
C       15.01183605      20.16856194      23.88761711
C       11.32934475      19.23573494      22.68333817
C       28.46316528      22.14657593       0.66217113
C       32.80064774      23.37207603       0.66481966
C       15.34480286      20.73942566      22.62850952
C       25.76324463      20.36558914       0.62093031
C       14.20006657      22.85746574      23.21462059
C       18.01299095      22.71305656      22.82237625
C       29.58716583      20.06856155       0.35789332
C       17.74773026      23.02714920      24.11675262
C       11.26023769      20.49768257      27.65314484
C        7.23766327      20.36502266      27.80990028
C       13.87088776      22.36844063      24.47490120
H       10.14269638      19.24118996      25.72134018
H       11.36243534      22.11904907      26.19934273
H       15.59024048      23.35808373      26.17912865
H       14.05108738      20.71744347      25.77658844
H       11.57327175      20.40140343      24.36481094
H        9.75647640      23.49384308      27.51552773
H       14.30373287      22.02762604      27.64428711
H       15.37099743      19.19949722      24.12997246
H       26.00831413      21.18935776       1.28137147
H       13.82841587      23.72568321      22.64389992
H       17.50551605      21.79883003      22.38518524
H       29.83789635      19.10601044       0.77933574
H       17.12831879      22.41804314      24.73193741
H       11.74942875      19.83243179      26.97997475
H        7.59309196      21.21306610      27.26054192
H       13.39688015      23.03237534      25.19640350
C       31.06749344      51.89183426       9.61872578
C       -8.62779903      49.85294724      14.20936489
C       30.67701912      52.41319656      10.89996624
C       -8.29434395      49.38679504      12.93289757
C       30.93791771      51.50128174      12.05799866
C       31.41562843      50.20890808      11.78506851
C       30.48373795      51.95120621      13.30967712
C       31.67199898      49.78883743      10.46534252
C       31.54508018      50.62617874       9.43509293
C       -9.18414497      51.18238831      14.39258385
H       31.05361176      52.59742737       8.73348904
H       -8.53113079      49.06077957      14.99796677
H       30.33440971      53.39770126      11.07732677
H       -8.07418537      48.36052704      12.82619286
H       29.82919884      52.77878571      13.22567940
H       32.09563828      48.74804688      10.27943802
H       31.79583359      50.38703918       8.41042137
H       -9.45685005      51.26859665      15.43334675
C        3.36656642      55.03699875       3.26195788
C        4.96169996      50.49564362       1.59478080
C        2.73474193      53.82452011       2.93484926
C        5.53700066      51.65628815       1.98512638
C        3.42444658      52.68954086       2.56012607
C        4.86244392      52.82831573       2.52766800
C        2.78655004      51.49861526       2.10441732
C        5.48812628      54.05278778       2.71661973
C        4.76279116      55.13499832       3.10044909
C        3.49731755      50.42572021       1.66629088
H        2.76285744      55.84324646       3.62087178
H        5.40288067      49.66410065       1.02632976
H        1.60824788      53.80946350       2.96605706
H        6.58975792      51.75724030       1.93683457
H        1.75587094      51.50320435       1.87293291
H        6.59788036      53.99699402       2.66809988
H        5.30890369      56.04791260       3.38166428
H        3.13821816      49.62927246       1.07229602
C       28.40195847      49.21678925      11.18787003
C       28.84556389      45.87381744      15.05871391
C       28.13948631      49.24364090      12.49276447
C       29.20082283      45.81148529      13.74617195
C       28.47925949      48.10651398      13.38846874
C       29.00600815      46.93495560      12.85698414
C       28.09394836      48.11747360      14.79051685
C       29.39325714      46.99217224      11.49215889
C       29.08087921      48.02948761      10.75515842
C       28.36713791      47.05540466      15.60735130
H       28.23928070      50.12708282      10.48684120
H       29.11291313      45.11225128      15.80885887
H       27.79600525      50.09681320      13.04068375
H       29.60949707      44.79779816      13.41987991
H       27.81327057      49.12497330      15.04046249
H       29.79185867      46.15595627      10.96119499
H       29.40471458      48.08879089       9.65630054
H       28.44723701      47.16000366      16.67450333
C       15.41561317      37.09428406      12.77939892
C       15.80615997      34.71628952      17.10794640
C       14.54704857      36.32188416      13.50439453
C       16.69435692      35.37191391      16.34413338
C       15.01604271      35.81885147      14.67956162
C       16.32282829      35.98998642      15.14214134
C       14.17303562      34.92374802      15.44053364
C       17.02495003      37.02851486      14.52152824
C       16.59381866      37.52175140      13.32878780
C       14.52847195      34.43751144      16.61434746
H       15.25280476      37.51797104      11.78670597
H       16.15023232      34.21528625      17.95807648
H       13.67768574      35.88680267      13.18930435
H       17.80796242      35.34241867      16.45247269
H       13.21371746      34.62223816      15.04497051
H       18.06881332      37.36086273      14.87648010
H       17.32831001      38.08905411      12.71416092
H       13.72874737      33.90780640      17.19747353
C        9.99003983      52.06376648      20.47774887
C       13.33856487      48.40813065      20.25621223
C       10.31183052      51.13006210      19.52822495
C       13.20285892      49.45275879      21.08719635
C       11.30342484      50.18665314      19.75417709
C       12.18729877      50.42280197      20.80163956
C       11.59853172      49.16484070      18.83982849
C       11.93167019      51.51435089      21.77314377
C       10.85708714      52.22441101      21.58536720
C       12.55680084      48.27516937      19.12374115
H        9.10731030      52.71438217      20.58605766
H       14.18657494      47.65295410      20.41870117
H        9.57254219      51.10023499      18.66163445
H       13.93165779      49.47650146      21.90568733
H       11.18579865      49.13579941      17.82332993
H       12.48266315      51.69436264      22.64153862
H       10.60896301      53.06248474      22.23224831
H       13.07525158      47.65406799      18.39538193
C        9.78179836      41.20737457      12.64044380
C        9.98153687      39.14744568      17.33247757
C        8.70442390      40.46172714      13.34127331
C       10.79882050      39.82950211      16.41483879
C        9.16584778      39.78464508      14.65837765
C       10.45988464      39.97047806      15.08146381
C        8.27758980      39.28401566      15.63025284
C       11.53778458      40.37915421      14.11488628
C       11.04530621      41.37315750      13.03712940
C        8.67857933      38.98347092      16.95888329
H        9.42543697      41.94654083      11.94050503
H       10.38429832      38.87265015      18.22849083
H        8.18722630      39.78120422      12.65493965
H       11.76854038      40.18483734      16.69626045
H        7.18159342      39.14984131      15.42822742
H       12.34076595      40.76000595      14.68078423
H       11.79161453      42.04878616      12.52836609
H        7.89721346      38.67926025      17.65013504
C        8.43175507      41.20896530       8.61608028
C        8.10730553      44.93610382       5.29375458
C        8.67550182      41.31078720       7.30944395
C        7.85614586      44.92028046       6.61242771
C        8.38861370      42.58544159       6.62557364
C        8.10155964      43.77803802       7.36336231
C        8.58592796      42.57476425       5.23330021
C        8.07037544      43.63124084       8.74783707
C        8.26404572      42.45252228       9.37153912
C        8.33943844      43.74990082       4.58060455
H        8.61517048      40.22267532       9.08592224
H        8.03010559      45.81189728       4.64557934
H        8.83130550      40.47105789       6.71694565
H        7.64395714      45.94129562       7.12590933
H        8.53952885      41.71536636       4.59514332
H        7.73797941      44.34934616       9.47536850
H        8.27554989      42.37977982      10.45511341
H        8.40822411      43.98483276       3.58125591
C        5.91743851      57.65005875      22.98439026
C        9.76492882      58.61603928      26.02471924
C        7.25473118      57.92140961      22.82381630
C        8.46156025      58.22526932      26.37180519
C        8.17923737      57.92458725      23.95406151
C        7.72197294      57.80691147      25.25500488
C        9.57124424      58.06223679      23.64059448
C        6.37119484      57.38462067      25.35079002
C        5.49027395      57.34307480      24.30961037
C       10.30878639      58.46221161      24.69972801
H        5.29563856      57.87251663      22.18981171
H       10.38500309       0.16596124      26.70739937
H        7.63168192      58.23567963      21.82495499
H        8.07270145      58.17909241      27.41693306
H        9.86210155      58.17904282      22.60611916
H        6.10876608      57.06282043      26.34412575
H        4.41919088      57.19268417      24.44242287
H       11.26998234      58.85903931      24.35955048
C       11.77354431      44.09940720      10.32251453
C       14.41182041      45.86051178      14.03555298
C       11.41033649      44.34442139      11.57203579
C       14.46951485      46.05727386      12.68078899
C       12.34863663      44.92551041      12.43443871
C       13.54658699      45.49581528      11.82729340
C       12.17566872      44.89387894      13.84881973
C       13.79209995      45.28916550      10.46172428
C       12.94347286      44.56301880       9.71929836
C       13.24757290      45.23793411      14.66615486
H       11.08959961      43.50818634       9.67061043
H       15.18200588      46.18766022      14.71601677
H       10.49103260      43.92398071      11.96372032
H       15.37713337      46.37320328      12.24959373
H       11.27432919      44.32155991      14.22674942
H       14.62073898      45.81207657       9.99075413
H       13.15609646      44.41783524       8.68826675
H       13.11521244      45.10868454      15.76538181
C       11.01459789      42.45210266      18.53444099
C       14.73409557      39.44171143      20.15851974
C       10.97395134      41.29346466      19.24796677
C       14.71948051      40.61746979      19.48217392
C       12.27752113      40.62561798      19.60329056
C       13.49037838      41.21591949      19.24482346
C       12.34012890      39.33581924      20.24628830
C       13.43677235      42.35510254      18.33071709
C       12.25354958      42.99878693      18.08173943
C       13.54214954      38.78173065      20.53162384
H       10.02984810      42.79486847      18.23529625
H       15.78633785      38.94054031      20.35131454
H       10.06445312      40.84112549      19.52099991
H       15.60714340      41.14687347      19.33028984
H       11.35488605      38.83924484      20.52982330
H       14.44614315      42.60966110      17.87152290
H       12.26917267      43.88414383      17.39878845
H       13.52508545      37.77005768      21.00267410
C       27.41752815      31.64530754      10.90408611
C       28.71587753      32.06993103       6.09276438
C       27.78515816      30.76426315       9.94200230
C       28.33725357      33.02856827       6.99278927
C       28.04866600      31.23419762       8.63030338
C       28.01692963      32.62758636       8.31543827
C       28.32838249      30.29391670       7.67654848
C       27.74876595      33.52827072       9.35950565
C       27.36660004      33.06126785      10.64131355
C       28.73615074      30.72636604       6.40180540
H       27.17308807      31.34316444      11.94638920
H       29.03932571      32.28125381       5.03224325
H       27.65573120      29.71921921      10.18749809
H       28.27508926      34.07676315       6.73187685
H       28.26914787      29.20608902       7.87534952
H       27.73562241      34.62369919       9.22616100
H       27.13887787      33.91519165      11.37090588
H       28.97890472      29.97091103       5.65001488
C       13.24202347      28.91700554      11.31003761
C       11.80568886      30.83245087       6.91774511
C       12.96456242      28.42131996      10.08721352
C       11.98886776      31.43219185       8.08543015
C       12.69315720      29.26213646       8.96844482
C       12.62856388      30.62421227       9.18618107
C       12.60807133      28.70092392       7.67147636
C       13.00591564      31.13939476      10.44868088
C       13.37820721      30.33434677      11.46584034
C       12.18121147      29.46386147       6.62723541
H       13.34464455      28.26285744      12.16964817
H       11.45477390      31.49656296       6.03409433
H       12.98724747      27.29955292       9.95928288
H       11.83697796      32.58786011       8.18421650
H       12.77956295      27.69274902       7.64603806
H       13.04368114      32.14706802      10.62748718
H       13.79161072      30.84314919      12.36904621
H       12.10075951      29.06539154       5.62029314
C       15.56263828      46.03799820      25.35857201
C       17.30486488      49.98923874      22.77831650
C       15.64186955      46.36566162      24.06472015
C       17.25670815      49.64110184      24.08412743
C       16.27582550      47.53461456      23.62218857
C       16.77433777      48.40065002      24.60492706
C       16.57329559      47.77342987      22.23061943
C       16.68404198      48.05509567      26.04030037
C       16.00444794      46.93886566      26.34635162
C       17.00302315      49.03570557      21.80990982
H       15.08639145      45.16115570      25.61350822
H       17.56462669      51.00978088      22.42600822
H       15.12608051      45.78821564      23.30494308
H       17.57310867      50.32327271      24.88111877
H       16.19447517      47.11540604      21.54120636
H       17.05834961      48.66478729      26.81207657
H       15.88139343      46.58234024      27.36443901
H       17.22544670      49.32297516      20.76428795
C       10.43671894      51.57883072       2.03629565
C        9.12029552      54.95956039       5.50903749
C       10.51415539      52.97665405       2.04602504
C        8.92484570      53.63251877       5.36961412
C        9.92283440      53.65818787       3.14914322
C        9.25475311      52.98431778       4.14338493
C       10.00223923      55.06012726       3.25082707
C        8.97798729      51.65387726       3.97246861
C        9.47881794      50.93789673       2.88885760
C        9.54832363      55.67896652       4.34085274
H       10.74196053      51.05341721       1.15327156
H        9.04579449      55.67091370       6.29313469
H       11.06542969      53.52513123       1.28360569
H        8.37169552      53.06541824       6.12398338
H       10.36489677      55.68406296       2.42580581
H        8.24577236      51.02795410       4.62195158
H        9.10603714      49.95160675       2.70837760
H        9.79936600      56.72640610       4.50374603
C       25.02949333      34.65541840      18.60517883
C       24.70830727      34.33778381      13.63640308
C       25.09589577      35.58220291      17.59372139
C       24.49584961      33.40226364      14.57699776
C       24.87536240      35.16534805      16.24295807
C       24.59084320      33.82706070      15.93110371
C       24.94767189      36.14025116      15.15923595
C       24.52414322      32.91146851      17.04506111
C       24.81973457      33.27162933      18.31476974
C       24.92093086      35.62622833      13.92123699
H       25.17766953      34.81670380      19.68185234
H       24.80765343      33.89173889      12.68885040
H       25.37637520      36.64959335      17.77893257
H       24.49085426      32.38383102      14.21206188
H       25.07481575      37.24765778      15.30820751
H       24.39182663      31.75464439      16.95485497
H       24.44244766      32.64809036      19.07474136
H       25.07043457      36.31957245      13.09645367
C       12.89481068       0.29803377      20.94232368
C       16.67874908      55.97241592      20.27632523
C       14.20397949       0.48405191      20.48147964
C       15.48625851      55.86429596      20.91800880
C       15.07174873      58.27637100      20.38033295
C       14.62574005      57.06191635      20.79835129
C       16.31915665      58.25701141      19.67161369
C       13.28378487      56.93916702      21.44480515
C       12.44602299      58.03335953      21.50160408
C       17.04021645      57.15246582      19.56279182
H       12.24810982       1.12857342      21.06532860
H       17.38515282      55.15851974      20.10073662
H       14.45691586       1.48818219      20.08894157
H       14.96728516      55.15095901      21.46629524
H       16.48988724       0.08235067      18.88483429
H       12.97309208      55.88025665      21.74794769
H       11.43636990      57.81880188      21.83371735
H       17.81944656      57.23889160      18.84410286
C       25.93049240      53.26484680      12.39072418
C       26.46392059      52.14492798      17.31837273
C       25.94285393      54.05752563      13.47229958
C       26.19527626      51.47883224      16.16241646
C       26.05231476      53.42517090      14.77012062
C       26.09235954      52.04336166      14.88551331
C       26.04826927      54.16625595      15.96761990
C       25.84127426      51.26248169      13.70994186
C       25.79438400      51.81276321      12.42858219
C       26.21059608      53.56824112      17.24083328
H       25.99600410      53.73585129      11.42643261
H       26.65858078      51.68652344      18.30069160
H       26.02467346      55.11336517      13.18651485
H       26.16914558      50.41363907      16.30393791
H       25.85414124      55.21546555      15.88283348
H       25.86737633      50.16008377      13.77467918
H       25.79389954      51.07985687      11.50384521
H       26.45703316      54.08691025      18.22822189
C       21.89935875       0.36038157      16.78854942
C       20.40801048      54.58071136      15.76497650
C       21.53920937      58.22825241      17.60915375
C       20.85433578      55.61943817      15.06495762
C       21.25765800      56.94581223      17.03815460
C       21.31463051      56.76265335      15.67527008
C       20.77200699      55.82832718      17.82729530
C       21.47009659      57.95543289      14.91971397
C       21.92230034       0.19225635      15.43587494
C       20.38554382      54.69796371      17.15909767
H       22.17517471       1.26513684      17.23639107
H       20.05239105      53.59066010      15.39415264
H       21.53072166      58.32892990      18.66841698
H       20.70703506      55.66012192      14.00771713
H       20.49683189      55.86582184      18.87101555
H       21.03755951      57.98477173      13.85351372
H       21.92230988       1.05190253      14.78523445
H       19.94028854      53.88243103      17.66463852
C       23.54095268      28.11182022       2.43895292
C       27.16685486      31.56659698       1.87574458
C       24.09011269      28.67611694       1.29140580
C       26.60429001      30.96009827       2.97316670
C       25.08357620      29.67004967       1.43398046
C       25.45341110      30.04884529       2.73980999
C       25.56701851      30.48682785       0.33509544
C       24.77737236      29.48867798       3.85683489
C       23.91035271      28.41326332       3.72353578
C       26.59234047      31.34122849       0.60414392
H       23.13429260      27.10666466       2.29714656
H       28.09589958      32.20474243       1.99932694
H       23.82672691      28.21272850       0.30903125
H       26.86950493      31.19275856       4.05093479
H        6.45724916      30.47941589      27.84832764
H       24.96092033      29.94989586       4.86495876
H       23.47550201      27.92416191       4.57766628
H        8.22607231      31.85371017      28.23074722
C       22.71520424      39.19719696      16.27828979
C       23.76882744      43.66755295      18.32342911
C       22.62119675      40.54123306      15.87451553
C       23.85694695      42.34739685      18.74949265
C       23.20910835      41.56697464      16.55481911
C       23.61990929      41.28892517      17.85376167
C       23.05980873      42.88124847      16.14114571
C       23.79700470      39.89758682      18.23936844
C       23.36261559      38.83432007      17.48875046
C       23.38292885      43.94984817      17.00510025
H       22.28086472      38.44225311      15.61163616
H       23.97642326      44.49023819      19.10484695
H       21.78463364      40.66533279      15.19866180
H       24.00214767      42.04613113      19.84471512
H       23.04824448      43.35948944      15.06013584
H       24.35330009      39.79636765      19.10240936
H       23.42544746      37.78950500      17.90141869
H       23.38379097      44.97147369      16.57899666
C       -5.27628040      37.26394653      20.62687683
C       -2.49078655      34.74713135      17.29835510
C       -5.17735529      35.97033691      20.29255295
C       -2.85466719      36.02229691      17.39451790
C       -4.35865927      35.48365021      19.22945023
C       -3.79125047      36.47747040      18.35189819
C       -3.90812778      34.09570312      19.07338715
C       -3.79636526      37.86335754      18.83575439
C       -4.57456684      38.22769928      19.91147614
C       -2.93695045      33.73891830      18.21138573
H       -5.96408415      37.64249039      21.39005089
H       -1.75823784      34.37605286      16.48297691
H       -5.68907547      35.17921448      20.95922661
H       -2.57144070      36.74747467      16.67407989
H       -4.12491226      33.36865616      19.92723083
H       -3.27604771      38.71249390      18.32255173
H       -4.60595608      39.25725937      20.16945076
H       -2.72584820      32.71458054      18.20327759
C       14.09518147      42.26877594      14.00612545
C       18.76592827      42.02598953      15.98741341
C       14.64502335      41.47869873      15.08535957
C       18.13784790      42.75025558      14.93098831
C       16.07967758      41.77218246      15.53659439
C       16.79725838      42.70391083      14.73243999
C       16.71584129      41.08426666      16.59612656
C       16.18761635      43.27637100      13.60029125
C       14.95640755      42.94361114      13.16673279
C       18.01349831      41.24258804      16.79862595
H       12.97264481      42.22630692      13.80731964
H       19.78725624      42.19712830      16.17414474
H       13.89032650      41.17757034      15.96619987
H       18.74415016      43.35029221      14.25749588
H       16.24145508      40.40386200      17.30772591
H       16.80521965      43.94570541      12.91973972
H       14.49732780      43.33337021      12.25857258
H       18.48597145      40.66359329      17.54098129
C       -9.49828339      49.89725876      25.19782829
C       -9.46007538      44.98930740      26.10339546
C       -8.51610756      49.10004807      25.61266708
C      -10.48287582      45.88629913      25.98697472
C       -8.84787941      47.67523193      25.82284355
C      -10.14251328      47.21978378      25.67071533
C       -7.82257414      46.74273300      26.04593277
C      -11.05100918      48.16511154      25.23644257
C      -10.73960209      49.47184753      24.94524956
C       -8.12835503      45.43567276      26.15288734
H       -9.20878983      50.90473938      25.01115990
H       -9.67316532      43.95570374      25.95659828
H       -7.53702641      49.50534821      25.77478218
H      -11.53539848      45.61859512      26.09807396
H       -6.84642172      47.18327332      26.05503654
H      -12.06424141      47.92092133      25.29658890
H      -11.63239193      50.13369751      24.86177635
H       -7.30380249      44.63383102      26.26374435
C        3.71059537      44.25243759      17.43633652
C        1.29426897      47.04760742      14.27633286
C        3.80398226      45.59067535      17.16876030
C        1.17070472      45.74533081      14.57289600
C        2.91713309      46.09922791      16.20375824
C        1.91086972      45.19496155      15.63569069
C        2.99609971      47.45829773      15.80902863
C        1.85088468      43.81650543      15.95276070
C        2.72265410      43.43861771      16.91157532
C        2.13736653      47.91897964      14.88878822
H        4.44592333      43.67990875      18.05650902
H        0.66453493      47.34652710      13.45387459
H        4.58924484      46.26588058      17.59471703
H        0.46040374      45.17025757      14.06202602
H        3.82554007      47.87731552      16.27229691
H        1.15369940      43.14437103      15.55450535
H        2.71185732      42.39414978      17.33160591
H        2.13950586      48.88239670      14.48211193
C        5.90545702      56.78317261      16.10032082
C        1.15453327      58.82147980      16.84965324
C        4.78406000      57.11034393      15.26070881
C        2.23798704      58.39955139      17.68770599
C        3.66889668      57.65152740      15.89949703
C        3.51628685      57.96962738      17.27802467
C        2.59877276      58.14480972      15.07426357
C        4.70691395      57.69734192      18.02238083
C        5.84297085      57.11573029      17.44532585
C        1.42214942      58.67885971      15.47647858
H        6.78164339      56.33192825      15.62093353
H        0.20099594       0.23494849      17.36787605
H        4.77501440      56.46734619      14.33421230
H        2.04036117      58.40444183      18.74189568
H        2.77119565      57.92068481      14.01657486
H        4.72048235      57.99077225      19.02416992
H        6.80659389      57.02499008      17.98801041
H        0.74571896       0.04315753      14.70360279
C       16.81214523      42.63484955      25.23614883
C       21.53810692      41.08388901      24.98434639
C       17.94132614      43.30823898      25.53480721
C       20.34659576      40.52930450      24.50298309
C       19.15360832      42.66212845      25.26129723
C       19.19027519      41.30713272      24.72041702
C       20.45276260      43.12097931      25.76972961
C       17.91010284      40.70121384      24.46097946
C       16.73804855      41.34252167      24.73349571
C       21.54150391      42.29726410      25.64961243
H       15.84173870      43.12105179      25.48559761
H       22.51887131      40.59668732      24.89713478
H       17.82905769      44.25041199      26.13744164
H       20.34038353      39.66355133      23.85373688
H       20.30491066      44.08820724      26.26342392
H       17.94416809      39.67657852      24.00212097
H       15.82108021      40.86805725      24.51160431
H       22.37158394      42.77445221      26.12922668
C       14.86761475      31.11848450      19.82034302
C       13.45914268      28.57663345      15.66082764
C       15.41237259      30.95106697      18.58417702
C       12.77189732      28.93383217      16.81860542
C       14.73087215      30.36176872      17.49619865
C       13.44860172      29.79146385      17.78222466
C       15.39704704      29.97877884      16.28561020
C       12.84580231      30.07158661      19.06962585
C       13.58547592      30.66047287      20.10310745
C       14.72457218      29.14174652      15.38402081
H       15.44106388      31.37392044      20.65717506
H       12.92144108      27.98526001      14.89461708
H       16.43415260      31.12603378      18.36865616
H       11.76250267      28.77055740      16.94235611
H       16.35246849      30.36461449      15.94882774
H       11.83806801      29.63311195      19.26177216
H       13.41590500      30.56981277      21.21033669
H       15.29988098      28.78215790      14.51064777
C      -16.49375343      51.90773392      25.45135307
C      -13.53844738      55.95609665      25.46457672
C      -15.86487770      52.61429596      24.45234108
C      -14.26231861      55.33620453      26.41865158
C      -15.14294434      53.77159882      24.78035355
C      -15.09007454      54.15039444      26.10996246
C      -14.36715889      54.38993454      23.82927132
C      -15.78121567      53.40764236      27.15280342
C      -16.49949265      52.25576782      26.82467842
C      -13.49550629      55.38814926      24.07271576
H       22.48988724      51.10895920      25.26675224
H      -13.28274727      56.96644592      25.69594574
H       23.79728699      52.33746719      23.37491035
H      -14.23524570      55.76691437      27.49336243
H      -14.36929131      53.99238968      22.80621910
H      -15.61129665      53.63656998      28.20756149
H      -17.28693581      51.82516479      27.46044922
H      -12.88745975      55.69327164      23.24413109
C       -7.51722193      30.17763901      21.93775749
C       -4.40213013      30.46139336      17.82803345
C       -6.59753942      29.36830711      21.34443855
C       -5.45003366      31.29972076      18.32792473
C       -5.79311037      29.72768402      20.19940567
C       -6.05047703      30.94284058      19.57213020
C       -4.66383410      28.97761154      19.78588104
C       -7.11498451      31.76926041      20.17242432
C       -7.74005604      31.42978859      21.31096077
C       -3.93484116      29.33804512      18.60085106
H       -7.97375727      30.07542801      22.82840347
H       -3.87916517      30.81928253      17.01473045
H       -6.49806404      28.30540657      21.70266151
H       -5.84512281      32.06974411      17.68972206
H       -4.54646587      28.06571960      20.31010628
H       -7.38164139      32.71008301      19.63892364
H       -8.35900116      32.13355637      21.89598274
H       -3.12976933      28.71781158      18.12894440
C        3.53766966      46.46809006      12.07570362
C        3.02848625      48.19178772       7.21013832
C        3.48423219      45.81533432      10.83596706
C        2.91021204      48.77529144       8.39520073
C        3.45332599      46.61145782       9.57655811
C        3.25467539      47.94778061       9.57085037
C        3.59796691      46.07199860       8.27178097
C        3.37633514      48.62477112      10.82137108
C        3.52551579      47.86569977      12.00201797
C        3.42281079      46.83600616       7.20610332
H        3.79825640      45.95046234      12.95150661
H        2.81396842      48.78418732       6.21552753
H        3.36532688      44.71612930      10.55500126
H        2.63502049      49.77162170       8.68363094
H        3.73985124      44.98535538       8.13787174
H        3.25800252      49.70423126      10.97577190
H        3.72423387      48.49546814      12.90642643
H        3.23681450      46.33936310       6.29419470
C        0.32925928      35.50148773      25.74478531
C        0.56303412      39.92999649      23.43759918
C        0.20976248      36.77090073      26.20437050
C        0.44199458      38.62492371      22.99756241
C        0.24405846      37.82081985      25.27114487
C        0.21353564      37.56138611      23.91270828
C        0.37785253      39.19256592      25.72592545
C        0.33946204      36.22231674      23.46901321
C        0.56455421      35.24981689      24.41239738
C        0.60489559      40.22795486      24.83149338
H        0.24947414      34.72962952      26.48538017
H        0.86272871      40.78673935      22.87843513
H        0.24394657      37.12385559      27.25397110
H        0.52015656      38.45214462      21.92958069
H        0.49481249      39.42274475      26.80052948
H        0.49361569      36.16176987      22.37405777
H        0.59988201      34.35366058      23.87780380
H        0.89549291      41.24019623      25.17242622
C       31.94389915      39.62387085       0.72058928
C       27.22616005      40.33791351       2.43908930
C       30.71796227      38.97419739       0.49051297
C       28.32744026      41.14764786       2.39062333
C       29.50352478      39.43229675       1.02040577
C       29.52265167      40.71271133       1.66989589
C       28.27616882      38.76663589       0.88911891
C       30.78335762      41.34302902       1.91558242
C       32.03343964      40.79780579       1.56915069
C       27.19983292      39.16521835       1.65197444
H       32.84979248      39.05822372       0.39017928
H       26.36188316      40.65782166       3.13593769
H       11.85329437      38.01216507      28.49566460
H       28.46446800      42.16065598       2.86027694
H       28.26307106      37.92090225       0.14368422
H       30.78585243      42.07481384       2.69124770
H       33.05381012      40.99843979       1.92237437
H       26.35279846      38.44854355       1.82941031
C        9.26166821      55.50374603      26.59945869
C       31.73688316      54.01498032       1.09979546
C       10.52956104      55.01240158      26.40395355
C       30.62724304      54.65789032       1.35263741
C       11.38723946      54.59093857      27.43656540
C       29.69045258      54.89356995       0.27761364
C       12.62050819      54.13361359      27.19868851
C       28.45227432      55.57611084       0.50285912
C        8.85563946      55.82651520      27.91698456
C       13.40543079      53.79330444      28.31413651
H        8.54686546      55.84677124      25.90956116
H       32.35699844      53.61351395       1.94069111
H       10.83683872      54.94017410      25.29867935
H       30.43361473      55.09130859       2.31849074
H       12.90011120      53.86159515      26.12848663
H       28.37292099      55.77795410       1.60621035
H        7.88989449      56.26994705      27.95654869
H       14.22996426      53.16392136      28.13148689
C        2.51334620      58.24809647       1.44241583
C       -1.26129460      56.54734802       4.35110855
C        2.03072214      58.56195450       2.64089537
C       -0.70936739      56.15731430       3.16924477
C        0.97603470      57.86471558       3.20831227
C        0.41550356      56.77291107       2.60329485
C        0.33738476      58.33941650       4.47752905
C        1.05823350      56.45046997       1.44758451
C        2.03846478      57.05356979       0.79749256
C       -0.67795545      57.63854218       5.03763390
H        3.25809669      58.79445267       0.77184176
H       -2.11136913      56.02877808       4.71163034
H        2.27534270       0.50119865       3.17464542
H       -1.15269840      55.25419998       2.77045488
H        0.64484936       0.27762303       5.11919022
H        0.72008336      55.54483414       0.94536257
H      -16.31787682      56.76194763      28.38580322
H       -1.07682371      57.97058105       6.00002670
C       33.56005478      57.66183090       4.14730883
C       30.14090347      55.89191437       7.37480402
C       33.02350616      58.15414810       5.28764486
C       30.91275024      55.34948349       6.40830231
C       32.02433395      57.45121384       6.01303387
C       31.77630806      56.15269089       5.59565115
C       31.03042412      58.08483505       6.95386171
C       32.45195007      55.56243896       4.55135345
C       33.27157593      56.35581589       3.77781415
C       30.09279251      57.36553955       7.50223970
H       34.12378311      58.32322311       3.56280231
H       29.46642876      55.28172684       8.06323910
H       33.24806976       0.25269398       5.48621988
H       30.67963028      54.40585709       6.05656004
H       31.02822495       0.17960346       7.08766794
H       32.11357880      54.53858566       4.27519131
H       33.56319809      55.97618103       2.83011627
H       29.39796638      57.93749619       8.15753269
C       16.74706650      27.94025040      10.74858189
C       18.90732765      28.37332344       6.27365637
C       16.22093582      28.32004356       9.52592659
C       19.37866783      27.73121071       7.35899687
C       17.02610397      28.28650475       8.41604614
C       18.48191452      27.82338142       8.52531338
C       16.67247772      28.85539627       7.16335440
C       19.01648712      27.70115852       9.85552788
C       18.07983017      27.74900436      10.89558887
C       17.61184692      28.98831940       6.23380089
H       16.14842415      27.91649818      11.66603184
H       19.44008446      28.63569832       5.40838194
H       15.23377132      28.74903107       9.43399715
H       20.42910194      27.52575684       7.53037453
H       15.80862999      29.32155228       6.83573103
H       20.03427887      27.52063179      10.08923626
H       18.36635780      27.40507126      11.87642765
H       17.22566414      29.41174698       5.40206003
C        2.01454639      33.16436386      27.90182304
C       22.53699875      33.41679382       4.04169321
C        3.09357452      32.59617615      28.50395203
C       21.31214714      33.62514496       3.49429083
C       22.10936356      32.67365265       1.37602782
C       21.13234138      33.23657227       2.21360064
C       23.28867531      32.27219009       1.98093808
C       19.91458702      33.59418869       1.56708324
C       19.77878380      33.64927292       0.20600235
C       23.49004173      32.60800934       3.33732057
H        1.92799509      33.24176407      26.78850746
H       22.83025360      33.55379868       5.00465488
H        3.97090077      32.14523697      27.95134926
H       20.55356789      34.08918381       4.03917122
H       24.07782745      31.75332451       1.39030659
H       19.14388275      33.89276505       2.22184777
H        0.03180505      33.93279648      28.31565666
H       24.41945839      32.39065933       3.93898249
C       -5.73316193      45.06340027      18.55083084
C       -3.01565313      41.10158157      19.69782257
C       -5.52133560      44.47840881      19.75570107
C       -3.40321422      41.66208649      18.57645798
C       -4.69486427      43.30532074      19.81966782
C       -4.23510170      42.79837036      18.55980110
C       -4.20169306      42.75510025      20.99994659
C       -4.74506521      43.32011032      17.33141518
C       -5.31677341      44.54628754      17.29387093
C       -3.34447718      41.61383438      20.98381615
H       -6.20433998      46.00602722      18.52715683
H       -2.47458911      40.14464569      19.69155121
H       -5.97566080      44.98643875      20.62541771
H       -3.18068290      41.20013428      17.67789841
H       -4.48182297      42.93209076      22.04698753
H       -4.55140734      42.73720551      16.44451904
H       -5.55248690      45.11031342      16.45057678
H       -2.87463093      41.09989548      21.83570862
C       36.13034058      52.87767029       2.48114252
C       34.40110397      52.00933456       7.03129816
C       35.86864090      51.73202515       3.27325010
C       34.54319763      53.20654297       6.37581015
C       35.38743591      51.77241135       4.61158609
C       35.16194534      53.11292648       5.07689857
C       35.34900665      50.55868149       5.38559437
C       35.56351089      54.20797729       4.26296377
C       36.11973572      54.09048080       3.01154542
C       34.80263138      50.73899078       6.57034922
H       36.38209915      52.75367737       1.49147415
H       33.84302521      52.09813690       7.94446564
H       35.67390060      50.77494049       2.79950142
H       34.25675201      54.21600723       6.67062759
H       35.80918121      49.65073776       5.01673555
H       35.43376541      55.19281769       4.77107000
H       36.47620010      54.90066528       2.48313880
H       34.76905060      49.85584641       7.29090881
C       17.88204575      30.37556267      27.53407478
C       12.89255810      30.89706421      26.79759598
C       16.91110039      29.41987419      27.45946503
C       13.94410610      31.77898788      26.98733139
C       15.59163761      29.91037941      27.14712143
C       15.23393440      31.29412270      27.17626190
C       14.50463390      28.99962044      27.03919601
C       16.30320549      32.19960022      27.29760361
C       17.56682587      31.75141716      27.48849297
C       13.27319908      29.51422501      26.85089684
H       18.83367538      30.01366997      27.78271103
H       11.88698673      31.27768707      26.69527435
H       17.02938080      28.36469841      27.47220039
H       13.74589252      32.90596390      27.07412720
H       14.58636665      27.94433784      27.16908455
H       16.15409279      33.32053757      27.26138687
H       18.30522537      32.59803391      27.51172638
H       12.40578842      28.81933212      27.05011368
C        0.96212465      29.42035294       9.41356373
C       -0.85520983      30.90703964       5.08454704
C        1.49299121      29.38656235       8.23318195
C       -1.36293495      30.83832359       6.35059023
C        0.88495326      30.04868317       7.12205696
C       -0.48555076      30.51559639       7.43177700
C        1.31782937      30.16647148       5.76568127
C       -0.92825198      30.78066826       8.81210136
C       -0.15938483      30.17178726       9.74696255
C        0.47355703      30.53643227       4.76935673
H        1.37385595      28.89536667      10.27911472
H       -1.53667676      31.09241867       4.21369743
H        2.37553811      28.78157043       8.00033569
H       -2.41261625      31.13782501       6.55294991
H        2.39739847      29.95713806       5.52452660
H       -1.91466069      31.21593475       8.84432697
H       -0.47118196      30.14678001      10.78908062
H        0.73004264      30.54231644       3.75515676
C       16.01910210      35.23524857      10.07369995
C       16.78463745      32.91239166      14.40308285
C       15.24249363      34.40759277      10.87967968
C       17.46331787      33.86888886      13.74537086
C       15.76694298      33.82085800      12.07079124
C       17.02210808      34.20758820      12.50679874
C       14.98911476      32.95214462      12.91769123
C       17.80426216      35.15125275      11.73686886
C       17.24492645      35.62191010      10.57008457
C       15.48239040      32.50675201      14.05956841
H       15.76623344      35.73349762       9.15318203
H       17.20412254      32.47064972      15.30875111
H       14.39920139      33.84078598      10.57176590
H       18.37933540      34.13875580      14.18493652
H       13.95154572      32.88025665      12.68808174
H       18.86017036      35.36972427      11.96160603
H       17.77181244      36.26417160       9.84381008
H       14.93757057      31.90484619      14.71740723
C       -3.14398742      48.91178131      10.97825718
C       -4.23920059      44.65825653      13.42878628
C       -2.48848271      48.17874527      12.04185104
C       -4.88721418      45.37301636      12.48215580
C       -3.07399893      47.08693314      12.55596924
C       -4.27373886      46.50415421      11.92324162
C       -2.65800571      46.41818237      13.78459644
C       -4.73417759      47.09669876      10.79806995
C       -4.22861910      48.34870148      10.31699562
C       -3.15040946      45.18422317      14.12067795
H       -2.75958061      49.92073822      10.88092041
H       -4.70219231      43.72953033      13.80944157
H       -1.66473079      48.59101868      12.62627888
H       -5.74980497      45.07032394      11.85607910
H       -1.88158083      46.73832321      14.37843037
H       -5.48346758      46.60770416      10.22856331
H       -4.70577145      48.89521790       9.52365875
H       -2.69605947      44.54695129      14.81687737
C       22.17486382      43.18599319       7.70079660
C       23.59509087      40.01462173       4.07050371
C       21.69444084      42.04786301       7.20369244
C       24.17916679      41.07192612       4.63986158
C       22.28789139      41.37633514       6.11776400
C       23.55424500      41.92706680       5.60562658
C       21.83953476      40.14436340       5.62993670
C       24.07736778      43.10238647       6.16961050
C       23.41787148      43.74940491       7.19901419
C       22.38937378      39.45024872       4.64893055
H       21.86074257      43.51413345       8.68568039
H       24.07660103      39.38797760       3.27064371
H       20.75751686      41.59036636       7.60459566
H       25.10099411      41.42545700       4.09293127
H       20.84851837      39.73394394       5.98709726
H       25.00810242      43.47739792       5.83996916
H       23.97297859      44.49604797       7.68119717
H       21.88133049      38.59902954       4.24332094
C        8.15998936      53.53822708      16.38930321
C        3.85905743      52.38394547      18.64903641
C        6.83105183      53.69498825      16.07529259
C        5.15893364      52.10750580      19.00620461
C        5.75861502      53.19441986      16.88314056
C        6.16575241      52.55338669      18.06103897
C        4.41229248      53.47618484      16.55930138
C        7.59710646      52.53296280      18.39145088
C        8.62281799      53.05680466      17.66747665
C        3.46414161      53.10528946      17.42893028
H        8.93675232      53.85519028      15.77420616
H        3.14323711      52.22428513      19.52126503
H        6.61653757      54.16616440      15.14766693
H        5.48238945      51.68625259      19.96562767
H        4.08230400      54.16271973      15.72784710
H        7.72066545      51.87488937      19.35663414
H        9.67120457      53.00578690      17.80763817
H        2.48531342      53.39521027      17.36860847
C        3.68330312      42.08516693      14.35261917
C        7.63963985      43.43788528      17.28093147
C        4.47293663      43.28697586      14.32902908
C        7.40714550      42.24488449      16.38680840
C        5.47041035      43.41955185      15.34457493
C        5.97298336      42.20966721      15.96154308
C        6.14257717      44.61853790      15.77861881
C        5.22285032      41.02093506      15.82843399
C        3.99431705      40.98358917      15.09068680
C        7.06327915      44.62064743      16.86934090
H        2.73258424      41.98137665      13.77896595
H        8.23815441      43.36313629      18.11309433
H        3.96354938      44.26902008      13.96843815
H        7.88304949      41.29845428      16.74532318
H        5.79093456      45.54065704      15.33813286
H        5.46415997      40.15760803      16.43777275
H        3.36251163      40.14574051      15.02991104
H        7.42420435      45.52104187      17.38614655
C       15.04959869      45.51606369      17.91425133
C       17.79024887      42.72786713      21.01151466
C       14.87410641      45.17420578      19.28067970
C       17.96052361      43.24739075      19.70889282
C       15.93362617      44.47161484      19.89893723
C       17.07972145      44.16035080      19.14606476
C       15.81960773      43.92473984      21.18883705
C       17.23614693      44.71708679      17.82006264
C       16.23963165      45.44328308      17.24592018
C       16.78355789      43.12548447      21.74383736
H       14.22769451      46.01574326      17.25673676
H       18.48173141      41.90707016      21.26464844
H       13.85625648      45.15691376      19.70691872
H       18.74840546      42.92073059      19.06376648
H       14.86576176      44.26894760      21.73167801
H       18.18243599      44.41053009      17.34309769
H       16.31720543      45.76930237      16.18511391
H       16.66339684      42.76693344      22.76244354
C       34.92718887      34.25170517       1.14080000
C       17.96097755      38.10947418      26.92928696
C       36.15854645      34.82577515       1.02439892
C       16.65846634      37.49833298      27.00749779
C       36.28835678      36.02307129       0.20510148
C       16.44081497      36.43976974      27.88688850
C       37.60564804      36.54515839       0.11538854
C       15.14380455      35.90650177      28.01447678
C       33.83210754      34.81607056       0.41642076
C       19.01732445      37.63087845      27.74962807
H       34.71222687      33.35000992       1.75487006
H       18.03324318      39.00495148      26.44055939
H       37.06166840      34.60663223       1.60286188
H       15.74694824      37.84703064      26.44822502
H       38.42502594      36.22239685       0.78586328
H       14.39755726      36.23641968      27.42175674
H       32.89390945      34.33531570       0.42214534
H       19.99963379      38.06100464      27.56173706
C       23.37354851      46.78687668      21.22753143
C      -13.53067017      50.57951736      22.76442528
C       24.36425018      47.52132416      20.76749229
C      -14.71688747      49.97735214      23.31752777
C       24.78607941      48.70714951      21.28259850
C       24.36976242      49.00632858      22.57264328
C       25.82403374      49.41786957      20.67989540
C       23.31453896      48.18493271      23.16425133
C       22.87753487      47.08752823      22.52578735
C      -13.23349285      50.30870438      21.40150261
H       22.98462677      45.88534927      20.66852760
H      -12.90818405      51.11923599      23.50002480
H       24.65402794      47.18649292      19.81720924
H      -15.25092888      50.16314316      24.27834702
H       25.92658806      49.35083389      19.59927559
H       23.12370110      48.17612076      24.25006104
H       22.29088402      46.24190521      23.13661766
H      -12.23160744      50.67637253      21.05176544
C        8.92969131      48.19792557       6.03754234
C        6.69393969      51.89283371       8.50430775
C        7.64817715      48.24079895       6.50030708
C        7.96690893      51.61263657       8.07678604
C        7.32713842      49.45848465       7.15773392
C        8.27774143      50.46982956       7.33396769
C        6.00766277      49.72639465       7.65096235
C        9.58936977      50.24822235       6.84106874
C        9.91292667      49.16909027       6.11501360
C        5.66400051      50.98063278       8.12169456
H        9.23030186      47.26348877       5.58096695
H        6.49680758      52.77810669       9.17154598
H        6.78113508      47.49891663       6.40311861
H        8.80225182      52.33244324       8.19159126
H        5.28642511      48.94076538       7.55404806
H       10.29883480      51.05003738       7.25127983
H       10.98079395      49.09007645       5.81764269
H        4.59818316      51.02051163       8.33073235
C       -3.58655381      40.01063919      15.68058872
C       -0.50082892      40.62459946      11.76401043
C       -2.74624300      40.95910263      15.30624485
C       -1.39635551      39.64876175      12.07882118
C       -2.04300308      40.93017578      14.07265377
C       -2.17579198      39.75323868      13.26877594
C       -1.10774028      41.96380997      13.75250816
C       -2.96021414      38.65906525      13.75425816
C       -3.66306567      38.76966476      14.93022823
C       -0.34700438      41.83387375      12.63082218
H       -4.13548899      39.91104126      16.62059593
H        0.09800177      40.54199982      10.91290379
H       -2.63096547      41.83292007      15.83468914
H       -1.29369676      38.64743423      11.74464989
H       -1.01707077      42.91341019      14.33353710
H       -3.03865981      37.77599335      13.09760761
H       -4.26546621      37.94575500      15.36106682
H        0.49244991      42.52042770      12.42314148
C        7.37949085      45.55193329      23.34156799
C       12.18431950      44.41935349      24.23955727
C        8.16638184      44.42252350      23.42859268
C       11.36547565      45.60007095      24.67351341
C        9.34426594      44.35791397      24.12882805
C        9.90547943      45.58342361      24.33050728
C       10.13338757      43.03582001      24.12879372
C        9.16094398      46.75963974      24.26291275
C        7.79865503      46.73262787      23.82395744
C       11.48593616      43.16152191      24.84912109
H        6.38592100      45.32067108      22.92824173
H       13.22437859      44.45489120      24.58453178
H        7.72519970      43.49465942      23.09393311
H       11.82106018      46.46766663      24.31778526
H        9.38539505      42.33704758      24.67995453
H        9.45794487      47.65203476      24.74152946
H        7.18622923      47.67670822      23.91454124
H       12.21896458      42.42065430      24.58399582
C        1.57837665      34.98665237       9.55002117
C        4.13582754      30.78154564       8.31253052
C        2.11360765      33.89411926      10.24264717
C        3.78225040      31.95436859       7.61529493
C        2.69384646      32.85184860       9.51303673
C        2.90338016      32.90477371       8.16461182
C        3.21222615      31.72593689      10.21536350
C        2.32848644      34.00892639       7.44323540
C        1.72785091      35.05337143       8.10231590
C        3.78265738      30.63594055       9.68133354
H        1.07639682      35.83330154      10.07103729
H        4.63583088      30.01044655       7.72700119
H        2.00043464      33.86058044      11.31080818
H        3.76248550      31.78423119       6.55199862
H        2.93388438      31.60115051      11.17549992
H        2.24992490      33.77302170       6.27827406
H        1.11371195      35.75746918       7.47301388
H        3.87844872      29.63073349      10.13446522
C       18.93922043      31.47018814       3.42787743
C       20.96670914      31.10694885       8.03862953
C       20.15794373      31.05773735       3.95631909
C       19.70960426      31.46095657       7.63169193
C       20.35124779      30.86216354       5.35220671
C       19.39252090      31.40122032       6.24477482
C       21.71113777      30.57412338       5.79796839
C       18.10982132      31.66856766       5.71462822
C       17.90712929      31.75920486       4.40840387
C       21.93671417      30.62078857       7.15729856
H       18.68523407      31.24701118       2.37191868
H       21.19231987      31.05683136       9.09994316
H       20.91796303      30.54153061       3.35900044
H       18.87631798      31.76421356       8.28178406
H       22.41936302      30.14607429       5.01199579
H       17.36321068      32.02735519       6.38228464
H       16.95043945      32.03648376       4.01258612
H       22.86091042      30.31383514       7.57864141
C       30.41049385      36.62544250      11.26619244
C       31.22588539      32.65268707       8.36613941
C       30.50975227      35.28433228      11.54148197
C       31.19321632      33.96698380       8.07857800
C       30.67098045      34.44849777      10.42600822
C       31.01138687      34.95619202       9.12827778
C       30.69903755      33.05136108      10.60194683
C       31.19384575      36.34088516       8.97976112
C       30.72736931      37.15945053       9.98473549
C       30.97071838      32.14115524       9.65060806
H       30.20321655      37.21687317      12.16602898
H       31.24206543      31.90410995       7.57987404
H       30.43159485      34.78757477      12.52281761
H       31.57217979      34.31469345       7.14332199
H       30.74134064      32.67921448      11.61143780
H       31.50456619      36.78768158       8.00635719
H       30.83776855      38.20490646       9.96781445
H       31.29265976      31.08542442       9.80670929
C        2.15390992      52.06833649      26.14077759
C        6.79344177      50.29565811      27.23315048
C        3.02976251      51.30000687      25.38944626
C        5.88927698      51.12184906      27.89809227
C        4.37586355      51.03237152      25.98624039
C        4.66580105      51.36203384      27.32626915
C        5.27158403      50.17002106      25.32491684
C        3.65563655      52.09967041      28.00006485
C        2.54456782      52.54114914      27.45266724
C        6.46710253      49.74727249      25.93275833
H        1.08392406      52.14381790      25.79564857
H        7.83794355      50.15314865      27.56436920
H        2.81654167      51.08647919      24.33929634
H       24.82555771      51.58339691       0.30908057
H        5.04457951      49.84684372      24.37441635
H       22.67486000      52.26863098       0.50790203
H        1.87652647      53.09176636      28.08381081
H        7.22954321      49.18356705      25.37695312
C       12.13591480      41.42727661       7.78854799
C       10.53547382      38.13439560       4.29459858
C       12.00737190      40.05467224       7.81430244
C       10.62547112      39.51479721       4.32546282
C       11.54385376      39.34925461       6.62992096
C       11.06957722      40.13001633       5.55513334
C       11.46615696      37.97330856       6.52050495
C       11.20153618      41.57576752       5.61386395
C       11.64147568      42.20891571       6.74472094
C       10.99308968      37.34413910       5.42172861
H       12.68367100      41.90334320       8.58521843
H       10.29720402      37.55745697       3.36774206
H       12.33958817      39.42290115       8.66417503
H       10.32461166      40.00943375       3.43981242
H       11.69688225      37.43925476       7.37848520
H       10.94503403      42.13277435       4.71792316
H       11.92774963      43.27347946       6.62512827
H       10.96076775      36.25505066       5.54886341
C       14.39237213      33.34986114       7.72660923
C       12.52796650      32.31739807       3.27336574
C       14.75075150      32.45930862       6.83473539
C       12.38709545      33.38358307       4.14636898
C       14.12202358      32.49870300       5.51146650
C       13.17473412      33.50611114       5.34515142
C       14.35657215      31.46098137       4.52152348
C       12.89828873      34.49700928       6.34892797
C       13.46257019      34.46504593       7.58969688
C       13.52383900      31.32211304       3.46591187
H       14.64524841      33.21365738       8.76716614
H       11.76865005      32.04800797       2.50200272
H       15.38080597      31.57630730       7.27279902
H       11.72872067      34.15644073       3.98509264
H       14.92896175      30.58056259       4.69457102
H       12.06491566      35.17424393       6.18989372
H       13.14487839      35.00439835       8.45701599
H       13.70680046      30.58596039       2.70404696
C        9.55856609      35.54674530       8.31755733
C       11.60686302      34.37567520      12.77210903
C        9.63455009      34.33255386       8.95789242
C       11.51098633      35.56883240      12.04272556
C       10.40474415      34.27154922      10.19844151
C       11.00905705      35.48832321      10.69938946
C       10.70828438      33.12722397      10.99496365
C       10.89245129      36.67485428       9.98564816
C       10.25139618      36.69408417       8.76392555
C       11.17591953      33.18798828      12.24397278
H        8.82546806      35.71500778       7.49585056
H       11.87886906      34.44755173      13.80437183
H        9.14216423      33.45224762       8.56468391
H       11.69926548      36.54785156      12.41719437
H       10.30663300      32.21932220      10.60680866
H       11.29133320      37.62818909      10.51859951
H       10.00072384      37.66270065       8.25305271
H       11.16122627      32.31399536      12.91953564
C       -5.11992884      34.59366226      28.50160789
C       16.06744003      30.29287338       0.69059485
C       13.25210857      33.32950974       0.10557410
C       16.43645859      31.58770943       0.61040306
C       14.18561745      32.28595734       0.25142342
C       15.48638344      32.58147430       0.41546869
C       13.79122067      31.02661324       0.20207481
C       15.91820240      33.88293076       0.25002086
C       -3.75925136      34.89035416      28.52563095
C       14.71828461      29.99527550       0.35495755
H       -5.87443495      35.39952087      28.46372604
H       16.80247879      29.52503586       0.79489714
H       -6.62019300      33.24538422      28.51341629
H       17.50695419      31.87080956       0.68509680
H       -5.93039227      30.60277176      28.28207970
H       17.01672745      34.23883820       0.25001267
H       -3.54610920      35.92831039      28.36579514
H       14.41491985      28.92438126       0.26451302
C        0.91600561      42.10868835       6.04907513
C        2.71242118      38.44353104       9.03436852
C        1.34968257      42.03829575       7.29009199
C        2.15374589      38.46538162       7.75191736
C        1.88113093      40.88412476       7.88851070
C        1.82292461      39.69348907       7.12676096
C        2.18182063      40.84374619       9.20932007
C        1.23552847      39.70853424       5.81833267
C        0.73086923      40.88242722       5.29133224
C        2.65118861      39.64192581       9.69040585
H        0.72337979      43.04157639       5.55351543
H        2.92402029      37.50457382       9.44153118
H        1.50423467      43.03562927       7.84262466
H        2.11357355      37.59460449       7.12670326
H        2.40010166      41.83502197       9.73253345
H        1.03692436      38.83789062       5.21710730
H        0.16590095      40.87564468       4.32033920
H        3.16503930      39.81112289      10.66864109
C       22.85301590      52.97754288      16.29416466
C       24.08544540      48.07036972      16.37388420
C       23.26260567      52.08026886      15.40760612
C       23.57166290      48.86813736      17.36248207
C       23.39266968      50.73084641      15.74941254
C       23.29907608      50.21548843      17.04354477
C       23.67226601      49.85276031      14.72346020
C       22.91755104      51.20034027      18.02715683
C       22.70220375      52.50689316      17.63594437
C       23.97857666      48.55150223      15.02753162
H       22.67469978      54.03197098      15.98451424
H       24.33751678      47.08831406      16.40153885
H       23.19344139      52.45869064      14.32432938
H       23.33404922      48.48749542      18.27897453
H       23.69548798      50.15414429      13.64862251
H       22.83786201      50.95521545      19.02827835
H       22.35390472      53.18482971      18.41340828
H       24.18741417      47.94902802      14.12132835
C       -4.51300001      45.50561523       7.77664232
C       -1.52127159      45.57770920       3.68876696
C       -4.20640659      44.62887573       6.77659035
C       -2.10546541      46.56836700       4.38416958
C       -3.48885632      44.91691208       5.66500473
C       -3.06447744      46.22467422       5.43384552
C       -3.02245545      43.90149689       4.72433519
C       -3.42108965      47.17730331       6.43817902
C       -4.07838964      46.85078049       7.54268074
C       -2.03183722      44.29120636       3.90019274
H       -4.99731636      45.14488602       8.73123169
H       -0.89904529      45.93978500       2.95973802
H       35.17434311      43.58667374       6.95086241
H       -1.82301402      47.62623215       4.27407503
H       36.46443939      42.86229324       4.94867182
H       -3.06041026      48.21568680       6.29267454
H       -4.23434305      47.65013504       8.26914024
H       -1.67798877      43.32182693       3.38928628
C       20.62023544      50.56567764       1.72171748
C       17.39095306      46.88594437       0.53594863
C       20.59765625      49.66606903       0.68279892
C       17.29165649      47.95647812       1.38653016
C       19.46338272      48.76779175       0.57143110
C       18.35157394      48.94692612       1.44729960
C        0.73083431      47.59700394      28.21573639
C       18.39290810      49.93275070       2.41776109
C       19.53239632      50.73095703       2.59639311
C       -0.26332328      46.74872589      28.18906212
H       21.41831398      51.20988464       1.82844222
H       16.59161377      46.15668488       0.38425934
H        2.68836474      49.60149384      28.50876427
H       16.49241829      48.00593567       2.18263006
H        1.72891462      47.39418030      27.79386139
H       17.61321068      49.79448700       3.10288668
H       19.77142143      51.49982071       3.38218307
H       -0.19304529      45.90334702      27.55565834
C        9.31467819      51.00598907      14.62426090
C        5.46265078      49.29773331      17.39162445
C        9.15255833      50.65998077      15.95857430
C        5.56278706      49.89472198      16.21036148
C        7.85798597      50.27978516      16.50594330
C        6.77906132      50.34003830      15.65214443
C        7.85974455      49.55370331      17.76934242
C        6.93965292      50.66984558      14.25567150
C        8.16335487      51.05228424      13.79974365
C        6.62831736      49.20422363      18.14752007
H       10.23615646      51.46329880      14.30554676
H        4.51235723      49.12243271      17.96465492
H       10.00954151      50.67476654      16.60416985
H        4.67272091      49.87486267      15.59859943
H        8.67384434      49.42002106      18.51407433
H        6.06806803      50.69723511      13.57491779
H        8.29398823      51.54108429      12.81719589
H        6.56470919      48.72457886      19.08143616
C       -0.46208134      45.75178146      11.40552998
C       -1.61616516      43.49655533       7.13888931
C       -1.26620638      44.73857498      11.04201794
C       -0.93131012      44.72063065       7.35288334
C       -1.40873170      44.34220886       9.71619797
C       -0.88308287      45.21780014       8.67721939
C       -1.93866074      43.11302567       9.42842007
C       -0.13168859      46.32745361       9.07277203
C        0.06133262      46.65461731      10.41788387
C       -2.01897073      42.68630219       8.14094162
H       -0.56518692      46.09159470      12.43783855
H       -1.46944118      43.11463165       6.11659813
H       -1.88672638      44.24259949      11.85313988
H       -0.46417642      45.20109940       6.55166292
H       -2.10660982      42.39166260      10.32700825
H        0.55774742      46.84935379       8.32928944
H        0.55284369      47.50848770      10.71080589
H       -2.44636464      41.68619156       8.01509380
C       25.52393532      30.45909691      21.09535599
C      -13.71891975      31.21181870      26.15047646
C       25.28150940      31.58431816      21.82846069
C      -13.66569614      30.21479034      25.21331215
C      -14.21181965      31.56799507      23.28909302
C      -13.89913273      30.26741791      23.79394531
C      -14.32904911      32.68103409      24.26136398
C      -13.79300213      29.08583450      22.95858192
C      -13.92270660      29.21112061      21.63799667
C      -14.12320137      32.43305206      25.60935211
H       25.29896164      30.55735397      20.08686638
H      -13.68629932      30.95903778      27.21098518
H       25.20510864      32.42932892      21.09233856
H      -13.50574398      29.14443970      25.53877831
H      -14.67661762      33.64536285      23.92119217
H      -13.57359123      28.03054047      23.38621902
H      -13.78187370      28.39110565      20.93836403
H      -14.19872379      33.22378159      26.27177811
C       -5.93837118      49.84119034      28.45265579
C       -1.02071810      51.00392914      27.78948975
C       13.55690479      51.01239014       0.15183491
C       -1.82978916      49.95373535      27.51234245
C       -3.79769683      51.08417130      28.52529144
C       -3.17454219      50.03340912      27.90119171
C       15.88466549      52.23414993       0.30424869
C       -3.95740557      48.88756561      27.54256439
C       -5.29956675      48.81952286      27.76107788
C       -1.58582926      52.10752487      28.45508194
H       -6.96300268      49.90005875      28.46407700
H        0.05969100      50.99508667      27.48531532
H       13.05836391      51.90143585       0.63432336
H       -1.50330651      48.97558975      27.01441574
H       15.51424789      53.03493881       0.93622142
H       -3.44380808      48.10766220      26.94974136
H       -5.91219234      47.95429611      27.57454681
H       17.92748070      52.92052078       0.09311803
C       10.33655071      54.68030548       8.77290154
C        8.42199230      54.45697784      13.28367901
C        9.04442883      54.30596161       9.15420246
C        9.66984653      54.52333450      12.72747326
C        8.72768402      54.29660416      10.53340626
C        9.84289360      54.34485626      11.39250851
C        7.44214106      54.08324051      11.15800858
C       11.15944386      54.66611862      10.90456200
C       11.41379547      54.75817871       9.60013199
C        7.24263620      54.24338913      12.52404785
H       10.46667194      54.73789597       7.66737890
H        8.45090008      54.50144196      14.38066483
H        8.27042103      54.24095535       8.31719494
H       10.62231731      54.59175873      13.34778690
H        6.55260372      53.88153458      10.54113388
H       11.93801022      54.83588028      11.67581081
H       12.42236328      54.93645859       9.32740688
H        6.19678116      54.20429230      12.85850811
C       21.87766075      35.75651550       6.91672134
C       17.10496712      37.22348022       6.70790386
C       21.28782463      36.96347427       6.95069075
C       17.68358040      35.94668198       6.77052975
C       19.85416222      37.03816605       7.00777817
C       19.09165001      35.86270905       6.98676872
C       19.22544861      38.26705170       7.00837135
C       19.71473503      34.60640717       6.92041159
C       21.08970642      34.59200287       7.00106764
C       17.87134743      38.32175446       6.81637001
H       22.98324203      35.68564987       6.87511921
H       16.05547523      37.22447205       6.58865738
H       21.67094803      37.90356064       6.83674049
H       16.95873833      35.12062073       6.64470863
H       19.94308853      39.13665390       7.26211500
H       19.20257187      33.69696808       7.08629751
H       21.66921425      33.65665054       7.09978437
H       17.44015884      39.28525162       6.93197250
C       29.51601982      57.14395905      10.65853596
C       27.80856514      57.30069351      15.29121304
C       29.38003540      58.19135284      11.51069069
C       28.22676086      56.18280411      14.50867558
C       28.75697136      57.83712769      12.77646351
C       28.62619019      56.50092316      13.12732697
C       28.27538109      58.90130615      13.54651833
C       28.87080574      55.47142410      12.21348190
C       29.19326973      55.78325272      10.94553471
C       27.83655167      58.59310913      14.78405285
H       29.75461769      57.46088791       9.72528744
H       27.50077438      57.24011230      16.32047844
H       29.33375168       0.27503133      11.05973339
H       28.13682747      55.17956924      14.82550240
H       28.53020859       0.97435045      13.30224323
H       28.75375366      54.42501068      12.36714363
H       29.51649857      55.10388184      10.18845940
H       27.45948410       0.46412703      15.50502014
C       22.10168266      42.91371536      22.54198647
C       20.67093849      40.33420181      18.44717216
C       22.05728149      41.58484650      22.11396599
C       20.67518425      41.66529083      18.79493523
C       21.50047302      41.07647324      20.95060921
C       21.18398094      42.12472153      20.03112602
C       21.33524323      39.70138550      20.70020676
C       21.39126205      43.54561615      20.31724358
C       21.80451775      43.91054535      21.66833305
C       20.93677521      39.37872696      19.41420174
H       22.40356255      43.14912033      23.54928207
H       20.19582558      39.91721725      17.50312805
H       22.58056259      40.74799728      22.78470993
H       20.38653564      42.40266037      18.01457787
H       21.50307274      38.93280029      21.44146347
H       21.07623863      44.34253693      19.56199074
H       21.80857658      44.94183731      22.04599380
H       20.89381981      38.35566711      19.06142044
C       -1.84192252      41.94158173      24.73772240
C       -4.95699930      45.56432724      26.37298203
C       -2.88955116      42.66723633      24.23332787
C       -3.89644098      44.96805954      26.95142937
C       -3.66509604      43.57597351      24.93989944
C       -3.28057051      43.92230225      26.28339958
C       -4.71757650      44.25111771      24.38334084
C       -2.18520427      43.21504211      26.78933334
C       -1.49755764      42.28254318      26.09661293
C       -5.40081692      45.20107269      25.06154823
H       -1.33932459      41.20606232      24.20432091
H       -5.53214741      46.27149200      26.90896797
H       -3.11992335      42.49858475      23.16413689
H       -3.68392134      45.10782242      28.02145386
H       -5.09294653      44.11451721      23.38436699
H       -1.82794023      43.58201981      27.73467636
H       -0.77136070      41.65307236      26.56400681
H       -6.26240015      45.66327286      24.55877876
C       13.31796646      39.68182373      12.60861206
C       13.54555225      37.50263977      17.25940132
C       12.29396343      39.14002609      13.53315449
C       14.31170177      38.43840027      16.57797050
C       12.86909390      38.46495056      14.76951027
C       14.09308052      38.86000824      15.30193329
C       12.06840610      37.47519684      15.38128281
C       14.84204388      39.88801193      14.48456192
C       14.54576588      39.91474915      13.08857059
C       12.38589191      37.04639816      16.68404770
H       13.07468224      39.78770065      11.50872231
H       13.75512505      37.20140839      18.26318359
H       11.49101830      38.37235260      13.24222565
H       15.14793396      38.89976883      17.01997375
H       11.14008427      37.15038300      14.91875267
H       15.84642506      39.61934280      14.71119785
H       15.25383472      40.33627701      12.37304592
H       11.68438339      36.31863403      17.09807968
C        0.04953609      50.51840973      13.57340336
C        1.12918615      53.10490417       9.30643749
C        0.25351053      50.13990021      12.28777695
C        0.96483999      53.42496490      10.62161732
C        0.56838757      51.07802200      11.21874905
C        0.62866211      52.45698929      11.58330345
C        0.79287523      50.76996231       9.87903023
C        0.46658081      52.78842163      12.92402935
C        0.23058504      51.85926437      13.91831589
C        0.84310514      51.77107239       8.89943504
H       -0.23623377      49.76490021      14.31939507
H        1.63405192      53.75235748       8.58624172
H        0.13437480      49.09401703      12.11265087
H        1.29666555      54.43218613      10.92046928
H        0.61493438      49.77175522       9.50281620
H        0.53664124      53.78277969      13.44292545
H       -0.04002825      52.23014450      14.91468239
H        0.86281329      51.45307159       7.88491154
C       -3.51609015      37.97918320      26.59659767
C       -7.68934631      40.16059875      25.05795288
C       -4.76365805      37.55035019      26.68494606
C       -6.41118002      40.63985443      25.25595665
C       -5.79092455      38.44795990      26.33047104
C       -5.51253033      39.82321548      25.86540413
C       -7.14439821      38.16255188      26.39658737
C       -4.18849039      40.28776550      26.05486298
C       -3.24303651      39.40908813      26.35741806
C       -8.03816795      38.96673965      25.71595383
H       -2.72365093      37.42145538      27.01764107
H       -8.53541660      40.70778275      24.63109779
H       -5.14463902      36.57720566      26.93444633
H       -6.12191534      41.63699722      24.84826469
H       -7.43324041      37.22194672      26.96385384
H       -3.96535444      41.31941605      25.88040733
H       -2.24131298      39.77761841      26.39151001
H       -9.19264793      38.62181091      25.87593269
C       -6.88027096      40.39508438      21.72561073
C       -7.87914371      37.87884140      17.41113663
C       -6.62002468      40.48465729      20.36399651
C       -8.40143585      37.73595810      18.66868973
C       -6.97336054      39.63953781      19.39195824
C       -7.85393381      38.52579498      19.77075768
C       -6.57733059      39.73816299      18.05513954
C       -8.19269943      38.46265793      21.19377327
C       -7.62715578      39.31547546      22.16278839
C       -6.85353136      38.83888626      17.09187508
H       -6.28854847      41.02359009      22.33201790
H       -8.50308609      37.34429932      16.66506386
H       -6.01114511      41.39170074      20.02213097
H       -9.22800541      37.06418228      18.84137344
H       -5.97318125      40.51501083      17.66563797
H       -8.65008545      37.57970428      21.64165688
H       -7.75404930      39.14207840      23.21541023
H       -6.52297115      38.86853027      16.10999870
C        5.18413210      42.37687302      10.75333500
C        8.62100410      43.77376556      14.44447327
C        5.82699919      41.58767319      11.78688717
C        8.07438183      44.27877045      13.30848503
C        6.81345940      42.21454620      12.66142559
C        6.99042654      43.58590317      12.53209782
C        7.54343700      41.51187134      13.79806614
C        6.43604708      44.30643845      11.47239590
C        5.55061913      43.69537735      10.63953209
C        8.25454712      42.37948608      14.92403412
H        4.34753942      42.00236511      10.14421654
H        9.34488964      44.34455109      14.97752762
H        5.54375124      40.57552719      11.92939758
H        8.44531536      45.18844986      12.79009914
H        6.93172932      40.83616638      14.42480087
H        6.60336161      45.36067963      11.39265060
H        5.05457783      44.37785721       9.95694065
H        9.18942451      41.89170837      15.21789360
C       28.58650398      37.45905685      15.01875496
C       27.81063461      32.73422623      16.11716652
C       28.58727646      36.30932999      14.26680851
C       27.97297096      33.82371902      16.89161873
C       28.62540817      35.11634064      14.89453030
C       28.35485077      35.04254150      16.29503059
C       28.43831635      33.84399033      14.15798569
C       28.27953720      36.22940063      17.01908493
C       28.43163872      37.43102646      16.38196182
C       28.02864075      32.70518494      14.72538662
H       28.49514389      38.46446991      14.46256828
H       27.42684746      31.96578026      16.73305511
H       28.91644859      36.32710266      13.25403500
H       27.58225060      33.84210205      17.94412231
H       28.65250778      33.76338196      13.09366894
H      -11.59956646      36.29122162      18.10435867
H       28.37529373      38.39448547      16.97434425
H       27.82292748      31.78801537      14.17526722
C       23.05373383      55.42644119       0.26504317
C       23.62686920      53.38053131       4.84144831
C       24.18871880      55.17334366       1.05201948
C       22.57370567      53.87432098       4.18814230
C       24.06204414      54.65501404       2.35314822
C       22.69767761      54.43879318       2.88096118
C       25.10494423      54.16657639       3.14565253
C       21.60409737      54.93026733       2.04714942
C       21.77560806      55.42185211       0.73716539
C       24.85630989      53.62025452       4.34483004
H        4.37596846      55.55933380      27.71588326
H       23.48582268      52.66596222       5.72987270
H       25.26126671      55.33990097       0.61757952
H       21.62612534      53.50183868       4.51188993
H       26.18745041      54.40707779       2.91308522
H       20.54121590      54.90945435       2.34507537
H       20.85499001      55.55646515       0.18647081
H       25.72404289      53.30046844       4.86886311
C        7.08807278      31.48740578      15.92984200
C       12.24687767      31.71476555      15.39883041
C        8.04207134      30.90793228      15.14525795
C       11.35921860      32.21063614      16.38807678
C        9.43205833      31.25642776      15.23702908
C        9.89192295      32.05918884      16.31826973
C       10.35167122      30.65536308      14.32330132
C        8.85264206      32.65618896      17.20278740
C        7.55717039      32.38470078      16.94437981
C       11.70539856      30.87709808      14.42791557
H        6.06096125      31.13575554      15.79833031
H       13.30046654      31.79233551      15.58725739
H        7.75744629      30.35471535      14.23841667
H       12.03394985      32.78548431      17.07988548
H        9.97783852      30.12918854      13.41094685
H        9.24894810      33.39086151      17.83278275
H        6.78424501      32.80166626      17.62521553
H       12.31630707      30.43679810      13.65424919
C        4.23252726      47.17922974      26.03589249
C        0.26335016      47.93858719      23.03808784
C        3.18506861      47.99337769      26.13962746
C        1.55165553      47.67217636      22.77931213
C        2.23671818      48.14498901      25.07177544
C        2.52004409      47.60943985      23.78780365
C        0.89587271      48.61710358      25.29442978
C        3.72617531      46.80320740      23.70738602
C        4.48013449      46.55413818      24.80846024
C       -0.06879202      48.46274567      24.30983353
H        5.04772854      47.01762009      26.71962357
H       -0.54559398      47.70305634      22.37242889
H        2.99674678      48.52507019      27.04833412
H        1.99206495      47.17110443      21.82596397
H        0.82153785      48.98448181      26.39359856
H        3.84516072      46.36317444      22.75938606
H        5.25766563      45.75661469      24.75310707
H       -1.10715294      48.68247223      24.45922279
C       21.38746262      38.93760681      13.16184807
C       23.34828567      39.64562988       8.52494335
C       21.85119247      40.10172272      12.62081146
C       22.70424843      38.65856171       9.19053268
C       22.36951065      40.04568100      11.20496941
C       22.16510773      38.83087158      10.50911331
C       23.02688026      41.01403046      10.51725960
C       21.56353378      37.71511078      11.13238811
C       21.28710365      37.72283173      12.46215916
C       23.49811363      40.83530808       9.24843788
H       21.00060654      38.99492264      14.14725399
H       23.64631081      39.55258942       7.46420383
H       21.84537125      41.13366318      13.02213573
H       22.58407974      37.67543030       8.76776028
H       23.17406273      42.03357315      10.92427540
H       21.32122993      36.85575485      10.48860550
H       20.76411057      36.85984802      12.93094254
H       23.86936378      41.73847961       8.73318577
C       22.56373978      46.86934280       6.78249311
C       24.01201057      50.54001617       3.66548753
C       23.81104469      47.34313202       6.32002306
C       22.85075569      50.17702103       4.25486326
C       23.94182777      48.38888931       5.34169245
C       22.71501160      48.96099091       4.94617653
C       25.16884995      48.96077347       4.95048141
C       21.42621613      48.39145279       5.33449268
C       21.37754059      47.36421204       6.24123812
C       25.25148201      50.04116058       4.12003708
H       22.46321869      46.13917160       7.61210489
H       23.91989899      51.38051987       2.99761796
H       24.72370338      46.78549576       6.63558340
H       21.94729805      50.78815079       4.13022470
H       25.99306488      48.74064255       5.47228718
H       20.52027321      48.87011337       4.85689116
H       20.45770645      46.99458313       6.64328146
H       26.20009995      50.43216705       3.77781296
C       11.62927628      33.09341431      24.46920013
C        8.87913990      33.25162888      20.26523781
C       11.81567383      32.72539902      23.15881538
C        8.63926506      33.85447311      21.51622200
C       10.73722935      32.90798187      22.27636719
C        9.51668644      33.61183548      22.62004852
C       10.98167038      32.43161392      21.06780243
C        9.38946819      33.91173553      24.00498581
C       10.37880516      33.55974960      24.85111809
C       10.05155373      32.54072189      20.01847458
H       12.32367229      32.82951355      25.23156166
H        8.14273167      33.35101700      19.59217834
H       12.63384438      32.11314011      22.96197891
H        7.69741631      34.37268448      21.81859779
H       11.84741306      31.84725380      20.96784973
H        8.55825424      34.46580505      24.33932877
H       10.25870514      33.79243851      25.94475937
H       10.21857357      32.13022614      18.98315620
C        4.02573156      50.65569687      22.02595329
C        8.63671207      48.74684525      21.36866951
C        4.43855238      49.39356995      21.74434280
C        8.12256145      49.83621597      22.00243187
C        5.82898855      49.07481766      21.65458870
C        6.73058987      50.04716492      22.12036896
C        6.34849071      47.86796188      21.14578438
C        6.27395821      51.36441803      22.32183647
C        4.93067074      51.64085007      22.37855148
C        7.74906492      47.76618958      21.03305054
H        2.92265344      50.87539673      22.12170601
H        9.69773197      48.43392181      21.22751617
H        3.76538229      48.57107544      21.91904259
H        8.76514149      50.66819763      22.19560432
H        5.70969152      47.00790024      20.97432518
H        6.93754625      52.10908508      22.51453972
H        4.57792711      52.64356232      22.44495201
H        8.14619160      46.88924789      20.61735535
C       20.26103401      49.04975891      19.92519951
C       19.63260078      47.10303116      24.52611542
C       20.01992226      47.74913406      20.40654182
C       20.16843033      48.27829742      24.12098503
C       20.02592850      47.55118179      21.80825424
C       20.32699585      48.59197617      22.66663933
C       19.40762329      46.28894043      22.28673935
C       20.66451073      49.82989502      22.14186478
C       20.73282242      50.07382202      20.79292107
C       19.20469284      46.12758255      23.59390450
H       20.23833084      49.09309769      18.84016991
H       19.24271774      46.85937881      25.51310730
H       19.95562935      46.92160034      19.65217400
H       20.26346397      49.16992950      24.74449158
H       19.01658630      45.61026764      21.46597290
H       20.92548752      50.73128128      22.75288773
H       20.84047699      51.03079224      20.16181183
H       18.60613441      45.19918823      23.84947777
C       13.74400043      51.82042694      24.66278839
C       18.12921906      53.90051270      23.65815735
C       14.43756676      51.94723129      23.51284027
C       17.57199287      53.53496552      24.77806473
C       15.62094975      52.65559006      23.59220886
C       16.26086426      52.99000168      24.83972931
C       16.25174522      53.10874558      22.37410736
C       15.65975571      52.49085236      25.96866417
C       14.42100906      51.90087509      25.84174156
C       17.47686577      53.63860703      22.35331345
H       12.67693710      51.48621368      24.61328697
H       19.03988838      54.39968109      23.65169907
H       14.17106438      51.83525467      22.47629547
H       18.16977692      53.76708221      25.69861984
H       15.72073555      52.84088516      21.46321106
H       16.13165283      52.65968704      26.95797729
H       13.88534737      51.59059525      26.70677948
H       18.04075813      53.92034912      21.46426392
C       28.24562073      52.34171295       2.39508390
C       28.55812454      47.56214142       0.70963103
C       27.28473473      51.43420410       1.99744916
C       29.45937538      48.56167984       0.98565167
C       27.65107918      50.14665604       1.52220213
C       29.03721428      49.84771729       1.43749857
C       26.73004723      49.07691574       1.19137967
C       30.09862328      50.79632568       1.71473336
C       29.71452904      52.02659607       2.18786860
C       27.23997307      47.84402466       0.83580261
H       28.02168846      53.36554718       2.80062246
H       28.86045456      46.70481873       0.12289878
H       26.24755096      51.73871994       1.96625912
H       30.53357315      48.48869705       1.05569923
H       25.76045990      49.41236496       1.28121471
H       31.14570808      50.51274109       1.47363794
H       30.51749229      52.68501663       2.56272435
H       26.62363434      46.96626663       0.68686020
C       -1.31113708      34.37969208       5.98823404
C       -1.37269747      38.48949051       8.77734184
C       -1.56283891      35.65948486       5.67268324
C       -1.46006787      37.23241806       9.10222244
C       -1.55397105      36.63731003       6.71024227
C       -1.41559553      36.22842407       8.05428219
C       -1.50064588      38.07840347       6.40732718
C       -1.47355270      34.86054993       8.33555508
C       -1.29120338      33.91957474       7.34785891
C       -1.32241333      38.95822144       7.37891865
H       -1.16369581      33.65575790       5.27068710
H       -1.49530613      39.32416534       9.41848373
H       -1.65532458      35.94669342       4.61555672
H       -1.63612640      36.85044098      10.11424351
H       -1.55924463      38.47364426       5.39211607
H       -1.65233886      34.51187515       9.39437771
H       -1.26175833      32.82141113       7.55808115
H       -1.23029661      40.05763626       7.38098097
C        3.87513685      52.01034927      13.43476391
C        3.61774588      55.85482025      10.18279457
C        3.35744524      53.28687286      13.43854237
C        4.13870096      54.62146378      10.12395191
C        3.37154961      54.21889114      12.39688492
C        4.04023743      53.78523636      11.23886585
C        2.86852217      55.49967575      12.42525482
C        4.47194672      52.44152069      11.11871338
C        4.41433430      51.56886673      12.18829727
C        2.93096447      56.31238937      11.32741928
H        3.87923241      51.37859726      14.34407520
H        3.67358613      56.42340088       9.26331043
H        2.71403050      53.61779785      14.23439980
H        4.41967583      54.31288910       9.18049240
H        2.19820404      55.76013947      13.24079990
H        4.71858025      51.98984528      10.14398956
H        4.81568909      50.55261993      12.09111214
H        2.51982856      57.41493225      11.40312004
C       11.41466141      57.40816116      13.36292076
C        9.46210957      58.92232895      17.70411301
C       11.62985611      56.92266846      14.63904476
C        9.38836288       0.40269607      16.39197922
C       11.00178909      57.60523987      15.75810432
C       10.19267178      58.70332718      15.41339207
C       11.22531509      57.31934738      17.15635490
C       10.08778667       0.27533782      14.10103321
C       10.67343330      58.56846619      13.02204323
C       10.52726555      58.09046173      18.10134315
H       11.76319790      56.75553131      12.57185650
H        8.87531090       0.40882283      18.56236839
H       12.00666237      55.93618774      14.80870724
H        8.64640045       1.20579374      16.15370750
H       12.06540394      56.67481613      17.32287025
H        9.47712135       1.10852110      13.97299862
H       10.42624664      58.79526901      11.93809032
H       10.67856884      57.68709564      19.11026382
C       -7.20661640      56.38633728      24.54090118
C       -9.53183937      52.63895798      26.70963478
C       -6.73791170      55.37683487      25.34742355
C       -9.90423679      53.65825272      25.85662651
C       -7.66647482      54.40003967      25.67202187
C       -9.05748367      54.61182404      25.28470993
C       -7.28372383      53.24063110      26.34470558
C       -9.47232342      55.75756836      24.68725586
C       -8.51497555      56.62765121      24.29865074
C       -8.14724827      52.36936569      26.83950996
H       -6.48947382      57.18694687      24.25583839
H      -10.21877480      52.00789642      27.25701141
H       -5.71173859      55.10469055      25.54944038
H      -10.96487999      53.79133224      25.70247841
H       -6.32244921      52.91305923      26.57398224
H      -10.49807262      55.96809387      24.56083870
H       -8.94533062      57.47565842      23.72378159
H       -7.63728046      51.56150436      27.43528748
C        2.62131786      43.73920059      27.28868103
C        7.27388954      42.38802719      28.50243568
C        3.72154069      44.41421127      27.68680573
C        6.18747664      41.62134552      28.30121613
C        4.99592018      43.68689728      27.93920136
C        5.00332117      42.29618454      27.90409088
C        6.20207500      44.42583847      28.07079315
C        3.90665936      41.67115021      27.32917023
C        2.76294398      42.36417389      27.05511475
C        7.34331083      43.74743271      28.32950211
H        1.62665474      44.23138046      27.01726913
H       26.98558998      41.80332565       0.05122668
H        3.80891395      45.57184219      27.67160988
H        6.30456066      40.50617981      28.35965919
H        6.17321014      45.50489807      27.92982864
H        3.80726480      40.57689285      27.10602379
H        1.98824728      41.78175354      26.63592339
H        8.17354298      44.38094711      28.49930954
C       15.08564091      40.72270203       8.44532108
C       18.67637634      40.48602295      11.88426971
C       15.88713264      39.68999863       8.85553360
C       17.75223923      41.44576263      11.52986813
C       16.82767487      39.93031692       9.82022572
C       16.82797050      41.17898560      10.52426052
C       17.71433067      38.96817398      10.26222229
C       15.99484920      42.25743484      10.04609203
C       15.03032875      42.01225662       9.04465008
C       18.67388725      39.26636124      11.19946289
H       14.46186447      40.60658264       7.62807369
H       19.50530434      40.82111359      12.55286598
H       15.77210617      38.76163101       8.32614613
H       17.78287888      42.50179672      11.70124054
H       17.88872528      37.93806458      10.00236130
H       16.16515350      43.28257751      10.37055683
H       14.37792206      42.78607178       8.77894020
H       19.24213028      38.35229874      11.55026245
C       23.69884872      28.20248604      13.37374973
C       21.60089684      30.64414978      17.29241371
C       23.05603027      27.79477882      14.48838425
C       21.94532204      31.07662582      16.05822563
C       22.55977631      28.74042702      15.49750805
C       22.54426384      30.09292793      15.07738686
C       22.19951820      28.31728935      16.79467583
C       23.04482079      30.47814560      13.81298733
C       23.58661652      29.55933952      12.92863464
C       21.72615814      29.25847244      17.67619133
H       24.06342697      27.47251511      12.81956959
H       21.05815125      31.28383064      17.97182274
H       23.18670654      26.79523849      14.73573494
H       21.86277390      32.12596893      15.96348476
H       22.28049660      27.32700920      17.22234726
H       22.86777878      31.48250198      13.45608044
H       23.94918633      29.78892708      11.90897179
H       21.43526268      28.87153816      18.73172760
C        0.58292061      38.00300598       1.17138016
C        2.55016351      34.10969543       3.56558871
C        1.09078741      36.82444763       0.72823632
C        1.75822735      35.14429474       4.04247904
C        1.50709558      35.82045364       1.63983369
C        1.18108463      35.99650192       2.98733473
C        2.32240081      34.69216919       1.28965867
C        0.62100095      37.11417770       3.49193215
C        0.28269279      38.10563278       2.57849813
C        2.82537222      33.86216736       2.19793010
H        0.45023018      38.84822083       0.60161328
H        3.11663222      33.47339630       4.26912498
H      -17.52674294      36.57934952      28.24526978
H        1.56260669      35.40999985       5.08347464
H        2.70854044      34.61261368       0.35592678
H        0.35278806      37.16430283       4.54921579
H       -0.04898473      39.04367828       2.90134978
H        3.65597868      33.15264130       1.86554503
C        6.12332726      54.50604630       6.94740057
C        1.15182805      54.67709732       5.81839132
C        5.11459303      53.65359116       6.61956835
C        2.08759713      55.68733215       6.27422953
C        3.77866268      54.00085068       6.47966528
C        3.42654753      55.35410690       6.53924322
C        2.82787490      53.04105759       6.08508062
C        4.44285488      56.24468231       7.01682711
C        5.78440666      55.85255051       7.29560947
C        1.54738092      53.31982040       5.91278028
H        7.11989498      54.22723389       6.97146749
H        0.16047141      54.86482239       5.51495266
H        5.38811636      52.66705704       6.33809710
H        1.92097127      56.75818253       6.14048052
H        3.20482254      52.07337952       5.86593151
H        4.08266306      57.28683853       7.18748569
H        6.55487108      56.57064438       7.55674315
H        0.78071922      52.47470856       5.87344313
C       10.88301754      46.88488770       3.90502048
C       15.52694321      48.72352219       4.70490932
C       11.53272724      48.03624725       3.53877449
C       14.84737015      47.61734772       5.20059299
C       12.88102913      48.25537872       4.00135040
C       13.53259754      47.30001831       4.69339323
C       13.55761242      49.49250412       3.61070013
C       12.80018330      46.19376373       5.20555115
C       11.48169518      45.98925781       4.81546926
C       14.83606434      49.68794632       3.94923949
H        9.92722225      46.66504288       3.52882528
H       16.61441231      48.71697998       4.84603643
H       11.06136417      48.76710129       2.83895159
H       15.42551804      46.99534225       5.84206152
H       13.03428841      50.14139175       2.91135740
H       13.19026089      45.41151047       5.81461668
H       10.74992275      45.29058838       5.29576969
H       15.34484386      50.61052322       3.63794756
C       17.23427773      57.32518387      11.88873386
C       18.50194550      58.65403366      16.65835571
C       17.62550163      58.47926712      12.53764343
C       18.34070587      57.41387177      16.02208138
C       17.84787178      58.59711838      13.94613552
C       17.96526146      57.33067703      14.62334442
C       18.14920235       0.93109345      14.56330299
C       17.61036682      56.16228867      13.89700317
C       17.19450951      56.10856628      12.60179615
C       18.40499306       0.96252275      15.89503384
H       17.04445839      57.21085739      10.79599285
H       18.75929070      58.74911499      17.73950958
H       17.74549484       0.38803592      11.92776871
H       18.37429619      56.47650909      16.52490425
H       18.18511581       1.86138690      14.06041813
H       17.62632561      55.30415344      14.55257797
H       16.89638901      55.18903351      12.07032108
H       18.59471703       1.93579710      16.47174835
C       -7.49055958      55.05340195      17.68201447
C      -11.52697182      55.67222214      20.55339813
C       -7.70696831      54.96582031      19.01415443
C      -11.39179993      55.75685120      19.20220757
C       -8.96646404      55.19150925      19.47310066
C      -10.02683926      55.57021713      18.62247467
C       -9.19283199      55.20594025      20.88853264
C       -9.76767731      55.69873810      17.20745277
C       -8.44518948      55.55174637      16.81440735
C      -10.45959091      55.30793381      21.43875885
H       -6.47043800      54.84608078      17.44015312
H      -12.58916855      55.90679932      20.89874649
H       -6.90341377      54.61990356      19.61362267
H       27.55478096      56.01333618      18.49933434
H       -8.38324547      55.14879227      21.62565041
H      -10.62303066      56.04705429      16.68572426
H       -8.24641228      55.89388275      15.82994556
H      -10.55727386      55.21726227      22.45155907
C       -3.74955463      38.76307297      23.02459335
C       -1.73703873      34.50838089      21.17809296
C       -2.69523215      38.43367767      22.32487488
C       -2.60366058      34.78643417      22.07100677
C       -2.39252782      37.17567825      21.83887863
C       -2.93759346      36.09875488      22.47734261
C       -1.36229110      36.87400055      20.88099670
C       -4.09052181      36.35774994      23.29815865
C       -4.58318710      37.64138412      23.50046349
C       -1.13541174      35.61217117      20.51239586
H       -4.07768440      39.80823898      23.19928360
H       -1.48324072      33.44594955      20.89822578
H       -2.05797291      39.21463013      21.82663727
H       -3.22549367      34.10846710      22.63048935
H       -0.88922244      37.74457932      20.55592728
H       -4.63045502      35.60679245      23.80884933
H       -5.46478415      37.81180954      24.16910172
H       -0.42801490      35.34989929      19.76330566
C        6.99411535      47.36591721      13.34276581
C       11.59231949      47.79712296      15.07297993
C        8.21101856      47.30734253      12.76413727
C       10.37191010      47.57478714      15.71221066
C        9.33160782      47.41379166      13.54192066
C        9.23378181      47.43190765      14.90327549
C       10.69761181      47.60966492      12.95061588
C        7.98882341      47.32910156      15.50508595
C        6.85195160      47.42170334      14.77973175
C       11.76888084      47.80102158      13.74869251
H        6.12977552      47.23388672      12.81331825
H       12.39622879      48.20491791      15.63554573
H        8.31343555      47.31675720      11.72952938
H       10.37329865      47.85447311      16.76331520
H       10.86032677      47.69344711      11.81412792
H        8.01626205      47.33306503      16.62399673
H        5.83491755      47.50876617      15.26936054
H       12.61612225      48.25904465      13.33618546
C      -14.02042484      45.39137268      24.48227119
C       -9.37724113      44.06672287      22.78182983
C      -13.23914814      44.20995331      24.47954559
C      -10.19503403      45.14024353      22.50566292
C      -11.98136139      44.17052078      23.85989380
C      -11.49225807      45.24105835      23.15006828
C      -11.15696049      43.01274109      23.95175934
C      -12.23590565      46.40925980      23.12605286
C      -13.43193340      46.50729752      23.83338737
C       -9.88188553      43.02802658      23.56149673
H      -14.94896698      45.28067017      25.06114388
H       -8.30602646      43.94046783      22.60118294
H      -13.60617638      43.33240891      24.92347717
H       -9.92261505      46.03544617      21.89397430
H      -11.59018230      42.09395981      24.41261292
H      -11.84413719      47.21023178      22.51223946
H      -14.00873947      47.44829178      24.09874344
H       -9.17308235      42.27352905      23.86454391
C       28.83453751      43.09185791       8.77633381
C       28.87444496      40.82222748      13.17649651
C       28.34673691      43.42033768       9.95190716
C       28.95151138      40.24133301      11.99871254
C       28.34012985      42.53530502      11.01081944
C       28.75638962      41.16270447      10.79536629
C       28.24234581      43.00440216      12.31211948
C       29.16588783      40.81987000       9.57852650
C       29.30861664      41.75613022       8.52527142
C       28.61345673      42.23802185      13.39470863
H       29.15134430      43.87736511       8.10763550
H       29.02994156      40.21804428      14.15153885
H       28.14826775      44.44252777      10.26274967
H       28.99954987      39.17513275      11.90655041
H       28.02671433      44.01923370      12.50767708
H       29.61870575      39.88320923       9.31278896
H       29.79871559      41.37075043       7.67244577
H       28.67526054      42.68545914      14.37349415
C       33.38487625      43.71530914       4.57741690
C       28.43446541      43.91078186       5.61781836
C       32.57429504      44.65960693       5.28082132
C       29.20323372      42.86628723       5.30308390
C       31.20584297      44.38439941       5.59140396
C       30.64584923      43.09616470       5.19887590
C       30.36251259      45.30248642       6.19626188
C       31.57079124      42.09746552       4.73494482
C       32.89511871      42.40290070       4.45974827
C       28.98528099      45.13187027       6.01921129
H       34.30841446      43.96052551       4.11979437
H       27.40057564      44.00229263       5.66420650
H       33.08441162      45.52042389       5.56100130
H       28.83670235      41.84241486       5.07998037
H       30.75586128      46.15507889       6.68410587
H       31.08682251      41.14459229       4.54742575
H       33.43093109      41.61943054       3.90440488
H       28.21607590      45.76012421       6.45272779
C       18.46659851      53.80753708       3.68775821
C       15.66688442      54.67448044       7.78295898
C       18.54397583      54.64353561       4.68585396
C       15.71568298      53.69769287       6.85541391
C       17.49823761      54.84616089       5.64792013
C       16.48220634      53.85364532       5.69238329
C       17.36468697      55.94435120       6.57613420
C       16.42768669      52.91779709       4.59333467
C       17.40402603      52.93894959       3.64790130
C       16.55984688      55.80522537       7.64685774
H       19.25387764      53.72673416       2.91679430
H       15.31011868      54.45063400       8.71032429
H       19.28985023      55.40062714       4.76178312
H       15.07147789      52.84689713       6.97983646
H       18.11673737      56.77360916       6.61313534
H       15.66095638      52.16948700       4.47560740
H       17.42153931      52.19638062       2.85158753
H       16.49830437      56.63098526       8.34257984
C        2.42596531      31.14572144      24.30350494
C       -0.63269645      31.51347351      20.39130020
C        2.71355510      31.14686584      23.00601387
C       -0.84351051      31.40220833      21.73682022
C        1.55693436      31.16438675      22.12214661
C        0.20843093      31.26019669      22.67021561
C        1.73248935      31.19223976      20.72986603
C        0.10734424      31.48638725      24.08921051
C        1.16117179      31.46050262      24.86624908
C        0.69791412      31.39127731      19.87178802
H        3.29945755      30.97971916      24.98525047
H       -1.45699346      31.86847115      19.74700928
H        3.57903743      30.81493950      22.58409882
H       -1.78266895      31.72920609      22.06116676
H        2.77772713      31.20645714      20.43469620
H       -0.75851762      31.94878960      24.49031830
H        1.10327196      31.71316147      25.92358017
H        0.76921397      31.36171532      18.78132439
C       11.38897800      45.90193939      26.28659439
C       12.84086037      41.10093689      27.03754044
C       12.75013638      45.35292435      26.74670982
C       11.70396900      41.76892853      26.83110428
C       12.83702183      44.01339340      26.78804970
C       11.54478931      43.23894501      26.44389534
C       13.98508549      43.25155258      27.17989922
C       10.24779320      43.88368225      26.91767311
C       10.19046974      45.17090988      26.83006859
C       14.01710796      41.89813614      27.30087090
H       11.32694912      46.97407913      26.46681023
H       12.94226360      40.04603577      27.14170265
H       13.51864815      46.05471039      26.93847847
H       10.83947372      41.11439514      26.89362144
H       14.85926914      43.91866684      27.42202759
H        9.54038811      43.04244995      26.90419960
H        9.28247547      45.77860641      27.06281853
H       14.86235714      41.32777405      27.59403992
C       17.56167221       0.41711310       4.58698988
C       18.13367081      55.98366928       0.83728772
C       17.04517364      58.08657455       4.32742834
C       18.79131317      57.13328552       1.13206708
C       17.32528114      57.37602615       3.12251282
C       18.43494415      57.88953400       2.30606174
C       16.69495010      56.14195633       2.76758838
C       18.95529747       0.24942772       2.56268716
C       18.50575829       0.98178583       3.66644645
C       17.11142731      55.43038177       1.65795934
H       17.19313622       0.86732185       5.53403854
H       18.52506065      55.35911942       0.02373683
H       16.22126579      57.63676071       4.83933353
H       19.56793785      57.29815674       0.40695947
H       15.89939022      55.70435333       3.33834815
H       19.67722511       0.60914254       1.79862368
H       18.88891983       1.94059861       3.97688389
H       16.62022209      54.46959686       1.53565693
C       25.94548798      45.44853592      11.02576351
C       21.64093971      47.76162338      10.26964760
C       25.49152946      46.62888336      11.29073811
C       21.92631722      46.45366287       9.98915291
C       24.14529419      47.02799606      10.96363544
C       23.30205345      46.05413818      10.38012791
C       23.81452560      48.44297028      11.06523705
C       23.76017761      44.70551682      10.33193874
C       25.04191208      44.40337372      10.60309601
C       22.50347328      48.76098251      10.94166183
H       26.92335892      45.09398651      11.35164833
H       20.62869263      48.11785126      10.14790154
H       26.16840935      47.43344498      11.70103931
H       21.33002090      45.66866684       9.60614204
H       24.53429031      49.06367111      11.50552940
H       22.93728638      44.05099106      10.03903198
H       25.23098946      43.35011291      10.41519547
H       22.07049370      49.71475983      11.26450157
C       25.73573685      44.89652252      14.61444187
C       25.94704819      39.84730911      14.56547928
C       25.21884918      43.98178482      13.78393650
C       26.11110115      40.76624298      15.56248665
C       25.37081909      42.60514832      14.10320759
C       25.94101143      42.11007309      15.29706478
C       25.05551147      41.59192657      13.12166405
C       26.21650696      43.10969543      16.28175354
C       26.16090775      44.45526505      15.93487835
C       25.40815544      40.28792953      13.37213325
H       25.81986618      45.87833786      14.26067066
H       26.15286636      38.79097748      14.72424603
H       24.64836693      44.32612610      12.93601608
H       26.50744438      40.57715225      16.59313583
H       24.68102646      41.81508255      12.15984058
H       26.69417572      42.83007812      17.26489449
H       26.62617683      45.19231415      16.54086876
H       25.09185219      39.62983322      12.63552189
C        4.91429138      49.33695984       4.17331362
C        3.85657024      44.66818237       2.46615124
C        3.74338603      48.61390305       4.11761951
C        5.03672314      45.38385010       2.55856991
C        3.82181358      47.35331726       3.45692253
C        5.10567951      46.71832657       3.13917422
C        2.69689393      46.62651825       3.27833080
C        6.26224470      47.37757874       3.45697880
C        6.15445614      48.69692612       3.99167538
C        2.68891478      45.34359360       2.82275033
H        4.95634031      50.32579041       4.59593010
H        3.94407082      43.59796143       2.16296959
H        2.83587027      49.13451386       4.16489267
H        6.05433130      44.87166214       2.41332436
H        1.72276056      47.14223862       3.52822542
H        7.27301407      47.01240540       3.48845339
H        7.05463409      49.24337769       4.17546511
H        1.74442494      44.86629105       2.82143521
C       10.99461079      46.55401230       8.66223812
C        7.73304701      49.70749283      10.69893837
C        9.64641190      46.52682114       8.76136208
C        9.06563663      49.73460388      10.58207512
C        8.98085594      47.65542603       9.34333706
C        9.71764469      48.78058624       9.84837627
C        7.60492420      47.61915588       9.43809700
C       11.10621166      48.82373810       9.51228046
C       11.74480343      47.74848175       9.00331879
C        6.95958662      48.63274765      10.10964108
H       11.63410950      45.68476486       8.49708462
H        7.23241806      50.36816406      11.38955784
H        9.19265842      45.47377014       8.72109413
H        9.67114162      50.53592682      11.03512955
H        7.09723425      46.78059006       8.86876488
H       11.58250999      49.64688873       9.99277687
H       12.75590992      47.85229492       8.67590809
H        5.96509886      48.78916931      10.14776421
C       -9.33639431      56.08670044      28.31260109
C        9.17333508       0.06652492       3.98244309
C       10.10906124      57.17086029       0.24780728
C        8.26601219      58.19242859       3.32457829
C        9.76036263      57.92343521       1.40723479
C        8.51663017      57.60746002       2.00452876
C       10.60484505       0.01954105       1.98226440
C        7.67095613      56.73056412       1.29554141
C        8.06666946      56.00417709       0.26217738
C       10.37557602       0.46874225       3.26982760
H       -8.88416386      55.35171509      27.72936249
H        8.79687786       0.36097863       4.95080471
H       -7.86033249      57.56785965      28.32348442
H        7.26943159      57.97167969       3.81342125
H       11.37893772       0.39538583       1.30133450
H        6.70680332      56.70900726       1.77424562
H      -11.45801353      55.34162903      28.30098724
H       10.92743301       1.32611668       3.64092231
C        8.71020889      48.53152847       0.74504375
C      -14.29898548      49.07305145      26.52211380
C        8.16333008      49.63034058       0.06218942
C      -13.62968922      48.05377197      27.14888000
C      -11.86300564      49.48659897      27.91477013
C      -12.45859337      48.19580078      27.93502426
C      -12.59376812      50.45767975      27.21857452
C        6.85851479      47.05846405       0.14613509
C        8.00139141      47.19297791       0.84374666
C      -13.79027653      50.35744095      26.59377098
H        9.66906261      48.55985641       1.09122813
H      -15.29919910      48.87717056      26.04496384
H        8.74976730      50.56967926       0.04107878
H      -14.06560802      47.09212494      27.13075256
H      -12.11646271      51.48508453      27.25860214
H        6.19346905      46.21107864       0.28689271
H        8.40034008      46.42057800       1.44865906
H      -14.19223881      51.25380325      26.05664635
C        3.49118185      34.76602173      13.11971569
C        3.49677896      33.76180267      17.97302628
C        2.99884248      35.36558151      14.21063042
C        4.08364677      33.14907455      16.93473816
C        3.19538736      34.86281204      15.44386482
C        3.99317122      33.77454758      15.64522552
C        2.70508480      35.58532333      16.60644913
C        4.56836843      33.13387299      14.45290375
C        4.24638462      33.62044525      13.21117115
C        2.80753160      35.04175949      17.81653404
H        3.47520804      35.30990982      12.06175423
H        3.42311144      33.18912125      18.92728996
H        2.53467250      36.33243179      14.12448502
H        4.74592257      32.34004974      17.18090057
H        2.04178786      36.40342331      16.30426025
H        5.03090429      32.19105530      14.44239616
H        4.62924480      33.06570816      12.37600327
H        2.36411619      35.50739288      18.70947456
C        8.14098740      34.42412949       5.37044811
C        6.89412260      32.95029831       0.80278349
C        8.76093578      33.65830994       4.45482159
C        6.37911415      33.85844803       1.66691101
C        8.25173092      33.36703491       3.21443224
C        7.01007128      34.02907181       2.89646292
C        8.65003109      32.29300308       2.32404971
C        6.49693203      34.86189651       3.83567500
C        6.93065214      35.11462021       5.12207890
C        7.99088573      32.07524109       1.20343602
H        8.60048676      34.42314148       6.29999495
H      -12.30011940      32.81571960      28.29281425
H        9.58771038      33.00245666       4.83867311
H        5.45253086      34.46894073       1.47146714
H        9.34667587      31.67715263       2.76184011
H        5.56208038      35.39728546       3.61273408
H        6.51237106      35.87958908       5.65152264
H        8.29087162      31.30571747       0.59860772
C       21.31187248      47.70587158      27.89060211
C       -0.38328120      42.92165756       0.82029563
C       20.23975372      46.93633652      28.05499840
C        0.74308467      43.59734726       0.53676754
C       39.14337921      45.57231140       0.01022560
C        0.62768733      44.99621201       0.23712239
C       38.00876236      44.70811081       0.10969184
C        1.72918475      45.90060043       0.15381458
C      -17.18719673      47.20713806      28.22480583
C       38.15956497      43.38152695       0.45518050
H       21.25992966      48.79592514      27.68072510
H       -0.32286578      41.94298172       1.18848538
H       19.20034790      47.24720001      27.79422760
H        1.65817428      43.10345459       0.81972820
H       18.15959930      44.95635605      28.41444778
H        2.79209781      45.54138947       0.21941578
H      -16.29587364      47.87299347      28.04041290
H       37.28979111      42.72518539       0.27427107
C       -4.73460054      41.74436569      10.53529453
C       -6.93856335      38.84353638      13.95779228
C       -5.44330502      42.01486206      11.65348530
C       -5.85534096      38.65762711      13.15954781
C       -5.84473324      40.99864960      12.60794353
C       -5.30985928      39.77510452      12.39314842
C       -6.86952162      41.23125458      13.65445137
C       -4.54327917      39.45829010      11.25515175
C       -4.26333618      40.42035294      10.39545441
C       -7.43901873      40.08696365      14.16543484
H       -4.59087849      42.41030502       9.71492577
H       -7.46945572      37.92993546      14.42699909
H       -6.00657272      42.95256424      11.68952274
H       -5.45005369      37.63740158      13.15318966
H       -7.31097746      42.19980621      13.91454411
H       -4.20985460      38.45214462      11.08224106
H       -3.64926910      40.18235397       9.50547028
H       -8.23812199      40.12582397      14.90299129
C        8.38914585      35.70692062      15.76823139
C        4.56020069      38.30658340      13.77118874
C        8.18641758      36.26708984      14.58569145
C        4.84132051      37.87356567      15.04318333
C        7.02057552      37.06812286      14.35764599
C        6.00208759      37.10194778      15.36214447
C        6.78646994      37.68332672      13.10560799
C        6.33658361      36.53754425      16.62768936
C        7.56433010      36.00170517      16.88896370
C        5.57264614      38.14965820      12.66926765
H        9.20467758      35.18356323      15.98020554
H        3.77482653      39.02508545      13.58920383
H        8.93399334      36.00237656      13.78001022
H        4.03348303      37.95138931      15.75461197
H        7.60149574      37.59496689      12.37239075
H        5.52299786      36.52864075      17.42914963
H        7.87007475      35.52885056      17.93861008
H        5.47626829      38.49267578      11.62096310
C       32.82360840      40.72049332       7.88528442
C       31.47653389      44.05941010      11.35775757
C       32.93302155      42.05859375       7.90874052
C       31.41536522      42.70018005      11.23287582
C       32.49237442      42.76037598       9.09137440
C       31.95364952      42.03508377      10.11946201
C       32.50991440      44.20281982       9.13401222
C       32.00286484      40.55823135      10.08871365
C       32.48654556      39.93162537       9.01226902
C       32.10324860      44.76183701      10.29580784
H       32.94457626      40.14885330       6.94931126
H       30.82290077      44.62227249      11.96846294
H       33.17050171      42.66721344       7.16139030
H       30.83374596      42.04994202      11.93920326
H       33.08346939      44.63354111       8.38514042
H       31.73858833      39.91287994      10.95253849
H       32.37546158      38.88100052       8.86025143
H       32.17962646      45.87149429      10.35027790
C       -5.54744101      29.21777916      25.01878738
C       -6.05284119      34.15644455      25.49444580
C       -4.68759060      30.24537277      25.23658562
C       -6.90896845      33.14073944      25.35544777
C       -5.08522987      31.55265617      25.53758240
C       -6.48149872      31.81236458      25.49993324
C       -4.24017811      32.57790756      25.65564346
C       -7.44239140      30.66738892      25.31527901
C       -6.90369940      29.42767143      24.96657944
C       -4.68040466      33.89775085      25.64011383
H       -4.97185278      28.39482498      24.74373054
H       -6.41757488      35.19112778      25.39135933
H       -3.60397244      29.95890617      25.22640610
H       -8.00435829      33.21535873      25.23856926
H       -3.22363138      32.33598709      25.41427994
H       -8.52510452      30.80101967      25.47969246
H       -7.65795708      28.62612724      24.91353989
H       -3.94791245      34.62176514      25.69914818
C       -6.40382433      53.43070984      14.83924007
C       -6.42388058      54.11833191       9.85259628
C       -7.07481480      54.27687073      14.01075268
C       -5.69339085      53.36710358      10.68502998
C       -6.81686878      54.31220627      12.64500237
C       -5.77762270      53.56328583      12.10947514
C       -7.62026882      55.20600128      11.68510246
C       -5.13925457      52.61424255      12.91490650
C       -5.51350498      52.51534271      14.23506069
C       32.46582413      55.13952255      10.34751987
H       -6.55774879      53.28925705      15.87871933
H       33.57897949      54.02181244       8.84550953
H       -7.93469620      54.81908417      14.35653210
H       -5.02864361      52.64425659      10.30017185
H       31.28131485      55.78397369      11.95689487
H       -4.49391365      51.83871078      12.46705151
H       -5.17270470      51.71463776      14.83976364
H       31.85130501      55.68818665       9.64255714
C      -14.77768803      36.26826477      26.02107048
C      -11.38529110      39.65442657      24.45534897
C      -13.84313297      36.32159424      24.99076080
C      -12.33151531      39.68316269      25.37022400
C      -13.23067856      37.54875183      24.61276245
C      -13.41255474      38.68014526      25.39997482
C      -12.31623363      37.70915222      23.52498245
C      -14.36674976      38.54410172      26.53635025
C      -15.09374142      37.41970825      26.76487350
C      -11.48223591      38.73334503      23.43964386
H      -15.16967964      35.31053925      26.35114861
H      -10.54342842      40.34315109      24.30042648
H      -13.66942120      35.51271057      24.24316978
H      -12.20888424      40.41233444      26.18125916
H      -12.32235146      36.91448593      22.78816223
H      -14.75485229      39.38768005      27.17374039
H      -15.88528538      37.38245010      27.44095421
H      -10.73091125      38.81201935      22.70538330
C      -14.38375092      40.67756653      22.13535309
C      -12.27501202      44.28518295      19.22645950
C      -14.31655216      42.03792572      22.26351547
C      -12.08853817      42.99597931      19.35424614
C      -13.72330570      42.87387085      21.21906853
C      -12.92502689      42.22632599      20.27857971
C      -13.87446117      44.26060867      21.09186172
C      -12.91162109      40.86410904      20.25830460
C      -13.65477943      39.99427032      21.13674927
C      -13.17667198      44.99300385      20.17134857
H       24.79631996      39.94393539      22.68991661
H      -11.85496902      44.90849686      18.44206810
H      -14.83911514      42.54257202      23.07119179
H      -11.60799980      42.42382050      18.55100632
H       25.24506187      44.80586243      21.82962036
H      -12.32481289      40.44823074      19.51201057
H      -13.57835865      38.92470551      21.04943848
H      -13.11042595      46.03943253      20.20190430
C        4.84498405      42.78281021      23.38134193
C        8.66566467      39.53665161      23.64432907
C        5.44665098      41.81611252      22.49754906
C        7.87341547      40.04441071      24.78665543
C        6.55033445      41.09375763      22.88380814
C        6.89157677      41.15180588      24.24603081
C        7.26664209      40.43225098      21.85588074
C        6.35454845      42.10662842      25.07329941
C        5.39075804      43.05661774      24.57148170
C        8.30097485      39.66342545      22.30069733
H        3.97165275      43.31963730      23.02263260
H        9.57125187      38.97241974      23.91745758
H        4.95458746      41.60832596      21.55585289
H        8.66101074      40.54804230      25.42043114
H        6.94596052      40.40961075      20.87422562
H        6.67901373      41.96779251      26.15609932
H        5.01778126      43.82476044      25.20805740
H        8.88791370      39.09732056      21.55540848
C        3.73442888      39.36745834      23.95620918
C        8.18684101      36.91959000      24.90271568
C        4.82260370      39.53571701      24.82790375
C        7.24504900      36.82378387      23.90775299
C        5.93402576      38.63397217      24.76739693
C        6.04557991      37.61040497      23.85650063
C        7.08133507      38.97444534      25.64317322
C        4.88488245      37.48048782      23.02674484
C        3.78928852      38.27751160      23.09371948
C        7.87061358      37.77032089      26.09186745
H        2.93654108      40.08176041      23.99271202
H        9.20192719      36.47607803      24.81921577
H        4.85677385      40.52434540      25.45454025
H        7.48297215      36.13345718      23.05531311
H        6.74274254      39.45771027      26.62964249
H        4.90063190      36.69966888      22.30277824
H        3.08691978      38.14832687      22.29636955
H        8.70256996      38.18003464      26.65209389
C       17.28669167      41.11359024       0.43117887
C       21.73915863      38.89345169       0.98483527
C       18.54079247      41.64920425       0.70694453
C       20.44545364      38.50251389       0.77230287
C       19.63890266      40.75157166       0.90604335
C       19.36448860      39.36838531       0.81221282
C       20.97559357      41.14659500       1.21622097
C       18.00891304      38.84763336       0.50758183
C       16.99238014      39.71274948       0.42401326
C       22.01601791      40.24909210       1.26425052
H       16.47179031      41.71976089       0.12258178
H       22.50138283      38.13433456       0.94644409
H       18.81066895      42.70965195       0.66409856
H       20.12252808      37.48390198       0.56146729
H       21.20684814      42.19811630       1.40484846
H       17.75007057      37.77120590       0.49138343
H       16.09860992      39.26507187       0.03140878
H       23.06016541      40.46802139       1.39698911
C       19.32342339      30.60263443      22.13113594
C       18.49878502      31.49228859      17.40099907
C       18.91075706      31.71931458      21.42572784
C       18.92516899      30.44659805      18.10091400
C       18.56568909      31.67122841      20.14086533
C       18.95568848      30.41356277      19.49642372
C       18.14104843      32.82063293      19.35262299
C       19.28692055      29.26655388      20.17660713
C       19.33381462      29.26675415      21.51867104
C       18.12823105      32.76589584      17.98475266
H       19.60244370      30.89556885      23.17636108
H       18.64169884      31.40411186      16.28420448
H       18.81377411      32.60063171      22.01987076
H       19.10740471      29.57424736      17.49345207
H       17.93617439      33.71576691      19.96993446
H       19.09476471      28.34106827      19.55310059
H       19.42271042      28.39849472      22.14496613
H       17.80265617      33.51841736      17.38122177
C        0.78546590      45.13938904      25.25533295
C       -2.07563448      44.66997910      21.14013863
C       -0.50226289      45.46143723      24.98175240
C       -0.84371376      44.19439316      21.51586151
C       -1.07073748      45.10206604      23.75510406
C       -0.22390097      44.47595978      22.76265335
C       -2.37556314      45.56939697      23.39083481
C        1.04027224      44.01996613      23.14003563
C        1.50777352      44.27410507      24.41789436
C       -2.80762649      45.40313339      22.05594063
H        1.11180639      45.61874008      26.17331314
H       -2.45181251      44.44311905      20.17861938
H       -1.03825140      46.02094269      25.70860291
H       -0.15862450      43.65713120      20.82083511
H       -2.92165112      46.15551376      24.16792297
H        1.51995456      43.13155746      22.53427124
H        2.48787808      43.93565750      24.78309059
H       -3.83943415      45.79507828      21.74153709
C        3.48955321      39.16931152      19.32060814
C        4.50641489      34.56460190      20.91741943
C        2.71684313      38.18596649      19.94205666
C        5.22312593      35.55934143      20.25161171
C        3.33238602      36.94000626      20.22062111
C        4.71111679      36.79857636      19.93478394
C        2.53175616      35.99173737      20.85203743
C        5.46295261      37.91178513      19.59236526
C        4.86693287      39.08339691      19.19362831
C        3.16533089      34.78651047      21.22527504
H        3.01044965      40.04228210      18.98664856
H        4.91839886      33.69227982      21.26352501
H        1.68964243      38.27512360      20.30665398
H        6.28626394      35.44686508      20.09436798
H        1.53147376      36.36909103      21.08632660
H        6.52579403      37.89394760      19.39716339
H        5.43975925      39.87363815      18.84555054
H        2.65945435      33.96501160      21.79925728
C       27.17704773      39.74898529       6.31334543
C       26.49325943      37.94196320      10.85213089
C       27.60011673      38.61586380       6.92486572
C       26.16619110      39.14011383      10.31796455
C       27.27612877      38.43984222       8.26958752
C       26.52977943      39.32598114       8.96609592
C       27.82628441      37.29554749       8.93526268
C       26.23984909      40.51644135       8.33445644
C       26.62690735      40.75309372       7.03793812
C       27.42582321      37.08143234      10.24326992
H       27.46018028      39.98257828       5.39789534
H       26.31031418      37.69258118      11.90395355
H       28.25011635      37.88790131       6.35289907
H       25.71179581      39.98220825      10.87105656
H       28.49557877      36.70471573       8.29121590
H       25.90700912      41.37998199       8.88562965
H       26.57403946      41.71220016       6.50232458
H       27.79802513      36.11199951      10.78377151
C       -4.33097982      35.23271561       7.47235584
C       -6.16608477      35.60349655      12.14518642
C       -4.57478333      34.31363678       8.43826771
C       -6.01940489      36.37804413      11.07024574
C       -5.01202297      34.77034760       9.71526337
C       -5.49641752      36.04047012       9.81178093
C       -5.25853348      33.86916733      10.75077534
C       -5.36319590      36.91333389       8.74973011
C       -4.73668671      36.58942413       7.61195040
C       -5.71154690      34.30203629      11.93698025
H       -3.97786593      34.86203003       6.46864176
H       -6.31198597      35.98952103      13.05860996
H       -4.34896660      33.30827332       8.20332050
H       -6.49388885      37.35114670      11.02685261
H       -4.89583588      32.81951904      10.78695202
H       -5.77334833      37.95748138       8.86987114
H       35.24257278      37.32716751       6.81564188
H       -5.76060820      33.65916824      12.80030060
C       17.10743713      42.99019241       6.91610384
C       13.63761425      40.83573151       3.85776281
C       16.98363304      41.75622177       6.30638552
C       13.94462013      42.09535217       4.36179018
C       15.93552113      41.26019287       5.49028444
C       15.06255341      42.29622650       5.20547724
C       15.54083633      39.99189758       5.06568241
C       15.24725628      43.56944275       5.75534439
C       16.22656059      43.98821259       6.55707073
C       14.49738789      39.70326614       4.18258572
H       17.93927193      43.12936783       7.60553598
H       12.69378948      40.83229828       3.29193640
H       17.71858406      40.97215271       6.49659204
H       13.24294949      42.80358887       4.14868259
H       16.27156448      39.25974274       5.33673429
H       14.54016495      44.34956360       5.63946867
H       16.42873764      45.00680161       6.86592293
H       14.19133186      38.70037842       3.89206100
C       22.67432594      52.90570831      21.21971893
C       22.57821083      57.87147903      20.68758583
C       21.84509850      53.92420959      21.58931351
C       23.64855957      57.02624512      20.43404007
C       22.21290016      55.22277451      21.31531906
C       23.35522461      55.66063690      20.60086060
C       21.16072464      56.19454575      21.55924034
C       24.21741867      54.56268311      20.23732185
C       23.86814308      53.26395798      20.47933388
C       21.39211655      57.50649261      21.28971672
H       22.48847389      51.85234451      21.29158401
H       22.76027870      58.91604614      20.51111603
H       20.84563446      53.69116211      21.87871170
H       24.55048752      57.23670959      19.95726776
H       20.20914268      55.95663452      21.98289108
H       25.04336166      54.74002075      19.62433624
H       24.33110046      52.39487457      20.05557823
H       20.64146233      58.25986099      21.51642990
C       -0.22110929      32.34550476      16.80515671
C       -0.43367898      29.10021210      12.93956852
C       -0.87489104      31.16223335      16.55101395
C        0.22993219      30.28011894      13.14585114
C       -0.83752114      30.52739906      15.33212757
C        0.09796350      31.00900459      14.37775898
C       -1.56332779      29.33646011      15.07984543
C        0.81908911      32.22213745      14.62116623
C        0.72158647      32.86945343      15.80297661
C       -1.32380688      28.61651230      13.88510799
H       -0.43162727      32.79777527      17.74821281
H       -0.20898773      28.50415421      12.07927895
H       -1.50809360      30.74625206      17.32258606
H        1.02595413      30.63782120      12.47499657
H       -2.28027034      29.01214027      15.82674599
H        1.53584981      32.69315720      13.85030746
H        1.17762828      33.80855560      15.95171642
H       -1.69962990      27.59067154      13.84798527
C       30.19896126      30.60752869       3.24678159
C       35.26219177      31.30121422       3.18884993
C       31.11434555      31.10284615       4.12169027
C       34.41157913      30.84672165       2.18857718
C       32.51895142      31.27197075       3.77729106
C       32.96508026      30.83473969       2.48486018
C       33.45544434      31.65247726       4.78390789
C       31.95778084      30.51973724       1.54247987
C       30.66757202      30.39056587       1.95209110
C       34.79242325      31.69903374       4.44352102
H       29.14733887      30.31295395       3.67751884
H       36.33031464      31.32373047       2.86271238
H       30.74165726      31.17737770       5.07807302
H       34.84839630      30.73691368       1.16956270
H       33.18136978      32.26226425       5.73865938
H       32.24174500      30.33074188       0.47987393
H       29.96941185      30.05640411       1.17691517
H       35.42200470      32.06392670       5.26335144
C        3.16263866      45.68423843      20.48696136
C        0.14853902      42.25501251      18.60305023
C        2.00752568      45.83969879      19.71341515
C        1.13788807      42.20578003      19.57561874
C        1.31130064      44.64846420      19.32173538
C        1.77909780      43.46152115      19.81464386
C        0.09962039      44.62688828      18.55674744
C        3.02812767      43.31959915      20.57745743
C        3.67710543      44.43835449      20.92354584
C       -0.37349939      43.43615723      18.14351845
H        3.68076968      46.54877090      20.67162704
H       -0.43397692      41.43082047      18.20174980
H        1.63446331      46.83508301      19.44247437
H        1.68325901      41.29272461      19.95257187
H       -0.51985049      45.44197464      18.31063271
H        3.40972495      42.33501434      20.85895348
H        4.64828014      44.44705963      21.42723083
H       -1.35771286      43.45376205      17.61370850
C       26.44365883      52.37720489       7.87135315
C       27.24177551      47.55186844       8.07090569
C       27.61784363      51.69292450       7.76968575
C       26.16174126      48.34987259       8.32971478
C       27.56565475      50.29885483       7.95019245
C       26.29884529      49.71281433       8.19484043
C       28.69056702      49.46982956       7.69511318
C       25.10608292      50.45343018       8.19183636
C       25.16749763      51.75931931       8.07228565
C       28.50186157      48.13488770       7.68263912
H       26.37596893      53.49757385       7.95084095
H       27.18471146      46.41640854       8.20873070
H       28.55558395      52.17077255       7.81227398
H       25.12413025      48.04327774       8.70472240
H       29.71470833      49.87374496       7.54057646
H       24.15992928      49.96088028       8.44325829
H       24.34954262      52.37920380       8.34226131
H       29.12720299      47.36486816       7.21361208
C       35.96887589      48.52172470       1.16389084
C       32.56272507      44.71794891       1.25044167
C       36.04558563      47.18013000       1.33521855
C       32.45319748      46.11203766       1.19787419
C       34.88405609      46.45616913       1.44397080
C       33.54515839      47.08527756       1.33295882
C       34.91146851      44.95833588       1.52542448
C       33.55365753      48.43032837       0.98145998
C       34.75934219      49.20507431       1.05560875
C       33.88353348      44.13464737       1.27602375
H       36.84658432      49.09874344       1.56641710
H       31.66384888      44.15377045       1.21580851
H       36.91801453      46.59454727       1.48672450
H       31.36652756      46.44592285       1.24890411
H       35.92867661      44.79244232       1.89223504
H       32.55696487      48.90994644       0.97883445
H       34.58773804      50.26212311       0.89131397
H       34.02428818      42.96623611       1.13663661
C        8.61644173      30.05320168       5.53790283
C        8.72289085      30.02110291      10.46642780
C        9.10411358      29.14752007       6.41971970
C        7.97175074      30.79036522       9.65307522
C        8.89854717      29.40096092       7.75621843
C        8.05577374      30.50459862       8.19293785
C        9.34203243      28.51138687       8.80963802
C        7.39798212      31.32199478       7.24218416
C        7.57532310      31.04636002       5.88391876
C        9.23797035      28.81404686      10.09035683
H        8.90290260      29.90204048       4.51019621
H        8.73440647      30.43788338      11.51609898
H        9.88772011      28.47956276       6.09370852
H        7.61334562      31.72584152       9.84269714
H        9.53758049      27.44283104       8.49259567
H        6.74774313      32.13718033       7.63284636
H        6.90986300      31.60684776       5.17500353
H        9.60534477      28.07036781      10.84366035
C       -6.93284655      29.64560890      12.19132042
C       -4.90339136      29.48974800       7.54775620
C       -6.53743172      30.59677887      11.27682686
C       -5.19428396      28.53169441       8.52594566
C       -6.08957195      30.06976318      10.01245880
C       -5.93770838      28.72082138       9.76389980
C       -5.90060139      31.08508301       9.01591206
C       -6.01753139      27.82316017      10.81046867
C       -6.50228310      28.27570534      11.93481541
C       34.37722778      30.78241348       7.76324749
H       -7.39713001      29.77350998      13.16468239
H       -4.21777201      29.23633385       6.70087099
H       -6.65697479      31.67963982      11.30566788
H       -4.84375000      27.46823883       8.30897713
H       33.62618637      32.11323166       9.27870941
H       -5.51638699      26.88116837      10.59948349
H       -6.54149914      27.66084862      12.80323887
H       34.41167450      31.48742294       6.91998959
C       -1.38906026      32.88829803      11.65448284
C       -4.75226545      33.59707642      15.22475624
C       -2.33775878      32.07499313      12.28545380
C       -3.89765239      34.50982285      14.54307270
C       -3.31652451      32.61008453      13.12447643
C       -3.17316198      34.02370834      13.39363766
C       -4.23270893      31.78311348      13.79181194
C       -2.24581552      34.82543182      12.70152187
C       -1.29689515      34.23179245      11.89318275
C       -5.00717449      32.27483368      14.80556202
H       -0.82613534      32.37513351      10.91395283
H       -5.08143091      33.96499252      16.15893936
H       -2.43918657      30.99064636      12.18176079
H       -3.82253265      35.49858093      14.84898758
H       -4.30856466      30.77248001      13.50762272
H       -2.27558422      35.86833191      12.78674603
H       -0.66740215      34.93056488      11.32016182
H       -5.73961306      31.54058647      15.11313438
C       -2.76083612      53.60163498      20.56987572
C       -2.45133114      56.46151733      16.46567726
C       -3.33242416      53.45906830      19.29344749
C       -1.77101576      56.53310013      17.71988678
C       -2.93758106      54.49534225      18.36031723
C       -2.09045362      55.60530472      18.76489830
C       -3.58631396      54.49271774      17.07567215
C       -1.59956670      55.74167252      20.07695770
C       -1.95855224      54.64666367      20.96164513
C       -3.35976148      55.44071579      16.16541862
H       -3.00834680      52.83887100      21.31762123
H       -2.45573616      57.37888718      15.84144783
H       -3.82699847      52.59037399      19.07449341
H       -1.25462234      57.46430588      18.00253677
H       -4.12316084      53.56850052      16.79037857
H       -1.10203052      56.57906723      20.42723274
H       -1.43293834      54.52798843      21.86922836
H       -3.72088170      55.42919159      15.19901371
C       -1.78300214      54.75451279      13.72402382
C       -0.19546060      56.23704529       9.22300053
C       -2.11538482      54.34142685      12.46111774
C       -0.16739529      56.82670593      10.51634979
C       -1.61305499      55.07036591      11.35496235
C       -0.80714494      56.14578629      11.55341911
C       -1.82909143      54.64507294       9.97929096
C       -0.57629567      56.60987854      12.87040138
C       -0.96947300      55.84418488      13.92602825
C       -0.99928099      55.09710312       9.00121117
H       -2.07083178      54.03510666      14.53170109
H        0.31863505      56.73500824       8.38593960
H       -2.89885473      53.55944443      12.39911842
H        0.50061834      57.61441803      10.76207352
H       -2.47919250      53.76189041       9.95855618
H        0.15129061      57.42389297      12.96722031
H       -0.69089711      56.15823746      14.93373394
H       -1.08674908      54.68661880       8.07030678
C       31.75543976      34.32421875       2.61489296
C       30.99525070      38.20923996       5.86877203
C       30.90711021      35.44039154       2.59969211
C       31.84284592      37.21109009       5.72587442
C       30.96417999      36.44920349       3.55138421
C       31.88995934      36.36845779       4.59747934
C       30.03196526      37.52867126       3.72642231
C       32.87385559      35.38196182       4.49402761
C       32.78571320      34.34795380       3.57517505
C       30.06246948      38.36750412       4.81494808
H       31.68638611      33.58655167       1.91567361
H       30.85819626      38.87636948       6.71648026
H       29.96743393      35.40114212       1.97491479
H       32.66162872      37.06721878       6.43221951
H       29.25838470      37.54770279       2.97086358
H       33.83133698      35.55478287       4.92192841
H       33.46174622      33.53091431       3.57832193
H       29.27318192      39.17784882       4.81328917
C       17.16694069      52.93303299      18.78722763
C       19.62643814      51.42030334      14.56248569
C       17.00468445      53.07331467      17.38593864
C       19.80061722      51.13655472      15.86995697
C       17.83739090      52.48774719      16.41715240
C       18.90391159      51.63064957      16.80309677
C       17.62870026      52.78225327      15.03851795
C       18.99521065      51.37942123      18.15642166
C       18.14626884      51.98801041      19.10117722
C       18.56868744      52.26595306      14.17832470
H       16.50881195      53.38871765      19.52098274
H       20.38096619      50.93326950      13.99507427
H       16.45677376      53.89766312      16.91985130
H       20.71736526      50.62853241      16.14633179
H       16.76512146      53.24593353      14.59712410
H       19.78238869      50.85287094      18.62914658
H       18.23325729      51.72594452      20.13866806
H       18.35252571      52.41125870      13.11476898
C        0.30645907      32.06094360       0.06286401
C       21.99043655      33.41283035      23.74360657
C      -17.90392303      31.45996857      27.50489044
C       21.76619339      34.10015488      24.86476707
C       21.95774269      32.11574936      26.20734787
C       21.67207527      33.52784729      26.13097382
C       22.38160324      31.41798019      25.08161545
C       21.09403419      34.16880417      27.29062843
C       20.80315590      33.40710449      28.36709404
C       22.25364113      32.05455399      23.86809731
H        0.21120536      31.68438911       1.06002331
H       22.07840919      33.95305634      22.80480766
H      -17.35838699      30.44380188      27.60359001
H       21.45537949      35.15545654      24.84812737
H       23.02561188      30.56077957      25.12121201
H       20.70831490      35.21519470      27.13886642
H       39.12326431      33.95248032       0.71369159
H       22.28471184      31.47772980      23.00843811
C       13.60852623      55.79991913       0.74761236
C       12.68039894      55.25496292       5.61162663
C       13.68735981      54.72159576       1.54517817
C       12.83025074      56.35365677       4.85321808
C       13.49669647      54.87896729       2.96826768
C       13.22237587      56.13980103       3.49230695
C       13.41507435      53.81012344       3.86355758
C       13.09207916      57.23456955       2.59498763
C       13.31407547      57.09053040       1.23613131
C       12.90767479      53.97303391       5.13141727
H       -4.88921928      55.50299072      28.25481415
H       12.47532654      55.39981842       6.72789478
H       13.76680088      53.71466827       1.10565531
H       12.72241020      57.29524612       5.28932619
H       13.55979156      52.76541519       3.56778598
H       12.70874882      58.14303207       2.86438417
H       13.14674187      57.94896698       0.67206186
H       12.71481419      53.09630203       5.70836306
C        9.24262905      44.75752258      19.75055504
C       12.78218269      42.78728867      22.33988953
C        9.21577930      43.73862839      20.71062851
C       12.43914700      44.23516083      22.60040665
C       10.22182274      43.59414291      21.64822197
C       11.28633785      44.54443359      21.68431091
C       10.43831062      42.48887253      22.69955635
C       11.29194832      45.53628159      20.80591583
C       10.34461308      45.58372498      19.79361725
C       11.73236942      41.92771912      22.30908012
H        8.53162193      44.94203186      18.94448662
H       13.85544586      42.52136230      22.31223106
H        8.41385651      43.11316299      20.72551537
H       13.32071114      44.79478836      22.49662399
H        9.60082150      41.77950668      22.47362900
H       12.15844536      46.27462769      20.84358788
H       10.39958286      46.38343048      19.01690865
H       11.79264069      40.89926529      21.92529678
C       12.07228947      54.04842758      17.30787468
C       14.96221352      50.06419754      17.64802551
C       12.19902325      52.92923737      16.60807419
C       14.79877758      51.09487915      18.48275757
C       13.03214359      51.94993973      17.01003456
C       13.78123474      52.07245255      18.16596985
C       13.28701496      50.86967087      16.12104416
C       13.58404827      53.23075867      18.88540459
C       12.71441555      54.26511765      18.48586845
C       14.17800236      49.92203522      16.48730850
H       11.30414963      54.72475815      16.97854614
H       15.77422142      49.37998962      17.73247528
H       11.68638325      53.04246140      15.68891335
H       15.19533443      51.13843536      19.44968033
H       12.67679977      50.63576508      15.28725433
H       14.18712902      53.33358765      19.78610992
H       12.83573437      55.22985840      18.92508888
H       14.47178841      49.15906143      15.74843788
C       22.84127808      36.36215210      20.28693771
C       21.56045151      37.52655029      24.92046547
C       21.67986679      36.25454330      21.00928688
C       22.71812820      37.64953232      24.18281174
C       21.56513596      36.80128098      22.29718971
C       22.74748421      37.30163956      22.86100960
C       20.33143425      36.83013916      22.95495987
C       23.94933701      37.43241119      22.13105583
C       23.96430397      37.00486755      20.82831192
C       20.30469513      37.14468384      24.33282089
H       22.86211967      35.97758865      19.31156731
H       21.60164833      37.76050949      25.94307137
H       20.81946945      35.68881607      20.75409889
H      -16.23715401      38.06665802      24.78166199
H       19.51194572      36.86434937      22.24474335
H       24.83724976      37.85103989      22.54499817
H       24.94396973      36.77143860      20.38709259
H       19.35708618      37.17913818      24.90526009
C       -7.73844337      34.14815903      15.55300045
C       -9.60447407      29.64817429      16.82942772
C       -8.05002403      33.01306152      14.85445595
C       -9.23369122      30.69334030      17.49309349
C       -8.60738373      31.90327644      15.41462135
C       -8.75717640      31.87627983      16.83886719
C       -9.23148251      30.85323524      14.72558403
C       -8.64134502      33.12441254      17.59308052
C       -7.98603296      34.28783798      16.95338821
C       -9.64321041      29.68153381      15.33468437
H       -7.27124262      35.01454544      15.11217022
H      -10.01659298      28.81442070      17.35466385
H       -7.68287182      33.18638992      13.90493584
H       -9.18339920      30.78695107      18.66027451
H       30.62684631      30.97783661      13.64577007
H       -9.01930904      33.20234299      18.62301254
H       -7.87446403      35.24501038      17.48284340
H       29.61384392      28.86977196      14.84037209
C        9.22017670      51.72905731      25.67494392
C       13.14054680      48.65761566      25.02449989
C        9.56739903      50.78722000      24.71674347
C       12.67498589      49.25990677      26.16990471
C       10.76106930      50.01961899      24.80210686
C       11.45876217      49.98552704      25.98149109
C       11.17637253      49.27339172      23.67223549
C       10.98212433      50.83100510      27.00027084
C        9.87813663      51.70960236      26.90271378
C       12.34904194      48.52530289      23.84557343
H        8.39935303      52.51465988      25.59616280
H       13.96245766      48.10318756      25.15795326
H        8.94376469      50.82282257      23.87985039
H       12.88950157      49.25214386      27.20045662
H       10.61363125      49.26343918      22.76077461
H       11.44936848      50.72653198      27.92484856
H        9.59880733      52.48751068      27.58497238
H       12.87286282      47.90373611      23.16624260
C       13.82960129      50.47412872      12.43607044
C       14.02340603      50.74898911       7.47765303
C       14.70466900      50.12918472      11.48552990
C       13.20784950      51.40978241       8.43331432
C       14.61496449      50.56369781      10.07324123
C       13.40529919      51.17471695       9.80968571
C       15.62185574      50.26084900       9.17545605
C       12.46151924      51.56906128      10.81960773
C       12.62406349      51.22610474      12.09724617
C       15.21842003      50.10855484       7.86949730
H       14.09435749      50.32998657      13.50912571
H       13.88817501      50.78712845       6.36466312
H       15.64363670      49.67174530      11.83144855
H       12.32203197      51.99845123       8.00665474
H       16.61076546      49.76386642       9.38178349
H       11.53836155      52.01366425      10.40384197
H       12.02564049      51.22834015      12.95326233
H       15.99299526      49.70898056       7.10695124
C       -2.37535286      50.54954529      17.83145332
C       -5.41644621      48.75192642      14.39166546
C       -3.49538302      49.73509598      17.99336815
C       -4.36089516      49.58927536      14.32012653
C       -4.15245247      49.37894821      16.75662422
C       -3.69348860      49.93366623      15.55005264
C       -5.26662207      48.41797638      16.74378395
C       -2.62783289      50.97151184      15.51289558
C       -2.01987648      51.31340027      16.68727112
C       -5.85550308      48.09873199      15.54233646
H       -1.75319278      50.93933487      18.69515419
H       -6.06638098      48.57442856      13.58020878
H       -3.64331961      49.15279770      18.90454292
H       -4.04338121      49.89846420      13.38578606
H       -5.54620600      48.07128143      17.70722961
H       -2.51683736      51.47377014      14.58927917
H       -1.32107472      52.09080124      16.53580856
H       -6.69576550      47.46424484      15.42101479
C       -2.23313117      52.62493134       7.26297951
C        0.36436936      48.87707901       5.22431993
C       -1.70526171      52.48179626       6.04909277
C       -0.37119934      48.97410202       6.40850496
C       -0.99262869      51.25547028       5.65485477
C       -1.06627548      50.22435761       6.62122393
C       -0.47172824      50.96593094       4.37740707
C       -1.71732008      50.37712860       7.88060284
C       -2.19638991      51.56241226       8.17237377
C        0.27052429      49.81656647       4.20703936
H       -2.69015646      53.54174805       7.53173828
H        1.03773475      48.02336502       5.06745434
H       -1.85077858      53.34032440       5.29883814
H       -0.39648005      48.25411224       7.25865316
H       -0.47230852      51.72193527       3.64686227
H       -1.83445072      49.49776077       8.56492901
H       -2.87856054      51.61119080       9.07248306
H        0.68184203      49.61751175       3.27345252
C        5.82941627      41.37726593       6.25028372
C        7.28812647      39.39489365       1.60739458
C        6.17583275      39.93422699       5.68307018
C        6.69504833      40.62191010       1.99162436
C        6.85897017      40.05173492       4.28944063
C        6.44617748      40.90018463       3.33921838
C        7.53376770      38.85390091       3.95726419
C        5.47458506      41.99422836       3.69365907
C        5.41254759      42.41086578       5.18090296
C        7.68898344      38.49891663       2.54212499
H        6.48283815      41.58622360       7.14542675
H        7.25941134      39.12228012       0.54503399
H        6.83806944      39.38970566       6.40740013
H        6.36812878      41.25900650       1.24990070
H        7.64502192      37.96570969       4.70058250
H        5.59240532      43.00650024       3.20092559
H        5.76166201      43.48047638       5.51801872
H        8.28141975      37.56654358       2.39920044
C       -0.06850626      37.63571930      17.56575394
C        1.41580141      38.81843185      12.89007854
C        0.07917988      36.85535049      16.37454987
C        1.29187155      39.44651031      14.10866547
C        0.30987531      37.57029724      15.19015789
C        0.67219484      38.95274734      15.27579212
C        0.31202742      36.90951538      13.89189148
C        0.61302149      39.61710739      16.49265480
C        0.06250826      38.98868561      17.62662888
C        0.82429421      37.52925873      12.81274033
H       -0.16630900      37.12871552      18.52016067
H        2.00674725      39.24939728      12.20066833
H       -0.01305260      35.72702026      16.46308136
H        1.65383625      40.48398590      14.26937199
H       -0.06712200      35.94306564      13.78734589
H        0.83220685      40.66531372      16.35282135
H       -0.06982380      39.38922882      18.56954193
H        0.56136698      37.16636658      11.84902287
C       -8.76835442      34.88393784      20.87116051
C      -10.65754795      34.92915726      25.56938171
C       -8.26322651      35.32614899      22.10174561
C      -11.15283680      34.57183456      24.34363174
C       -9.09394360      35.35013199      23.23136711
C      -10.34857559      34.74065018      23.19179153
C       -8.71314907      35.82699966      24.55550575
C      -10.79649830      34.23942947      21.91904068
C      -10.05572510      34.30568314      20.77732658
C       -9.45015717      35.67438507      25.64604378
H       -8.12998486      34.95363235      19.96965790
H      -11.17497444      34.65506363      26.53463364
H       -7.27461004      35.76148987      22.11388588
H      -12.06511688      34.09532547      24.23014259
H       -7.69122982      36.27295303      24.73488045
H      -11.73831749      33.70933914      21.78346634
H      -10.41205406      33.82442474      19.89357948
H       -9.03366661      35.96101379      26.62764931
C       21.35697174      54.95948410      24.92848778
C       38.29648972      52.05609512       0.02147400
C       20.92633820      53.71159744      24.90274811
C       19.82586670      53.36096191      28.45495415
C       20.48796272      53.08783722      26.11608315
C       20.46981239      53.93221664      27.23392868
C       20.02791977      51.77502441      26.15878296
C       20.97790146      55.19382477      27.26215935
C       21.36635590      55.79388428      26.10684776
C       19.50011635      51.28637314      27.38570595
H       21.92001343      55.43917847      24.13367081
H       37.90032196      51.73031235       1.04625905
H       21.07889175      53.03993988      24.07546806
H       38.66719818      53.99367905       0.83928138
H       19.97968483      51.22191620      25.23142624
H       20.62077522      55.85941315      28.07796097
H       21.75518417      56.78593826      26.11560440
H       19.12895966      50.30919647      27.42088890
C       15.04668808      55.51048660      15.91256046
C       14.45859337      55.80446625      10.92053223
C       14.65628242      54.49998093      14.95835686
C       14.29599190      56.70796204      11.95991325
C       14.50344086      54.90391541      13.67122746
C       14.31571388      56.20753860      13.31545544
C       14.50644970      53.89210129      12.51163197
C       14.57676029      57.15447235      14.27340031
C       14.86332703      56.82671356      15.60249901
C       14.60321712      54.38933945      11.23773193
H       14.99395275      55.27573013      16.93280411
H       14.22117901      56.18087006       9.93857956
H       14.83121967      53.42925644      15.28592777
H       14.36664009      57.82631302      11.87217617
H       14.53837967      52.81497574      12.72917271
H       14.44942951      58.23136139      14.09736633
H       15.23553276      57.50801086      16.44140244
H       14.57437420      53.72418976      10.42621136
C       -0.12420174      55.74385834      25.29701805
C       -4.07974815      58.80621338      26.16654587
C       -0.56507236      56.92404556      24.75043106
C       -3.73347425      57.60885239      26.72025108
C       -1.71014357      57.58852768      25.31456566
C       -2.52468967      56.95349503      26.29562378
C       -2.05085111      58.87287140      24.83871269
C       -2.08376503      55.72855759      26.77361870
C       -1.01838493      55.06618500      26.14529419
C       -3.21901584       0.53330159      25.20589828
H        0.82513744      55.31535721      25.07180023
H       -4.89876032       0.47523376      26.47354889
H       -0.09952334      57.31773376      23.92753029
H       -4.37450600      57.15415955      27.46349716
H       -1.42152190       0.50835592      24.18636322
H       -2.72698212      55.22468185      27.53708076
H       -0.85390133      54.06598282      26.38903809
H       -3.44543648       1.49520147      24.94277573
C        6.82133961      33.35585022      11.32523441
C        6.22341824      37.60435867       8.70116615
C        6.12057543      33.66409302      10.21885777
C        7.04418468      37.22046280       9.76930428
C        6.20155859      34.92895126       9.66670322
C        7.13236332      35.87459183      10.21536541
C        5.41693735      35.36042404       8.58520031
C        7.89987946      35.49647903      11.35706043
C        7.77445555      34.24381638      11.86282730
C        5.49239111      36.59994888       8.05455971
H        6.70863724      32.36941528      11.73247337
H        6.11648798      38.64536667       8.56213284
H        5.41820049      32.98858643       9.77389431
H        7.67218781      38.06055450      10.21578979
H        4.89853811      34.44756699       8.15774155
H        8.69102764      36.10497284      11.60331249
H        8.34899139      33.89974976      12.69746590
H        5.01410770      36.88376236       7.13940716
C        0.34746346      54.05447388      17.44625664
C        1.53885496      53.96788025      22.45196724
C        0.30207214      53.09310913      18.38335991
C        1.69782853      54.85965729      21.39443588
C        0.69862050      53.39822769      19.77812767
C        1.33878446      54.59256363      20.06081963
C        0.54975069      52.53035355      20.87071800
C        1.55751097      55.51126480      18.99946594
C        0.96141636      55.26230240      17.75619698
C        0.94609714      52.69570541      22.14364433
H       -0.21057153      53.93247986      16.50114250
H        2.11760807      53.99258804      23.45352936
H       -0.17941004      52.11470413      18.18170547
H        2.09360647      55.88592529      21.72814178
H        0.15146686      51.60826492      20.60718346
H        1.97877955      56.52151871      19.23950195
H        0.88030958      56.04184723      17.00852394
H        1.08670247      51.96655655      22.90160561
C       12.76444912      57.41424561      28.34616661
C       16.89680099      56.76816177      25.56456184
C       12.92372322      57.15904617      26.98292923
C       16.68325615      57.31004715      26.83956718
C       14.21275806      56.95147324      26.53487587
C       15.30438042      57.33916092      27.33499336
C       14.56823158      56.19015884      25.37894058
C       33.90294266      57.58860779       0.15176219
C       32.62377167      57.47446442       0.76316828
C       15.85765076      56.10594559      24.91232872
H       30.60434914      57.39124298       0.31683937
H       17.96140862      56.76532364      25.14994049
H       12.06409931      57.00119400      26.40235519
H       17.50539589      57.74006653      27.34564400
H       13.76260090      55.84860992      24.73159218
H       34.77371979      57.72374725       0.78712374
H       32.67954636      57.51466751       1.82365286
H       15.97264862      55.70075226      23.92434502
C        6.67597532      30.60773849      19.81990814
C        8.56717205      30.46364784      24.39945793
C        7.77688408      30.03610229      20.41913605
C        7.66218662      31.34830093      23.83037186
C        8.06016445      30.30419350      21.70607376
C        7.25733233      31.21080208      22.48583603
C        9.10040951      29.57565880      22.27174568
C        6.03817034      31.65514374      21.97845840
C        5.83590841      31.44799805      20.57276917
C        9.17904377      29.50133705      23.61815834
H        6.50621366      30.47378159      18.72503471
H        8.79237175      30.53243828      25.46843147
H        8.39306831      29.45158768      19.75452232
H        7.13434219      32.12408066      24.33464623
H        9.68129635      28.84699440      21.73731232
H        5.37692642      32.22129440      22.50896835
H        4.92404652      31.77905655      20.01360703
H        9.86801434      28.77464676      24.10712624
C       15.84908962      37.37724304      23.58903503
C       11.39225101      37.90620422      25.55668259
C       15.01109123      36.57847977      24.32949829
C       12.18058968      38.78478241      24.83599281
C       13.78593159      37.08821106      24.79907799
C       13.40073872      38.36954117      24.38562775
C       12.80882168      36.17875671      25.35334969
C       14.24305058      39.17926788      23.69160843
C       15.52394772      38.68452454      23.31382942
C       11.64317322      36.51918793      25.76036453
H       16.73916435      36.92010117      23.09418297
H       10.49685955      38.34619904      25.92189598
H       15.26941299      35.61299133      24.64085770
H       11.81431770      39.74216461      24.64617729
H       13.13560009      35.10406494      25.43713379
H       13.86120987      40.22612381      23.47304153
H       16.13817787      39.29425430      22.60741425
H       10.88138103      35.85414505      26.09544754
C       18.04634857      30.36130142      12.93433189
C       20.90703392      34.12527847      11.16229248
C       19.14219093      31.00226974      13.36128426
C       19.83490372      33.46315765      10.57702732
C       19.68593025      32.08099365      12.62672615
C       19.22592354      32.35821152      11.29912186
C       20.66201401      32.82341766      13.25116444
C       18.10583878      31.64138412      10.84374046
C       17.44493866      30.77359962      11.68125153
C       21.21516037      33.89739609      12.53502846
H       17.57733917      29.58049011      13.52802658
H       21.34768677      34.85002899      10.54824352
H       19.53100967      30.74806786      14.32447433
H       19.52318382      33.47165680       9.49008179
H       20.93772888      32.58593750      14.23986435
H       17.74802971      31.98002815       9.89091396
H       16.45665932      30.35838699      11.47709656
H       22.02759743      34.37894058      13.13092327
C       -2.50202107      58.67766190       9.01762199
C       -5.21843147      57.39422989      13.02099609
C       -2.46165824       0.15756412      10.31718445
C       -4.86907291      56.64442062      11.87293625
C       -3.35954094      58.55034256      11.31511784
C       -3.97902322      57.36363220      10.92520618
C       -3.69871402       0.25695691      12.53508377
C       -3.90995359      56.89447021       9.58997631
C       -3.20832562      57.54798126       8.62125397
C       -4.66352177      58.64636612      13.36219311
H       -1.89749885       0.26940385       8.24096680
H       -5.93103743      56.83480072      13.66648865
H       -1.87009883       1.03003085      10.81140232
H       -5.26339102      55.71328354      11.65883827
H       -3.26403427       1.24769092      12.77245140
H       -4.10527658      55.82189178       9.54606819
H       -3.12684321      57.16770172       7.62204027
H       -4.99578285       0.24014759      14.21748543
C        9.68286419      36.98916626      21.63726616
C       13.52580833      34.67380905      19.68726349
C       10.88600159      36.64839172      22.16720963
C       12.25750065      34.87559509      19.28694344
C       11.81429863      35.85115051      21.46802521
C       11.44375134      35.57095718      20.14180565
C       13.09490776      35.53977203      21.82870865
C       10.20381355      35.99348831      19.60695457
C        9.27608776      36.68080902      20.35066795
C       13.99476147      35.03123474      20.96133804
H        9.05700970      37.51099777      22.39847374
H       14.19135094      34.08174515      19.03867912
H       11.16179085      37.14883804      23.10728836
H       11.76362324      34.61982727      18.33734131
H       13.50990200      35.71585464      22.85726357
H        9.94237995      35.74690628      18.54955482
H        8.34404373      37.03958130      19.81144524
H       15.05292511      34.95698166      21.22328758
C        8.70499229      58.31697083       7.46251440
C        5.72536325      58.08236694      11.60687923
C        8.78682899      57.69022369       8.75416088
C        5.54836464      58.67773056      10.31881714
C        7.79009199      57.79393387       9.70437145
C        6.60689354      58.49816513       9.38937664
C        7.92488337      57.19213104      10.99281216
C        6.51825953       0.26683351       8.16007996
C        7.55976009       0.15518734       7.18856478
C        6.91245270      57.42176437      11.89353847
H        9.60126686      58.10422134       6.89951468
H        4.89678001      58.06861496      12.31393242
H        9.61151409      57.10246658       9.03491020
H        4.62614203       0.25384462      10.04081249
H        8.94337654      56.90407562      11.07137966
H        5.63412094       0.86769265       7.88114595
H        7.43884134       0.58581871       6.22047043
H        7.07130575      57.04299545      12.89745331
C       -8.03602886      48.17710114      22.09523201
C       -9.81006527      49.16552734      17.43991661
C       -9.37349701      48.41984177      21.60824013
C       -8.57469654      48.70799637      17.94937325
C       -9.68855953      48.37481308      20.19281197
C       -8.52242851      48.32324219      19.33540535
C      -10.89597130      48.69918823      19.50411797
C       -7.28718185      48.06275558      19.92038155
C       -7.00947046      47.94303131      21.24658585
C      -11.01387692      49.12132645      18.24870300
H       -7.94326687      48.27608109      23.22870445
H       -9.85083103      49.71805573      16.53714180
H      -10.28057480      48.46459198      22.32010078
H       -7.60924387      48.64056396      17.27514076
H      -11.80050659      48.59242630      20.03602791
H       -6.42629290      48.23683166      19.25466347
H       -5.95266867      48.01691437      21.45270348
H       27.84319115      49.41498184      17.72954369
C       -4.10538054      55.80248261      23.46536255
C       -4.22673559      57.94640732      19.02719688
C       -3.57968712      56.95319748      22.96332169
C       -4.82893515      56.91623688      19.50035095
C       -3.92765045      57.38276672      21.66985130
C       -4.66118240      56.56391144      20.90513611
C       -3.29090190      58.48029327      21.10410309
C       -5.23431921      55.43512344      21.48730850
C       -4.92570782      55.02342224      22.71645546
C       -3.29705524      58.66595078      19.76733398
H       -3.90610147      55.48861313      24.44885063
H       -4.15470266      58.24951553      17.95077896
H       -2.98500776      57.62652206      23.59794617
H       -5.56837654      56.31614304      19.00886536
H       -2.48744345       0.00163011      21.66972923
H       -5.69920921      54.77928162      20.82025337
H       -5.41369534      54.13457870      23.11155319
H       -2.74224162       0.57550609      19.32556534
C        3.79758692      34.91396332      25.15801048
C        8.13098812      35.87678146      27.84118271
C        4.95965433      34.12511826      25.53409004
C        7.12928772      36.87879944      27.19703865
C        6.00607109      34.81200409      26.20640755
C        5.87223768      36.10140991      26.64909363
C        7.17734289      34.05801392      26.55874252
C        4.64094257      36.72193146      26.63783073
C        3.60759950      36.14417267      25.85567856
C        8.07026768      34.53210068      27.50257301
H        3.03705907      34.60655212      24.45057487
H       27.61010170      36.32206726       0.06002818
H        4.83444023      33.05480576      25.34838295
H        6.81794405      37.61482239      28.04244423
H        7.22605705      33.06435776      26.02362251
H        4.58872461      37.63365936      27.25991631
H        2.64204550      36.57341766      25.93742180
H        8.78457165      33.96649551      28.06560135
C       20.09785843      43.90730667       4.96147633
C       15.67540264      43.83087921       2.69938040
C       19.19343567      44.93996429       4.56647348
C       16.60328865      42.85895538       2.96151662
C       18.03647804      44.64157104       3.90942550
C       17.80463982      43.27997208       3.63928223
C       17.09977531      45.68503189       3.45544910
C       18.78033638      42.23168945       3.91011357
C       19.96934319      42.55473709       4.62635612
C       15.95097828      45.23611069       2.90348244
H       21.00451660      44.20010757       5.54382086
H       14.75731277      43.61989212       2.24935436
H       19.23209000      45.94270325       4.79768515
H       16.48066139      41.89648056       2.67244291
H       17.32281303      46.71482849       3.70545745
H       18.57190704      41.23243713       3.57952738
H       20.67599487      41.85919571       4.62424278
H       15.24819660      45.97319031       2.76665115
C       -2.42290187      52.71128845      24.39294052
C       -4.36564589      48.20297623      23.29620361
C       -2.29857802      51.89498901      23.33534622
C       -4.49010992      49.04440689      24.34106827
C       -2.95396829      50.64099884      23.42906380
C       -3.81750774      50.32398224      24.45103645
C       -2.86290979      49.76815033      22.31824684
C       -4.05638075      51.31185532      25.42276764
C       -3.34541655      52.44673157      25.37747765
C       -3.52684689      48.57894516      22.27128029
H       -1.98417723      53.77601242      24.43941498
H       -5.01769257      47.26991272      23.39508438
H       -1.55699241      52.19669342      22.56008530
H       -5.31683111      48.86272430      25.08044434
H       -2.28912640      50.06916428      21.47608566
H       -4.74572134      51.12211609      26.19067764
H       -3.69834113      53.20217896      26.07582474
H       -3.40485263      47.94665909      21.34114265
C       -9.89894581      40.90370178      19.76225281
C       -8.76196575      43.99823380      15.87908459
C       -9.33182335      42.16654968      19.67820549
C       -9.06816959      42.68436432      15.96325684
C       -9.03878403      42.75105667      18.37080574
C       -9.23541832      41.97429657      17.22224808
C       -8.66103458      44.07821655      18.33196640
C       -9.82765484      40.70943069      17.35046768
C      -10.12093830      40.13075256      18.56750488
C       -8.51675129      44.64999390      17.07386971
H       -9.81309032      40.26858902      20.59053040
H       -8.79987431      44.53146362      14.96339798
H       -9.11550331      42.82206726      20.59238052
H       -9.10972118      42.05093384      15.13359737
H       -8.66495609      44.64246750      19.17556763
H      -10.33488750      40.27002716      16.37299919
H      -10.51954937      39.09658051      18.75979042
H       -8.20524883      45.73319244      17.11754799
C       17.61456299      34.24215317      23.79268265
C       15.72961617      29.66179848      23.74839020
C       16.46961403      33.69348145      23.35658646
C       16.89868164      30.21268082      24.17893410
C       16.17244530      32.35038376      23.48415565
C       17.14760399      31.60064125      24.11952972
C       15.03293610      31.71868706      22.98861313
C       18.39063072      32.13466263      24.69891357
C       18.63038254      33.44397354      24.43533707
C       14.76643658      30.38730621      23.07212448
H       17.67776299      35.32008743      23.62434578
H       15.54861641      28.61512756      23.85671806
H       15.61022854      34.36389160      23.13846588
H       17.74415588      29.68357086      24.55576897
H       14.35735607      32.33623505      22.42420197
H       19.12897873      31.42528534      25.06475449
H       19.54366684      33.87982178      24.85357857
H       13.90285683      29.84287071      22.69402313
C        3.52473235      29.99575615      16.80668449
C        6.35865545      28.37330818      13.04336357
C        3.53221369      30.28341675      15.48043346
C        6.24485445      28.12327385      14.41642189
C        4.50524855      29.67745781      14.65921116
C        5.32873964      28.76156616      15.27190399
C        4.65421915      30.04379845      13.31921005
C        5.30269051      28.44421768      16.64553452
C        4.39772511      29.08571243      17.44052315
C        5.61538267      29.48235130      12.52478409
H        2.78111601      30.52131462      17.34090233
H        6.98223591      27.78297234      12.38766003
H        2.69594431      30.91879272      15.15908813
H        6.84553432      27.25618553      14.77582645
H        3.93338919      30.80130005      12.99146080
H        6.07280874      27.71237564      17.10588646
H        4.46836090      28.89675331      18.53289032
H        5.85209370      29.74244881      11.50256157
C       23.16706848      55.18284607       7.50259733
C       22.04723358      58.29837036      11.38217163
C       23.41711235      55.19236755       8.80969334
C       21.85102844      58.32876587      10.01605225
C       22.81398773      56.08731461       9.73565006
C       22.27333260      57.27828979       9.17681122
C       22.98909569      56.00967789      11.11941147
C       21.94103241      57.26395035       7.75438881
C       22.45122337      56.33826065       6.89144373
C       22.59451103      57.06237030      11.90944099
H       23.63396263      54.42050934       6.87785482
H       21.74743080       0.21676207      11.96370316
H       23.87817955      54.35293961       9.30480480
H       21.26376343       0.14358756       9.46044731
H       23.40611458      55.07270432      11.51565552
H       21.29466057      58.07723618       7.42535305
H       22.15377235      56.35583496       5.89285994
H       22.83173370      57.03990936      12.96132755
C       27.86747360      35.56057358       4.10912895
C       23.32050133      36.08185959       1.83826745
C       26.76294327      36.37798309       4.35912275
C       24.49782753      35.48313141       1.46342576
C       25.62476730      36.39478683       3.42829990
C       25.65585899      35.51402664       2.31846166
C       24.35803413      36.88602829       3.89355183
C       26.71335983      34.57423782       2.24087167
C       27.80689812      34.67810059       3.01073170
C       23.19494057      36.63645554       3.17506003
H       28.67584991      35.54920959       4.78752804
H       22.48279762      35.91047287       1.18612123
H       26.67861938      36.99025726       5.22327137
H       24.55542564      34.85037994       0.49404877
H       24.21829224      37.36466980       4.85385704
H       26.64185333      33.77176666       1.55839050
H       28.63134956      33.93052292       3.08019924
H       22.25530434      37.01100159       3.52369928
C      -10.40208817      52.21673965      21.15371132
C       -6.47704601      51.44352722      18.30921936
C       -9.16251850      51.81351089      21.41557884
C       -7.73936748      51.79499054      18.02053833
C       -8.29977703      51.53744507      20.32872200
C       -8.71807480      51.88587189      19.00271797
C       -6.91695690      51.27261353      20.60445976
C      -10.04390144      52.30022430      18.74643707
C      -10.79406261      52.42998886      19.84064102
C       -6.00234938      51.22716522      19.62721634
H      -11.05727768      52.36409760      22.03675652
H       -5.86461449      51.13757706      17.49117661
H       -8.77769566      51.80668259      22.40876579
H       -8.09284401      51.83431244      16.99436378
H       -6.67467785      51.17652130      21.69494247
H      -10.22549725      52.73161697      17.72293282
H      -11.83330250      52.76312637      19.75735283
H       -4.94913101      51.04579926      19.78992653
C       21.54220200      35.24578857      17.02874565
C       17.51656151      37.87509537      18.48373032
C       20.80509567      35.12790298      18.16471291
C       18.43140411      37.93383026      17.54460144
C       19.69022369      36.02755737      18.32307243
C       19.55827332      37.06824112      17.42184639
C       18.78561974      36.03807068      19.41264343
C       20.39110756      37.15412140      16.21484375
C       21.32661057      36.23975754      16.05603218
C       17.66274071      36.82759476      19.51009178
H       22.48210907      34.64038467      17.07096863
H       16.65024948      38.45756531      18.58194733
H       21.00971222      34.44918442      18.97521591
H       18.42674255      38.62950134      16.74629974
H       18.83660698      35.26292801      20.15817833
H       20.34842300      37.97138977      15.43739700
H       22.11963272      36.39395523      15.36580181
H       16.79136086      36.77558517      20.24874496
C       10.11803436      55.51917267      20.45201874
C        5.81011248      54.42556763      22.75793648
C        9.84557629      55.31477737      21.77536201
C        6.07458067      54.84624863      21.49004555
C        8.47026062      54.97236252      22.10433197
C        7.49320745      55.00130844      21.13279343
C        8.15303612      54.57759857      23.49167442
C        7.89384365      55.22295380      19.75464821
C        9.13069344      55.55048370      19.46450233
C        6.78091145      54.50854492      23.78664589
H       11.11865139      55.84789276      20.29400635
H        4.79470921      54.30281448      23.07986832
H       10.65765858      55.14013672      22.50960732
H        5.31192636      54.71151352      20.75485039
H        8.95509338      54.52273560      24.26028442
H        7.23522377      54.98524857      18.96445847
H        9.35305119      55.80815506      18.48854446
H        6.39121437      54.22438812      24.75774193
C       20.34117699      43.44503403      12.08827877
C       17.21996689      46.64785385       9.87367249
C       19.72493553      44.59297562      12.52408504
C       18.15266418      45.80183792       9.34046078
C       18.91551971      45.38538742      11.65980244
C       18.94329262      45.05604935      10.28876877
C       18.10551071      46.38007355      12.05232811
C       19.60337067      43.91128922       9.93153095
C       20.29461288      43.04270554      10.75170994
C       17.22758865      46.93924713      11.25366402
H       21.10497475      42.83718491      12.57597446
H       16.68456078      47.18181992       9.12318516
H       19.86366844      45.01911163      13.51500607
H       18.19031525      45.54018784       8.30343819
H       18.23341751      46.69155884      13.04999447
H       19.41532135      43.71387482       8.86332226
H       20.67958260      42.08375931      10.37300682
H       16.43700600      47.67211151      11.49581432
C       26.63004494      57.31088257       4.51890898
C       25.94740105      56.83991241       9.50813770
C       25.56033707      57.69246292       5.40789652
C       26.59790802      56.04322052       8.56097794
C       25.52832794      57.44165039       6.79883337
C       26.44223976      56.44410706       7.18438864
C       24.94389343      58.16577530       7.88593149
C       27.25712967      55.73220062       6.25395298
C       27.42781258      56.19725037       4.95715857
C       25.06139565      57.82650375       9.17638493
H       26.72644424      57.75930023       3.53309131
H       26.34751320      56.58743286      10.49224091
H       24.73357582      58.35220718       5.18742609
H       27.49009895      55.45360947       8.72556972
H       24.23115540      58.92108917       7.59990692
H       27.59677124      54.88289642       6.74344683
H       28.20978928      55.65198898       4.45887613
H       24.57943726      58.25872421      10.03368282
C       15.16246033      34.97385025       3.03723431
C       19.30540085      37.82855606       3.68336368
C       16.41913414      34.80262756       3.47257233
C       17.98829269      38.08766174       3.21012783
C       17.41558647      35.80147552       3.55126429
C       16.97997284      37.08975220       3.08388257
C       18.63401222      35.56470489       4.13945198
C       15.67620087      37.27554321       2.46855235
C       14.82136059      36.21126175       2.52024913
C       19.67732429      36.48623276       4.04988956
H       14.42844677      34.26781845       2.91843987
H       20.11326981      38.53860474       3.70962453
H       16.66268539      33.81576920       3.96059465
H       17.87009048      39.14660645       3.06280088
H       18.80960274      34.65092468       4.65594530
H       15.51924610      38.19152069       1.87547302
H       13.86851311      36.28292847       2.11606812
H       20.69739532      36.28181076       4.36802483
C       19.22289276      55.52798462       9.55059910
C       22.73606300      52.04114914      10.33036995
C       19.70376587      54.87680435      10.62125969
C       21.87136459      52.27764893       9.25972080
C       20.56278229      53.78686905      10.66035366
C       20.97930717      53.27761459       9.41268444
C       21.32239151      53.34019470      11.72411823
C       20.38319206      53.84394836       8.19604492
C       19.59073448      54.93448257       8.29094791
C       22.38194084      52.52455139      11.57568550
H       18.61306763      56.35446548       9.80221558
H       23.55544281      51.31108475      10.23299789
H       19.39186478      55.09032822      11.67275143
H       22.04298210      51.85000992       8.33199310
H       21.01574516      53.75501633      12.69828033
H       20.71107864      53.50079727       7.13829565
H       19.39435577      55.50518036       7.43186712
H       23.01055908      52.36872864      12.43337822
C       26.34844398      45.04883957       3.24604940
C       21.47965813      45.86161041       2.19823051
C       25.54282761      46.12796021       2.87752581
C       22.13414955      44.69980621       2.46561480
C       24.20230293      46.04870224       2.54772711
C       23.59020042      44.71268463       2.63557982
C       23.50656128      47.18097305       2.30444527
C       24.48965454      43.61057663       2.87518334
C       25.81582069      43.74591064       3.04976773
C       22.15541840      47.12729263       2.15928316
H       27.37402534      45.23009872       3.54853010
H       20.41097450      45.78930664       1.89655113
H       25.96708298      47.12431335       2.81546116
H       21.71960258      43.63803864       2.27445889
H       23.99114037      48.12854385       2.35452867
H       24.02278519      42.60568619       2.79444098
H       26.38552094      42.83197784       3.32418346
H       21.53993797      48.02494431       2.00665808
C       -2.44355392      46.95574951      17.07772255
C        1.23136544      49.81647491      19.14919472
C       -1.50905788      47.78136063      16.59238434
C        0.21873924      48.94068909      19.63049126
C       -0.42397937      48.28284073      17.37975693
C       -0.57703561      48.13095474      18.88439941
C        0.63969529      49.15187073      16.94029427
C       -1.68930089      47.35066605      19.34135437
C       -2.47269106      46.68338776      18.44565964
C        1.41685367      49.88839722      17.78506660
H       -3.18737292      46.58816147      16.36160469
H        1.75314105      50.32618332      19.90848732
H       -1.33565688      47.86249161      15.51235294
H        0.07597130      48.90444946      20.72184563
H        0.71443737      49.29711533      15.88591957
H       -1.81130767      47.15422440      20.40336037
H       -3.34967184      46.21947479      18.86622429
H        2.16998625      50.53713226      17.28356743
C       32.05115128      51.07691574       5.02377796
C       28.73596001      47.63048935       3.83985424
C       32.23013306      49.75646591       4.71376324
C       28.67373848      48.96158218       4.46600819
C       31.08043480      48.91438293       4.59205532
C       29.80376434      49.62810898       4.73393297
C       31.07447624      47.65572739       3.98089194
C       29.59160042      50.89390564       5.24222851
C       30.77598953      51.60195541       5.39323998
C       29.95138359      47.01477051       3.55978465
H       32.96647644      51.70506287       5.02282143
H       27.83454704      47.11487579       3.57259107
H       33.21407700      49.44099426       4.27932358
H       27.70846176      49.48330307       4.70501184
H       32.06655884      47.20859528       3.79120207
H       28.59132385      51.34861755       5.39841127
H       30.67756081      52.58531952       5.81463575
H       29.99271584      46.06169891       3.02948380
C       21.63212013      47.18127823      13.68246651
C       18.00116158      47.66740036      17.15315819
C       20.49811745      47.86709976      13.66638088
C       19.16530991      46.92021561      16.95738983
C       19.53759766      47.72182083      14.72612953
C       19.88258743      46.79195023      15.83428192
C       18.36841393      48.48738861      14.82934380
C       21.17495918      46.12212372      15.78300190
C       21.99022484      46.27262115      14.68554497
C       17.65879250      48.51186752      16.04659843
H       22.07337952      46.97063828      12.75791454
H       17.53669929      47.80563736      18.08349419
H       20.19505882      48.52320480      12.82363415
H       19.59137726      46.43824768      17.81386757
H       18.14410782      49.13589096      13.98323345
H       21.45525932      45.51997375      16.70491982
H       22.86748505      45.60681534      14.37837029
H       16.90390587      49.27408218      16.19890404
C        9.31886387      42.13740921       1.95564127
C       12.00925922      46.24459839       0.91202152
C       10.49554729      42.61680603       2.25649738
C       10.72835827      45.89523697       0.52862066
C       11.03948307      43.84836578       1.75980020
C       10.19237232      44.63304520       1.01672769
C       12.35548401      44.22932434       2.05505323
C        8.97522163      44.15727234       0.61272109
C        8.53023911      42.88143158       1.07270193
C       12.82676792      45.41868973       1.70809674
H        8.92105103      41.24820328       2.35241151
H       12.24366570      47.28881836       0.57924634
H       11.33154106      42.06234741       2.73447084
H       -8.52425194      46.66225433      28.48073769
H       12.90796852      43.67239761       2.73422790
H      -10.39198017      44.55821991      28.26855659
H        7.53118515      42.44471359       0.64197588
H       13.83315086      45.64724350       1.88178539
C       18.39138794      50.69384384      11.17127609
C       18.41170883      50.25753784       5.97596407
C       18.66665268      49.73970413      10.23975658
C       18.38515854      51.28614044       6.93124390
C       18.64373779      49.83554077       8.77859688
C       18.43311501      51.13821793       8.33430195
C       18.87928581      48.78281784       7.83731127
C       18.12287521      52.20552063       9.21166706
C       18.22516823      52.00652695      10.61758995
C       18.80590057      48.98837662       6.46755791
H       18.38170815      50.34525299      12.18820763
H       18.46709251      50.48683166       4.86039925
H       18.95971107      48.82826233      10.63187122
H       18.16317177      52.36038589       6.63775587
H       19.33714485      47.88712311       8.22511578
H       17.99719810      53.22953415       8.93208885
H       18.03841782      52.87695694      11.27150345
H       19.03092384      48.17510986       5.86809444
C       35.77483749      40.18796921       6.00246906
C       35.86960602      39.52330780       1.01538789
C       -3.16317272      40.47244644       4.96250439
C       35.04894638      39.00190353       1.98926067
C       36.43523026      39.96324539       3.64776897
C       35.33280182      39.14961624       3.36631298
C       37.32358170      40.34320068       2.65580869
C       34.52216339      38.70212555       4.38913441
C       34.81140137      39.17843628       5.63502884
C       37.08269119      40.14791107       1.26656735
H       -4.04467821      40.68310547       6.90887213
H       16.80766106      39.35432434      28.46050835
H       -2.36091113      41.19540024       5.06144238
H       34.18118668      38.40398026       1.66753960
H       -1.59178281      40.85527039       2.94031477
H       33.67165756      38.10570908       4.31917334
H       34.12614822      38.81927109       6.41090965
H       37.86191940      40.49110413       0.61439276
C       11.29912472      37.94806671       1.12657201
C       -6.24819708      42.60600662      27.99281883
C       12.36488724      38.78271484       1.27019167
C       -7.36371231      41.85787201      27.89038277
C       12.38166046      40.07406235       0.65299422
C       -7.56820536      40.54382706      28.49392509
C       13.55541611      40.82662201       0.65717638
C       10.15523720      39.59154129       0.01355771
C       10.13614082      38.31901932       0.46020421
C       13.66137695      42.05332947       0.05250692
H       11.57296467      36.95303726       1.48750830
H       -6.39451313      43.65103531      27.69940567
H       13.35179329      38.40317154       1.63155556
H       -8.10007477      42.31512833      27.19615173
H       14.42704868      40.52197266       1.24448001
H       -9.55201817      40.07065582      28.12195969
H        9.24945641      37.75949860       0.38825741
H       -4.24104500      42.63621140      28.28849792
C        4.39803457      40.90603256       6.29799604
C        3.54775429      38.46338272       1.63587213
C        4.64706135      39.58246613       5.65146208
C        3.46704268      39.79053879       2.02525783
C        4.07958460      39.21457291       4.31680393
C        3.68066096      40.16549683       3.40105200
C        3.98608780      37.90705490       3.91838312
C        3.95671368      41.57341766       3.74472666
C        3.99961066      41.99296951       5.25122595
C        3.86260676      37.55533218       2.59199166
H        3.55013490      40.77020264       7.05032206
H        3.50512528      38.24724579       0.55862027
H        4.30567312      38.90367889       6.37512589
H        3.16055799      40.57818222       1.32426381
H        3.97948623      37.09730148       4.62121058
H        3.45547986      42.20235062       3.13401008
H        3.36665630      42.81081009       5.66344118
H        4.15886021      36.64972305       2.18898153
C       25.34340668      33.81261063       5.89350557
C       23.99017906      34.83154678      10.48291492
C       25.43817329      34.93366623       6.67130899
C       24.19366074      33.63003540       9.82013988
C       24.86343384      34.96755981       7.89705515
C       24.59608078      33.72546387       8.45942783
C       24.73667717      36.13679886       8.59150314
C       24.75671768      32.44790649       7.71689272
C       25.04818726      32.54943466       6.42378616
C       24.13534737      36.06241608       9.79064178
H       25.68552208      33.92876053       4.79841805
H       23.41632271      34.71353149      11.39073277
H       25.75943947      35.84790802       6.14291430
H       24.26320076      32.69169617      10.32016563
H       25.01925087      37.10351944       8.27031612
H       24.47491074      31.54140472       8.11617947
H       24.91932678      31.69446754       5.67822266
H       23.77539062      36.89259338      10.40947723
