3200
Lattice="32.87799863689386 0.0 0.0 0.0 32.87799863689386 0.0 0.0 0.0 32.87799863689386" Properties=species:S:1:pos:R:3:molecule_id:I:1:molecule_component:I:1:source_atom_id:I:1:molecule_kind:I:1:template_atom_index:I:1 charge=0 construction_density_g_cm3=1.0 packmol_precision_a=0.001 nci_system_id=1.041 nci_scale=1.0 packmol_seed=20260723 packmol_tolerance_a=2.0 periodic_min_distance_lower_bound_a=2.1978073856580345 periodic_min_distance_a=2.1978073856580345 system="phenol + N-methylacetamide" pair_count=128 molecules_per_species=128 count_definition="The count is the number of independent phenol molecules and the equal number of independent N-methylacetamide molecules; it is not a count of pre-bound dimers." base_pair_count=128 supercell_repeat_x=1 supercell_repeat_y=1 supercell_repeat_z=1 pbc="T T T"
H        5.18008200       5.93564600      12.50729300        0        0        0        0        0
H        7.27595100       5.29405700       8.81372000        0        0        1        0        1
H        7.20036200       6.23308600      11.10624500        0        0        2        0        2
H        3.31362100       3.73977200       9.35670600        0        0        3        0        3
H        2.28620700       4.32382100      11.33166900        0        0        4        0        4
H        5.31935200       4.04521900       7.94832900        0        0        5        0        5
C        6.39615400       5.16530300       9.42699400        0        0        6        0        6
C        6.35065900       5.69092000      10.71464300        0        0        7        0        7
C        5.22437900       5.52984600      11.50691800        0        0        8        0        8
C        4.11952800       4.83157300      11.01755000        0        0        9        0        9
C        4.16255800       4.29571900       9.72783000        0        0       10        0       10
C        5.29647000       4.46739100       8.94378800        0        0       11        0       11
O        3.04142700       4.70407700      11.82350700        0        0       12        0       12
H       30.58598000      20.29435200       7.75881400        1        0       13        0        0
H       28.45705600      23.99194500       8.25102800        1        0       14        0        1
H       28.77363800      21.83550100       7.07090800        1        0       15        0        2
H       31.75592700      23.03058300      10.82083900        1        0       16        0        3
H        0.00009336      21.08919900      10.30224100        1        0       17        0        4
H       29.95999300      24.57916300      10.13069100        1        0       18        0        5
C       29.24648000      23.31778700       8.54943400        1        0       19        0        6
C       29.42664600      22.10616900       7.88920500        1        0       20        0        7
C       30.43824500      21.23649500       8.26667800        1        0       21        0        8
C       31.28902300      21.56965000       9.32164200        1        0       22        0        9
C       31.10815300      22.78188800       9.99256100        1        0       23        0       10
C       30.09233700      23.64518200       9.60167600        1        0       24        0       11
O       32.26459700      20.69342700       9.65120800        1        0       25        0       12
H        5.56913900      24.42805600      12.08007900        2        0       26        0        0
H        9.42030200      24.76227200      13.95187800        2        0       27        0        1
H        7.44486600      23.40106800      13.32903200        2        0       28        0        2
H        7.63567900      28.16431300      12.04087500        2        0       29        0        3
H        5.50216500      27.84058000      11.24057100        2        0       30        0        4
H        9.50342200      27.15058200      13.29931400        2        0       31        0        5
C        8.60107800      25.20770300      13.40672800        2        0       32        0        6
C        7.49074900      24.44614800      13.05518200        2        0       33        0        7
C        6.43552700      25.01167900      12.35601700        2        0       34        0        8
C        6.47923500      26.35868000      11.99346800        2        0       35        0        9
C        7.59487200      27.12621900      12.33786100        2        0       36        0       10
C        8.64369600      26.54728600      13.04124900        2        0       37        0       11
O        5.42524200      26.86843200      11.31717300        2        0       38        0       12
H       31.61289100      28.49903500      15.14620900        3        0       39        0        0
H       27.77431800      29.97234500      13.90463900        3        0       40        0        1
H       29.31549900      28.07697000      14.32353900        3        0       41        0        2
H       30.83856600      32.69805300      15.16622300        3        0       42        0        3
H        0.00078936      31.74146100      15.63483700        3        0       43        0        4
H       28.55094400      32.28562600      14.33167300        3        0       44        0        5
C       28.77668900      30.15372800      14.26391200        3        0       45        0        6
C       29.64429400      29.09180200      14.50046400        3        0       46        0        7
C       30.93233900      29.31753800      14.96104200        3        0       47        0        8
C       31.37229900      30.62099700      15.19597300        3        0       48        0        9
C       30.50290000      31.69056100      14.96674200        3        0       49        0       10
C       29.21593000      31.44992900      14.50224900        3        0       50        0       11
O       32.63783700      30.79342300      15.63960300        3        0       51        0       12
H       27.43239900       5.29913800      28.53441500        4        0       52        0        0
H       26.60340900       7.34589000      24.85061600        4        0       53        0        1
H       27.93476300       5.70280300      26.14325900        4        0       54        0        2
H       24.25538400       8.14605100      28.35164700        4        0       55        0        3
H       24.95017800       7.08206600      30.27059700        4        0       56        0        4
H       24.76025100       8.56462700      25.97053600        4        0       57        0        5
C       26.38600400       7.16765300      25.89354100        4        0       58        0        6
C       27.13132000       6.24556300      26.62199000        4        0       59        0        7
C       26.85800500       6.01237500      27.96104700        4        0       60        0        8
C       25.82362900       6.70320300      28.59396400        4        0       61        0        9
C       25.06758500       7.62511500      27.86537400        4        0       62        0       10
C       25.35449100       7.85109600      26.52501400        4        0       63        0       11
O       25.59684700       6.44733200      29.90210200        4        0       64        0       12
H       14.21439700      12.00166100       1.92786900        5        0       65        0        0
H       16.66895700      14.96872100       0.02564000        5        0       66        0        1
H       14.60115100      13.60325900       0.07902000        5        0       67        0        2
H       17.93264700      13.13633400       3.69390100        5        0       68        0        3
H       16.57208500      11.45294400       4.47635800        5        0       69        0        4
H       18.33199600      14.72486600       1.84542300        5        0       70        0        5
C       16.49767100      14.26979300       0.83117500        5        0       71        0        6
C       15.33760600      13.50198200       0.86430100        5        0       72        0        7
C       15.11172200      12.60258500       1.89493900        5        0       73        0        8
C       16.05120600      12.46048500       2.91716200        5        0       74        0        9
C       17.21454100      13.23405500       2.89247900        5        0       75        0       10
C       17.42936200      14.12912900       1.85197700        5        0       76        0       11
O       15.79116000      11.56750000       3.89852700        5        0       77        0       12
H        3.91187100      17.19976300      19.99215400        6        0       78        0        0
H        3.75463000      18.25018000      15.83058200        6        0       79        0        1
H        4.69319300      16.87282000      17.66501400        6        0       80        0        2
H        1.23519900      20.25199100      18.66887600        6        0       81        0        3
H        1.57616900      19.67508400      20.87071300        6        0       82        0        4
H        2.02029600      19.94171500      16.34785600        6        0       83        0        5
C        3.41519800      18.39049700      16.84636800        6        0       84        0        6
C        3.93982500      17.61857700      17.87849600        6        0       85        0        7
C        3.50908200      17.79388800      19.18458900        6        0       86        0        8
C        2.53640300      18.75094000      19.47735100        6        0       87        0        9
C        2.00120600      19.52395100      18.44372300        6        0       88        0       10
C        2.44435200      19.33976100      17.14001800        6        0       89        0       11
O        2.15092200      18.89054300      20.76577600        6        0       90        0       12
H        5.54491200      23.64384600       3.84794500        7        0       91        0        0
H        2.33394600      24.47249600       1.11850800        7        0       92        0        1
H        4.73317300      24.01286700       1.53756800        7        0       93        0        2
H        1.57374500      24.15936300       5.32977200        7        0       94        0        3
H        3.43718900      23.87815400       6.65101100        7        0       95        0        4
H        0.75957800      24.54303400       3.02983400        7        0       96        0        5
C        2.69044500      24.31072800       2.12521900        7        0       97        0        6
C        4.03674700      24.05206200       2.36385100        7        0       98        0        7
C        4.50112900      23.84409900       3.65352300        7        0       99        0        8
C        3.61555100      23.88976500       4.73121900        7        0      100        0        9
C        2.26145700      24.14220700       4.49654800        7        0      101        0       10
C        1.81047500      24.35182100       3.19938700        7        0      102        0       11
O        4.11414200      23.68636800       5.97144500        7        0      103        0       12
H        4.43575500      32.50500600      15.22711700        8        0      104        0        0
H        5.90303800      29.17909800      12.93971700        8        0      105        0        1
H        4.12263800      30.83308000      13.42724000        8        0      106        0        2
H        8.31043100      30.90710800      16.04280200        8        0      107        0        3
H        7.29537800      32.56873500      17.26992700        8        0      108        0        4
H        7.99908500      29.22734200      14.25920100        8        0      109        0        5
C        6.03734000      29.90966400      13.72391200        8        0      110        0        6
C        5.03987900      30.83987800      13.99987700        8        0      111        0        7
C        5.20547800      31.77992300      15.00538400        8        0      112        0        8
C        6.38369800      31.80358000      15.75304600        8        0      113        0        9
C        7.39136500      30.87625900      15.47546600        8        0      114        0       10
C        7.21068900      29.93790800      14.46709900        8        0      115        0       11
O        6.49880200      32.73442400      16.72690700        8        0      116        0       12
H       16.23514100       6.77451200      21.28126500        9        0      117        0        0
H       12.51313400       8.87650500      21.69968400        9        0      118        0        1
H       14.99100000       8.88508800      21.64254600        9        0      119        0        2
H       12.54593900       4.64292000      21.00228000        9        0      120        0        3
H       14.62854100       3.66363200      20.97169300        9        0      121        0        4
H       11.29884400       6.74153800      21.37689600        9        0      122        0        5
C       13.05812400       7.95738500      21.54179500        9        0      123        0        6
C       14.44927100       7.95884400      21.50878400        9        0      124        0        7
C       15.15502600       6.78266200      21.30714700        9        0      125        0        8
C       14.47145900       5.57867700      21.13130800        9        0      126        0        9
C       13.07442900       5.57264400      21.15659700        9        0      127        0       10
C       12.38014600       6.75816500      21.36265900        9        0      128        0       11
O       15.20125300       4.45612300      20.94316000        9        0      129        0       12
H       21.43799900      16.56870800      30.46491700       10        0      130        0        0
H       25.44621900      18.05355800      30.88465100       10        0      131        0        1
H       22.99766600      18.40257600      31.04569700       10        0      132        0        2
H       24.75178900      14.02222200      29.58974000       10        0      133        0        3
H       22.54486600      13.45674700      29.26278600       10        0      134        0        4
H       26.31295700      15.85120100      30.15310200       10        0      135        0        5
C       24.76384400      17.25515900      30.63236400       10        0      136        0        6
C       23.38861800      17.44773300      30.72208800       10        0      137        0        7
C       22.50716700      16.42745900      30.39923300       10        0      138        0        8
C       22.99493300      15.18846200      29.98122400       10        0      139        0        9
C       24.37505100      14.98749200      29.89605200       10        0      140        0       10
C       25.24671400      16.01968000      30.21968900       10        0      141        0       11
O       22.09825400      14.22499400      29.67167600       10        0      142        0       12
H       22.12759900       1.34583500       9.26683900       11        0      143        0        0
H       19.53999800       4.65140500       8.35891900       11        0      144        0        1
H       19.92993800       2.20902100       8.51975500       11        0      145        0        2
H       23.54753900       5.34649300       9.72536100       11        0      146        0        3
H       24.83751600       3.46047500      10.00116000       11        0      147        0        4
H       21.36321800       6.21441100       8.96691200       11        0      148        0        5
C       20.49747600       4.27237000       8.68494600       11        0      149        0        6
C       20.71951300       2.90172600       8.77670200       11        0      150        0        7
C       21.94622000       2.40845600       9.19386500       11        0      151        0        8
C       22.97562000       3.28859900       9.53068000       11        0      152        0        9
C       22.75579000       4.66593200       9.44702100       11        0      153        0       10
C       21.52261900       5.14625000       9.02449000       11        0      154        0       11
O       24.15635300       2.76235400       9.92698800       11        0      155        0       12
H       17.58425900      14.29130700      18.69472300       12        0      156        0        0
H       21.49614100      15.95986200      18.09481700       12        0      157        0        1
H       19.02982500      16.20512400      18.07780900       12        0      158        0        2
H       21.04816800      11.88978400      19.37718900       12        0      159        0        3
H       18.88134800      11.12122300      19.48384200       12        0      160        0        4
H       22.49574300      13.78964800      18.74883800       12        0      161        0        5
C       20.86344100      15.12680000      18.36393100       12        0      162        0        6
C       19.47844200      15.26131900      18.35577600       12        0      163        0        7
C       18.66049100      14.19597500      18.69950600       12        0      164        0        8
C       19.22309100      12.97134500      19.06216800       12        0      165        0        9
C       20.61338500      12.83287400      19.07877800       12        0      166        0       10
C       21.42088100      13.90785000      18.72902600       12        0      167        0       11
O       18.38654900      11.95915400      19.38433300       12        0      168        0       12
H        5.58744200      27.35500400      24.65510600       13        0      169        0        0
H        7.57400800      29.09705600      28.04119500       13        0      170        0        1
H        7.13866300      29.03732300      25.60191900       13        0      171        0        2
H        4.87416100      25.80418000      28.56891600       13        0      172        0        3
H        4.03402100      24.89572900      26.62828400       13        0      173        0        4
H        6.43130700      27.46955700      29.51844200       13        0      174        0        5
C        6.89749900      28.36459300      27.62579300       13        0      175        0        6
C        6.65062100      28.32863700      26.25680100       13        0      176        0        7
C        5.78394000      27.39078500      25.71694100       13        0      177        0        8
C        5.14462600      26.46979300      26.54809300       13        0      178        0        9
C        5.38356900      26.50595400      27.92430800       13        0      179        0       10
C        6.25685000      27.44915800      28.45127600       13        0      180        0       11
O        4.31226200      25.57034500      25.97687600       13        0      181        0       12
H       29.09510600       4.36436200      17.75525800       14        0      182        0        0
H       25.99593300       7.22554100      18.56492700       14        0      183        0        1
H       28.19203300       6.66231300      17.56338900       14        0      184        0        2
H       25.61180200       3.17174700      19.91766400       14        0      185        0        3
H       27.44085500       1.82710600      19.53861700       14        0      186        0        4
H       24.71168500       5.46501900      19.74308200       14        0      187        0        5
C       26.39181700       6.22389400      18.64681200       14        0      188        0        6
C       27.62427600       5.90432000      18.08529700       14        0      189        0        7
C       28.13854000       4.62084900      18.18721000       14        0      190        0        8
C       27.41813700       3.63022400      18.85612200       14        0      191        0        9
C       26.17687400       3.94395300      19.41577200       14        0      192        0       10
C       25.67508200       5.23496200      19.30876100       14        0      193        0       11
O       27.96124800       2.39454800      18.93524600       14        0      194        0       12
H       19.22371700       7.52229300      19.65878900       15        0      195        0        0
H       15.84006200       9.44760700      17.84472300       15        0      196        0        1
H       16.77374600       7.71874500      19.35549500       15        0      197        0        2
H       19.82183400      10.78982100      16.97601900       15        0      198        0        3
H       21.51170900       9.53459500      17.90655700       15        0      199        0        4
H       17.38027300      10.98199800      16.65721800       15        0      200        0        5
C       16.90824800       9.36015700      17.97909700       15        0      201        0        6
C       17.43563700       8.39086000      18.82686300       15        0      202        0        7
C       18.80567900       8.27273600      19.00345200       15        0      203        0        8
C       19.67403700       9.13302700      18.32994100       15        0      204        0        9
C       19.14948200      10.11265000      17.48285900       15        0      205        0       10
C       17.77469700      10.21766000      17.31289400       15        0      206        0       11
O       21.00235800       8.97736500      18.52858000       15        0      207        0       12
H       28.59641300       7.81316300      26.13821300       16        0      208        0        0
H       32.80137300       7.42684200      25.35344500       16        0      209        0        1
H       30.64396200       6.42312700      26.04720000       16        0      210        0        2
H       30.83356400      11.20200400      24.81811500       16        0      211        0        3
H       28.61993400      11.25907900      25.44561700       16        0      212        0        4
H        0.00457736       9.82537300      24.73925300       16        0      213        0        5
C       31.90678100       8.03085000      25.39351200       16        0      214        0        6
C       30.69390000       7.47030400      25.78221200       16        0      215        0        7
C       29.54200600       8.23995000      25.83639600       16        0      216        0        8
C       29.58852200       9.59270000      25.49629900       16        0      217        0        9
C       30.80240300      10.15899500      25.09859200       16        0      218        0       10
C       31.94947400       9.37669600      25.05182600       16        0      219        0       11
O       28.44172300      10.30521700      25.56908500       16        0      220        0       12
H       23.32032700      27.61290800      30.94200900       17        0      221        0        0
H       26.97298700      29.86866500      31.07015800       17        0      222        0        1
H       24.99493300      28.91525600      32.21971200       17        0      223        0        2
H       25.59618300      28.17955900      27.37394000       17        0      224        0        3
H       23.54030300      27.14889500      27.46481500       17        0      225        0        4
H       27.26267200      29.49198000      28.63891000       17        0      226        0        5
C       26.24138600      29.29985200      30.51523700       17        0      227        0        6
C       25.12994300      28.76290900      31.15770700       17        0      228        0        7
C       24.18679300      28.03233300      30.45139300       17        0      229        0        8
C       24.34646400      27.82501900      29.08052200       17        0      230        0        9
C       25.46426100      28.35604500      28.43174600       17        0      231        0       10
C       26.39983700      29.08872400      29.15134800       17        0      232        0       11
O       23.39891700      27.11109200      28.43199500       17        0      233        0       12
H       10.29722100      23.81994000      31.53380600       18        0      234        0        0
H       11.37923500      27.94851600      31.05329300       18        0      235        0        1
H       11.74469800      25.74170500      32.12080600       18        0      236        0        2
H        8.13475700      26.28025000      28.79476300       18        0      237        0        3
H        7.59348100      24.10236900      29.30566800       18        0      238        0        4
H        9.56489200      28.20500600      29.38621400       18        0      239        0        5
C       10.74958900      27.10861800      30.79864800       18        0      240        0        6
C       10.95238500      25.86822500      31.39587500       18        0      241        0        7
C       10.14753800      24.78618300      31.07407300       18        0      242        0        8
C        9.12138100      24.93177900      30.13942600       18        0      243        0        9
C        8.91783300      26.17332200      29.53155600       18        0      244        0       10
C        9.72990400      27.24978200      29.86580900       18        0      245        0       11
O        8.35851600      23.85076900      29.86089200       18        0      246        0       12
H       25.37795900      14.43867200       4.89334600       19        0      247        0        0
H       26.81324500      18.39870200       4.05376100       19        0      248        0        1
H       26.91232500      16.31672400       5.39492100       19        0      249        0        2
H       23.66031900      16.69022800       1.69773200       19        0      250        0        3
H       22.90991000      14.63021700       2.39802500       19        0      251        0        4
H       25.17730300      18.57292700       2.20170400       19        0      252        0        5
C       26.14543700      17.57794100       3.83671400       19        0      253        0        6
C       26.19876900      16.40755100       4.58753100       19        0      254        0        7
C       25.34416600      15.35049300       4.31470500       19        0      255        0        8
C       24.41822900      15.45054400       3.27528600       19        0      256        0        9
C       24.36517300      16.62084500       2.51374200       19        0      257        0       10
C       25.22542800      17.67338800       2.80020800       19        0      258        0       11
O       23.60160600      14.39692000       3.04916600       19        0      259        0       12
H       29.17209500      21.86410200      14.45757000       20        0      260        0        0
H       27.42212900      18.67182400      12.17858500       20        0      261        0        1
H       29.00274100      19.45242400      13.92085100       20        0      262        0        2
H       26.17068600      22.72695600      11.54573800       20        0      263        0        3
H       27.33475100      24.31638200      12.73563200       20        0      264        0        4
H       26.00704800      20.32498600      10.99478600       20        0      265        0        5
C       27.49755600      19.72310900      12.41488200       20        0      266        0        6
C       28.38367000      20.16459000      13.39277800       20        0      267        0        7
C       28.48595100      21.51252400      13.70061200       20        0      268        0        8
C       27.69328000      22.44487200      13.02967000       20        0      269        0        9
C       26.79682300      22.00625000      12.05174200       20        0      270        0       10
C       26.70697500      20.65288500      11.75127700       20        0      271        0       11
O       27.83083200      23.74895800      13.35916300       20        0      272        0       12
H        4.67609900      12.38119900       1.48227100       21        0      273        0        0
H        6.28491600      16.21689300       0.41178300       21        0      274        0        1
H        6.53336100      13.75757400       0.59395400       21        0      275        0        2
H        2.30504100      15.89674500       1.98302400       21        0      276        0        3
H        1.67587300      13.78737800       2.65525200       21        0      277        0        4
H        4.15840600      17.27733000       1.11192900       21        0      278        0        5
C        5.47617700      15.61427400       0.79845700       21        0      279        0        6
C        5.61231000      14.23326000       0.90165400       21        0      280        0        7
C        4.57849500      13.45390200       1.39761700       21        0      281        0        8
C        3.38251700      14.05156800       1.79786000       21        0      282        0        9
C        3.23794600      15.43713600       1.68984600       21        0      283        0       10
C        4.28324300      16.20617400       1.19397900       21        0      284        0       11
O        2.40411300      13.25270600       2.28021900       21        0      285        0       12
H       19.72007000       6.50249200       7.13303100       22        0      286        0        0
H       21.79266400       4.64997600       3.85899300       22        0      287        0        1
H       21.46769900       4.96011600       6.29648600       22        0      288        0        2
H       18.59275800       7.41026700       3.11596200       22        0      289        0        3
H       17.71333200       8.42797700       4.98359300       22        0      290        0        4
H       20.34347700       5.88502800       2.27429000       22        0      291        0        5
C       21.03080400       5.32175400       4.22642900       22        0      292        0        6
C       20.84553100       5.49782000       5.59429500       22        0      293        0        7
C       19.86994500       6.35893400       6.07269400       22        0      294        0        8
C       19.05732000       7.05955200       5.18020500       22        0      295        0        9
C       19.23445800       6.88117300       3.80573300       22        0      296        0       10
C       20.21799000       6.01746000       3.34031400       22        0      297        0       11
O       18.12302300       7.89215700       5.69204600       22        0      298        0       12
H        2.70002900      21.31294400      19.92512700       23        0      299        0        0
H        5.79683300      20.91860500      16.97536500       23        0      300        0        1
H        4.16939500      19.88566000      18.53345100       23        0      301        0        2
H        4.44667700      24.80432100      18.19560500       23        0      302        0        3
H        2.90298700      24.82191600      19.90261500       23        0      303        0        4
H        5.92556500      23.38733600      16.81545100       23        0      304        0        5
C        5.15449400      21.53890600      17.58310900       23        0      305        0        6
C        4.23946500      20.96212300      18.45856600       23        0      306        0        7
C        3.41244000      21.75238400      19.24193600       23        0      307        0        8
C        3.48886500      23.14329700      19.15660100       23        0      308        0        9
C        4.40104000      23.72763000      18.27407100       23        0      309        0       10
C        5.22579900      22.92362100      17.49735200       23        0      310        0       11
O        2.66674700      23.87355500      19.94334800       23        0      311        0       12
H        3.56244800      24.20338000      32.12398600       24        0      312        0        0
H        7.80345300      24.87187800      32.00662900       24        0      313        0        1
H        5.48670600      25.72918600      31.80448000       24        0      314        0        2
H        6.24677100      20.96941600      32.87739300       24        0      315        0        3
H        3.95896000      20.76431100      32.73239600       24        0      316        0        4
H        8.17075200      22.48199600      32.54545800       24        0      317        0        5
C        6.96244700      24.20854300      32.14598900       24        0      318        0        6
C        5.66051400      24.68678500      32.03356700       24        0      319        0        7
C        4.57653500      23.84074100      32.21062500       24        0      320        0        8
C        4.78304800      22.49294300      32.50821000       24        0      321        0        9
C        6.08824800      22.00899900      32.62911500       24        0      322        0       10
C        7.16511600      22.86736700      32.44606300       24        0      323        0       11
O        3.69632800      21.70431700      32.66706200       24        0      324        0       12
H       32.48037200      29.87383000       7.26851600       25        0      325        0        0
H        0.00101536      29.94831300       2.99273200       25        0      326        0        1
H       32.78692100      31.14143400       5.16324900       25        0      327        0        2
H       32.38629700      26.22075500       5.05991400       25        0      328        0        3
H       32.02182900      26.38943800       7.32616200       25        0      329        0        4
H       32.67694800      27.47960400       2.95501300       25        0      330        0        5
C       32.74585900      29.39771600       3.91242700       25        0      331        0        6
C       32.69413000      30.06451800       5.13270600       25        0      332        0        7
C       32.52283700      29.36404800       6.31683100       25        0      333        0        8
C       32.40286900      27.97375500       6.29548400       25        0      334        0        9
C       32.46111100      27.29858600       5.07355000       25        0      335        0       10
C       32.63002400      28.01347200       3.89441600       25        0      336        0       11
O       32.23187700      27.33331400       7.47392400       25        0      337        0       12
H       24.11220200      12.59834600       5.92215600       26        0      338        0        0
H       27.32204000      13.94167800       8.43993100       26        0      339        0        1
H       26.53268100      12.72428400       6.43044600       26        0      340        0        2
H       23.25688800      14.92345100       9.39980700       26        0      341        0        3
H       21.66414000      13.97916900       8.03281900       26        0      342        0        4
H       25.66818000      15.04064100       9.92108000       26        0      343        0        5
C       26.26689400      13.88568100       8.21575000       26        0      344        0        6
C       25.82047500      13.20331700       7.08815400       26        0      345        0        7
C       24.46759100      13.12704900       6.79482800       26        0      346        0        8
C       23.53506400      13.74088300       7.63230300       26        0      347        0        9
C       23.97838400      14.43328500       8.76208900       26        0      348        0       10
C       25.33679100      14.49902500       9.04556400       26        0      349        0       11
O       22.22625500      13.63571300       7.30968600       26        0      350        0       12
H       32.47924300      31.13425200       9.08481900       27        0      351        0        0
H       32.11554600      27.29828300      10.98214800       27        0      352        0        1
H        0.00212136      28.69044200       9.07939200       27        0      353        0        2
H       30.57986600      30.81822500      12.89588600       27        0      354        0        3
H       30.71542100      32.75373600      11.65790700       27        0      355        0        4
H       30.96302500      28.37835900      12.89052600       27        0      356        0        5
C       31.94234300      28.36445700      10.98231100       27        0      357        0        6
C       32.37068100      29.14894100       9.91577800       27        0      358        0        7
C       32.15110300      30.51784300       9.90928900       27        0      359        0        8
C       31.49644700      31.12587700      10.98142800       27        0      360        0        9
C       31.07043900      30.34384900      12.05814500       27        0      361        0       10
C       31.29437000      28.97281400      12.04997500       27        0      362        0       11
O       31.29956200      32.46253200      10.92932200       27        0      363        0       12
H       23.24576900       7.45747700      10.29191700       28        0      364        0        0
H       25.40357900      11.14476800      10.73297800       28        0      365        0        1
H       25.16230100       8.72553100      11.21489200       28        0      366        0        2
H       21.81851500      10.99854400       8.37997400       28        0      367        0        3
H       20.70977900       8.98169900       8.39452900       28        0      368        0        4
H       23.71918300      12.27281100       9.30921400       28        0      369        0        5
C       24.56883200      10.58932400      10.33122500       28        0      370        0        6
C       24.43068000       9.23091100      10.59957700       28        0      371        0        7
C       23.36139200       8.51212100      10.08760500       28        0      372        0        8
C       22.40891100       9.14857000       9.29043900       28        0      373        0        9
C       22.54660400      10.51089900       9.01210700       28        0      374        0       10
C       23.62138800      11.21949800       9.53429100       28        0      375        0       11
O       21.38050700       8.40900800       8.81761900       28        0      376        0       12
H       14.54462400       3.77001800      23.21579500       29        0      377        0        0
H       18.80834300       3.35642900      22.90526300       29        0      378        0        1
H       16.81325700       4.75048800      23.37365600       29        0      379        0        2
H       16.24374700      32.87763264      22.15328900       29        0      380        0        3
H       13.98734200       0.45052300      22.20338900       29        0      381        0        4
H       18.50860100       0.97448300      22.29430900       29        0      382        0        5
C       17.81778700       2.93105900      22.83756500       29        0      383        0        6
C       16.69564700       3.71090800      23.10028600       29        0      384        0        7
C       15.42135700       3.17146100      23.01466000       29        0      385        0        8
C       15.25175100       1.83114900      22.66457400       29        0      386        0        9
C       16.37542800       1.04176400      22.40652600       29        0      387        0       10
C       17.64626500       1.59623200      22.49305200       29        0      388        0       11
O       13.99055100       1.34982700      22.58822300       29        0      389        0       12
H       27.99565700      12.71593400      32.40608900       30        0      390        0        0
H       23.79977900      13.14581400      31.59578000       30        0      391        0        1
H       25.81367200      11.71518400      31.79750000       30        0      392        0        2
H       26.16726900      16.56714200      32.64468600       30        0      393        0        3
H       28.42259800      16.17259100       0.00119036       30        0      394        0        4
H       23.99095000      15.57833400      32.02365600       30        0      395        0        5
C       24.75254700      13.57977700      31.86155100       30        0      396        0        6
C       25.88502700      12.77929500      31.97601100       30        0      397        0        7
C       27.11112100      13.32985700      32.31619500       30        0      398        0        8
C       27.22051700      14.70116100      32.55140200       30        0      399        0        9
C       26.08509100      15.50849200      32.44466000       30        0      400        0       10
C       24.86348200      14.94386000      32.09996900       30        0      401        0       11
O       28.43704500      15.19451500      32.87510600       30        0      402        0       12
H        5.21901400      21.27898000      11.48941600       31        0      403        0        0
H        6.58341900      18.43476400       8.57469100       31        0      404        0        1
H        6.15519300      20.78030900       9.25159700       31        0      405        0        2
H        5.16053500      17.10750800      12.39888900       31        0      406        0        3
H        4.31619400      18.75647500      13.76460100       31        0      407        0        4
H        6.08015900      16.60170700      10.16321500       31        0      408        0        5
C        6.17558700      18.65495600       9.55035200       31        0      409        0        6
C        5.93436900      19.97074900       9.93360900       31        0      410        0        7
C        5.41050100      20.26039100      11.18413700       31        0      411        0        8
C        5.12114800      19.22760800      12.07710800       31        0      412        0        9
C        5.36795500      17.90502000      11.69999400       31        0      413        0       10
C        5.89024300      17.62911600      10.44259900       31        0      414        0       11
O        4.60656100      19.55701300      13.28326700       31        0      415        0       12
H       10.75156500       1.65701100      17.90405600       32        0      416        0        0
H       11.20302400       5.65157200      16.39195100       32        0      417        0        1
H        9.81610000       3.62493800      16.72714900       32        0      418        0        2
H       14.44472900       3.73073600      18.44437400       32        0      419        0        3
H       14.07743800       1.53674100      19.03484400       32        0      420        0        4
H       13.52340100       5.69155500      17.25857200       32        0      421        0        5
C       11.60852400       4.79209200      16.90536200       32        0      422        0        6
C       10.83236900       3.65288200      17.09553300       32        0      423        0        7
C       11.34676600       2.54602000      17.75310800       32        0      424        0        8
C       12.65597400       2.56586600      18.23616400       32        0      425        0        9
C       13.43739500       3.70980100      18.05406100       32        0      426        0       10
C       12.91009900       4.81057400      17.39057800       32        0      427        0       11
O       13.11681200       1.46186200      18.86618600       32        0      428        0       12
H       12.56628400      20.45876200      14.29026200       33        0      429        0        0
H       13.45572200      16.45353500      13.01989000       33        0      430        0        1
H       12.13308100      18.53698000      12.78958600       33        0      431        0        2
H       15.65742100      18.24748500      16.23624900       33        0      432        0        3
H       14.93134900      20.33219500      16.88738100       33        0      433        0        4
H       15.22091300      16.32159600      14.75294200       33        0      434        0        5
C       13.64303100      17.29333200      13.67286900       33        0      435        0        6
C       12.90250000      18.46460600      13.54592400       33        0      436        0        7
C       13.13731500      19.54604100      14.38109600       33        0      437        0        8
C       14.12757200      19.46996200      15.36158800       33        0      438        0        9
C       14.87883000      18.29872500      15.48880300       33        0      439        0       10
C       14.63070700      17.22168500      14.64715600       33        0      440        0       11
O       14.31765900      20.54700000      16.15656000       33        0      441        0       12
H       11.75472200       9.93525000      23.85872900       34        0      442        0        0
H       12.56610800      12.13902300      20.26264400       34        0      443        0        1
H       10.97951800      10.91288300      21.71951600       34        0      444        0        2
H       15.68787100      11.42295200      23.11790800       34        0      445        0        3
H       15.10892400      10.08476200      24.89870500       34        0      446        0        4
H       14.92531300      12.38782100      20.97610600       34        0      447        0        5
C       12.90160400      11.71208800      21.19639700       34        0      448        0        6
C       12.01329300      11.02344700      22.01679900       34        0      449        0        7
C       12.43737700      10.47248500      23.21627600       34        0      450        0        8
C       13.76781200      10.60718700      23.61572400       34        0      451        0        9
C       14.66239000      11.30370300      22.79904600       34        0      452        0       10
C       14.22444900      11.84798500      21.59824800       34        0      453        0       11
O       14.13740400      10.04897300      24.79042600       34        0      454        0       12
H       16.61254500      21.24066700       9.61607200       35        0      455        0        0
H       20.89959200      21.45016300       9.77139000       35        0      456        0        1
H       18.78863000      20.24256300      10.24961700       35        0      457        0        2
H       18.63578400      24.63563500       7.99977000       35        0      458        0        3
H       16.34903500      24.42729700       8.15643800       35        0      459        0        4
H       20.80879400      23.65314400       8.64205000       35        0      460        0        5
C       19.94919900      21.88311300       9.49564900       35        0      461        0        6
C       18.76225100      21.20754300       9.76237200       35        0      462        0        7
C       17.53895800      21.75774400       9.41168100       35        0      463        0        8
C       17.48700800      23.00159400       8.78088700       35        0      464        0        9
C       18.67622900      23.68107600       8.50443300       35        0      465        0       10
C       19.89480900      23.11931900       8.86421400       35        0      466        0       11
O       16.27176000      23.50135400       8.46224100       35        0      467        0       12
H        9.58311000      17.85197100       2.80166900       36        0      468        0        0
H        8.89795200      14.38892800       5.24802800       36        0      469        0        1
H       10.42738100      15.80015400       3.90175600       36        0      470        0        2
H        5.69458100      17.11617700       4.40469200       36        0      471        0        3
H        6.20689500      18.81921700       2.94374700       36        0      472        0        4
H        6.52606800      15.06064400       5.49244000       36        0      473        0        5
C        8.53230400      15.28458800       4.76759200       36        0      474        0        6
C        9.38845900      16.07928300       4.01138900       36        0      475        0        7
C        8.92559700      17.22982600       3.39158200       36        0      476        0        8
C        7.58799200      17.60537400       3.52401000       36        0      477        0        9
C        6.72560900      16.81475800       4.28794100       36        0      478        0       10
C        7.20224500      15.66279200       4.90092000       36        0      479        0       11
O        7.18009800      18.73202800       2.89759300       36        0      480        0       12
H       28.46865500      25.38333100      29.39368300       37        0      481        0        0
H       25.80481700      26.87886000      32.41264700       37        0      482        0        1
H       27.91516400      27.06421300      31.12608600       37        0      483        0        2
H       24.80479500      23.34310200      30.19700500       37        0      484        0        3
H       26.42515000      22.59878100      28.74180500       37        0      485        0        4
H       24.25318900      25.00736800      31.93646800       37        0      486        0        5
C       26.04833400      26.14729500      31.65618300       37        0      487        0        6
C       27.23214700      26.24871000      30.93183200       37        0      488        0        7
C       27.55116100      25.31288400      29.95992100       37        0      489        0        8
C       26.68015800      24.25495200      29.69554400       37        0      490        0        9
C       25.48682100      24.15228300      30.41511000       37        0      491        0       10
C       25.18135000      25.09540900      31.38832700       37        0      492        0       11
O       27.03515300      23.36347100      28.74298700       37        0      493        0       12
H       30.97343200      13.13627700       2.06698200       38        0      494        0        0
H       30.90992600      13.22302300       6.36060900       38        0      495        0        1
H       31.11822400      14.40220600       4.19051700       38        0      496        0        2
H       30.38281800       9.51970700       4.25863200       38        0      497        0        3
H       30.61301900       9.64119100       1.97184000       38        0      498        0        4
H       30.54100000      10.77347800       6.38061700       38        0      499        0        5
C       30.84666000      12.67324700       5.43299400       38        0      500        0        6
C       30.96280700      13.33233000       4.21295200       38        0      501        0        7
C       30.88314700      12.63272600       3.01864900       38        0      502        0        8
C       30.68137900      11.25180900       3.02956600       38        0      503        0        9
C       30.55710500      10.58604600       4.25173000       38        0      504        0       10
C       30.64203100      11.29922400       5.44089600       38        0      505        0       11
O       30.61564000      10.61059000       1.84102000       38        0      506        0       12
H       14.61176500       5.05039700      25.00356100       39        0      507        0        0
H       12.56569100       8.77119400      25.64857000       39        0      508        0        1
H       14.64516000       7.42388000      25.70953500       39        0      509        0        2
H       10.44069600       5.36044500      24.14461400       39        0      510        0        3
H       11.66080600       3.41280100      24.02136900       39        0      511        0        4
H       10.46332700       7.72387100      24.86119600       39        0      512        0        5
C       12.55388700       7.73590500      25.34073200       39        0      513        0        6
C       13.71970900       6.97684300      25.37339400       39        0      514        0        7
C       13.71150100       5.64736100      24.98025100       39        0      515        0        8
C       12.52601800       5.05522100      24.54234600       39        0      516        0        9
C       11.35397500       5.81480700      24.50095600       39        0      517        0       10
C       11.37608000       7.14507000      24.90078200       39        0      518        0       11
O       12.56444800       3.75486100      24.17395200       39        0      519        0       12
H       24.71068500       4.70045800      27.40440000       40        0      520        0        0
H       22.04855200       6.06234500      24.32136500       40        0      521        0        1
H       23.61248700       6.55234600      26.18071100       40        0      522        0        2
H       22.72008500       1.86527900      24.90820100       40        0      523        0        3
H       24.04423600       1.31989800      26.70996600       40        0      524        0        4
H       21.60983000       3.70660700      23.69303500       40        0      525        0        5
C       22.52919300       5.25643900      24.85636500       40        0      526        0        6
C       23.40804800       5.52815700      25.90047400       40        0      527        0        7
C       24.02790400       4.49854900      26.59173200       40        0      528        0        8
C       23.77634800       3.17107000      26.24204500       40        0      529        0        9
C       22.90009300       2.89278700      25.18985400       40        0      530        0       10
C       22.28355300       3.93428700      24.50786800       40        0      531        0       11
O       24.39901300       2.20002700      26.94737400       40        0      532        0       12
H        5.34335600       5.49809900       0.00006536       41        0      533        0        0
H        6.92442100       6.85260000      29.12142300       41        0      534        0        1
H        7.28199200       6.00144500      31.42160600       41        0      535        0        2
H        2.68376300       6.66022700      29.74633000       41        0      536        0        3
H        2.02484100       6.07167700      31.87156000       41        0      537        0        4
H        4.61251600       7.17840000      28.29333700       41        0      538        0        5
C        6.08054600       6.63185300      29.75850400       41        0      539        0        6
C        6.27786500       6.15348900      31.05025300       41        0      540        0        7
C        5.19924900       5.86870800      31.87344100       41        0      541        0        8
C        3.89668400       6.05787000      31.40943100       41        0      542        0        9
C        3.69277300       6.53137600      30.11074700       41        0      543        0       10
C        4.78289200       6.81558500      29.29784200       41        0      544        0       11
O        2.87609700       5.77204300      32.24897200       41        0      545        0       12
H       22.92192900       9.05504800      24.86127500       42        0      546        0        0
H       19.34039800       6.72724600      25.30933800       42        0      547        0        1
H       21.37364100       7.75190500      26.28870600       42        0      548        0        2
H       20.40912600       8.34702500      21.48248000       42        0      549        0        3
H       22.44214300       9.42266300      21.39872700       42        0      550        0        4
H       18.86824700       7.03364800      22.89687700       42        0      551        0        5
C       20.01705300       7.29649400      24.68899800       42        0      552        0        6
C       21.15922900       7.87338000      25.23582200       42        0      553        0        7
C       22.03225800       8.60475500      24.44521400       42        0      554        0        8
C       21.76980900       8.77251900      23.08479600       42        0      555        0        9
C       20.62070800       8.20124900      22.53199800       42        0      556        0       10
C       19.75623400       7.46828000      23.33536000       42        0      557        0       11
O       22.65175500       9.48886900      22.35189800       42        0      558        0       12
H       25.78694400      25.08891400       2.73230200       43        0      559        0        0
H       25.65061400      27.04749700       6.55227000       43        0      560        0        1
H       25.23704100      27.07293000       4.10861000       43        0      561        0        2
H       27.13520900      23.03510700       6.22454900       43        0      562        0        3
H       27.28900100      22.21147800       4.08091800       43        0      563        0        4
H       26.60306900      25.01539700       7.60116200       43        0      564        0        5
C       25.88914700      26.18327200       5.94982200       43        0      565        0        6
C       25.65781200      26.19417700       4.57769000       43        0      566        0        7
C       25.96219700      25.08860600       3.79845000       43        0      567        0        8
C       26.50445500      23.94575500       4.38803400       43        0      568        0        9
C       26.73227800      23.92691500       5.76647900       43        0      569        0       10
C       26.42541500      25.04299900       6.53468600       43        0      570        0       11
O       26.79047100      22.89380200       3.58821300       43        0      571        0       12
H       18.85310600       5.39754400      20.77517800       44        0      572        0        0
H       19.13157300       2.70979300      17.43672900       44        0      573        0        1
H       17.90123300       3.56183200      19.41244600       44        0      574        0        2
H       22.24646200       5.56331000      18.18879300       44        0      575        0        3
H       22.00606200       6.80290400      20.11305500       44        0      576        0        4
H       21.31032100       3.72284100      16.83376600       44        0      577        0        5
C       19.54435100       3.51069000      18.03246700       44        0      578        0        6
C       18.85595200       3.99159900      19.14206800       44        0      579        0        7
C       19.38027400       5.01891000      19.91139800       44        0      580        0        8
C       20.61056600       5.58582200      19.57560700       44        0      581        0        9
C       21.30272000       5.11143600      18.45835600       44        0      582        0       10
C       20.76695100       4.07938700      17.69824100       44        0      583        0       11
O       21.08521500       6.58141300      20.35767600       44        0      584        0       12
H       21.81468900      18.90971100      25.13466100       45        0      585        0        0
H       21.05173300      22.57417200      27.24094000       45        0      586        0        1
H       21.35941500      21.34386800      25.11142200       45        0      587        0        2
H       21.62878000      18.91164200      29.40047500       45        0      588        0        3
H       22.19083700      17.08640300      28.11604400       45        0      589        0        4
H       21.18915600      21.34192900      29.38557700       45        0      590        0        5
C       21.24994000      21.51238800      27.24833900       45        0      591        0        6
C       21.42277700      20.81864300      26.05451000       45        0      592        0        7
C       21.67803300      19.45592800      26.05680900       45        0      593        0        8
C       21.76156300      18.76243700      27.26505400       45        0      594        0        9
C       21.58189100      19.45287100      28.46646400       45        0      595        0       10
C       21.32978800      20.81892500      28.44942400       45        0      596        0       11
O       22.01750400      17.43560300      27.21889700       45        0      597        0       12
H       29.87046500      18.09901700      26.54782200       46        0      598        0        0
H       27.44206200      14.67529000      27.45762400       46        0      599        0        1
H       27.74150700      17.13396200      27.36583500       46        0      600        0        2
H       31.40039300      14.16882900      25.88097800       46        0      601        0        3
H       32.61150100      16.10745400      25.61242000       46        0      602        0        4
H       29.28545700      13.19913100      26.70954200       46        0      603        0        5
C       28.36948100      15.09872200      27.10080000       46        0      604        0        6
C       28.54065600      16.47867000      27.04764600       46        0      605        0        7
C       29.72862200      17.02879400      26.59129900       46        0      606        0        8
C       30.76964500      16.19746300      26.17546200       46        0      607        0        9
C       30.60050900      14.81118700      26.22019200       46        0      608        0       10
C       29.40591300      14.27359000      26.68266200       46        0      609        0       11
O       31.91161000      16.77819200      25.74326400       46        0      610        0       12
H       31.80021800      19.53221400      16.30534900       47        0      611        0        0
H       30.98182400      20.61915800      12.23158200       47        0      612        0        1
H       31.37351800      18.88092900      13.95445700       47        0      613        0        2
H       31.41822400      23.64893100      15.23836200       47        0      614        0        3
H       32.01851900      22.88855100      17.32609800       47        0      615        0        4
H       31.00673000      23.00742000      12.88912400       47        0      616        0        5
C       31.16769300      20.90058300      13.25772900       47        0      617        0        6
C       31.38758300      19.92713500      14.22748700       47        0      618        0        7
C       31.62733400      20.28140300      15.54626100       47        0      619        0        8
C       31.64747700      21.62700800      15.91599600       47        0      620        0        9
C       31.42037400      22.60829100      14.94755700       47        0      621        0       10
C       31.18448700      22.23908200      13.62922700       47        0      622        0       11
O       31.89054000      21.92548900      17.21212700       47        0      623        0       12
H       14.31393000      16.58003300      16.74046300       48        0      624        0        0
H       10.38724000      18.18384500      17.41550600       48        0      625        0        1
H       12.85138900      18.44830400      17.45002400       48        0      626        0        2
H       10.87136000      14.18743800      15.93056300       48        0      627        0        3
H       13.04470400      13.44315900      15.78985000       48        0      628        0        4
H        9.40690700      16.04118200      16.65083700       48        0      629        0        5
C       11.02733100      17.37066600      17.10607200       48        0      630        0        6
C       12.41114100      17.51604000      17.12390000       48        0      631        0        7
C       13.23854200      16.47617600      16.72862600       48        0      632        0        8
C       12.68680400      15.26678200      16.30352200       48        0      633        0        9
C       11.29774600      15.11784300      16.27703900       48        0      634        0       10
C       10.48071000      16.16711000      16.67883600       48        0      635        0       11
O       13.53231600      14.27906700      15.93250300       48        0      636        0       12
H        0.00520236      21.19258200       0.00352436       49        0      637        0        0
H       30.33649100      24.23021400      31.22808900       49        0      638        0        1
H       32.36507400      23.58350600      32.49686000       49        0      639        0        2
H       29.37701000      20.07987600      30.71351800       49        0      640        0        3
H       30.76213900      18.60339200      31.80831800       49        0      641        0        4
H       28.84605300      22.46260800      30.33874300       49        0      642        0        5
C       30.56497500      23.18807800      31.39682600       49        0      643        0        6
C       31.70328900      22.82164200      32.10840800       49        0      644        0        7
C       32.00219200      21.48594200      32.32912100       49        0      645        0        8
C       31.15955900      20.48991600      31.83347600       49        0      646        0        9
C       30.01892800      20.85216200      31.11229000       49        0      647        0       10
C       29.73000000      22.19452900      30.90129500       49        0      648        0       11
O       31.48799700      19.20126100      32.07764900       49        0      649        0       12
H       19.62744100      31.00339500      13.26423700       50        0      650        0        0
H       22.20989800      27.63957200      12.58423400       50        0      651        0        1
H       20.37806300      28.71926300      13.85773800       50        0      652        0        2
H       22.50372700      31.13362100      10.11118200       50        0      653        0        3
H       21.15783400       0.01773536      10.72819100       50        0      654        0        4
H       23.26756600      28.86173400      10.70688600       50        0      655        0        5
C       21.88033900      28.63555500      12.32706600       50        0      656        0        6
C       20.85189300      29.24439300      13.03980500       50        0      657        0        7
C       20.42440200      30.52274000      12.71541100       50        0      658        0        8
C       21.02410100      31.21401100      11.66171800       50        0      659        0        9
C       22.05250800      30.60461800      10.93826200       50        0      660        0       10
C       22.47292100      29.32439700      11.27625000       50        0      661        0       11
O       20.57829700      32.46009900      11.38486100       50        0      662        0       12
H       17.20545900      23.70565900       6.09687800       51        0      663        0        0
H       19.63523000      27.22174000       5.67240800       51        0      664        0        1
H       19.41489800      24.75322200       5.70454000       51        0      665        0        2
H       15.42066500      27.57299500       6.39680700       51        0      666        0        3
H       14.31313900      25.58881500       6.76230100       51        0      667        0        4
H       17.62348400      28.62467800       6.02086200       51        0      668        0        5
C       18.67260400      26.76236700       5.84285300       51        0      669        0        6
C       18.54543600      25.37677000       5.86110900       51        0      670        0        7
C       17.31300900      24.78061500       6.07991200       51        0      671        0        8
C       16.18044300      25.57061000       6.28231000       51        0      672        0        9
C       16.30127000      26.96243600       6.25804200       51        0      673        0       10
C       17.54296500      27.54634000       6.04078200       51        0      674        0       11
O       15.00086300      24.94568300       6.49721000       51        0      675        0       12
H       32.87316500       6.20742200      18.92857800       52        0      676        0        0
H       31.66053900      10.00854500      17.33867500       52        0      677        0        1
H       32.81773700       8.67859000      19.08087900       52        0      678        0        2
H       30.64870800       6.37794400      15.28791200       52        0      679        0        3
H       31.23607900       4.43488900      16.37267200       52        0      680        0        4
H       30.57664000       8.84191100      15.44107000       52        0      681        0        5
C       31.68655300       8.93062800      17.27430900       52        0      682        0        6
C       32.33573200       8.18105000      18.25056800       52        0      683        0        7
C       32.37241600       6.79721300      18.17440100       52        0      684        0        8
C       31.75668400       6.13922500      17.10871400       52        0      685        0        9
C       31.10942400       6.88741800      16.12198700       52        0      686        0       10
C       31.07778800       8.27332500      16.21259800       52        0      687        0       11
O       31.81334000       4.78866400      17.07869500       52        0      688        0       12
H       32.23347300      19.10909100      18.68506300       53        0      689        0        0
H       31.22130600      20.46562900      22.63248100       53        0      690        0        1
H       32.14938300      20.91416700      20.37845200       53        0      691        0        2
H       30.44077900      16.41073600      21.46658500       53        0      692        0        3
H       31.20104600      15.82099800      19.37580200       53        0      693        0        4
H       30.36732400      18.20208100      23.16525200       53        0      694        0        5
C       31.25867600      19.68017000      21.89195300       53        0      695        0        6
C       31.77874700      19.92881300      20.62542900       53        0      696        0        7
C       31.83024500      18.92508700      19.67042400       53        0      697        0        8
C       31.35481800      17.64809800      19.97213300       53        0      698        0        9
C       30.82516600      17.39483300      21.24008200       53        0      699        0       10
C       30.78260600      18.40919300      22.18834900       53        0      700        0       11
O       31.43014800      16.69948600      19.01162000       53        0      701        0       12
H       32.08376700      14.97168600      21.20315800       54        0      702        0        0
H       32.57486900      12.07732500      18.06814900       54        0      703        0        1
H        0.00123436      14.37973500      18.93384800       54        0      704        0        2
H       30.70557800      10.97005500      21.76820300       54        0      705        0        3
H       30.37908200      12.68973900      23.26261100       54        0      706        0        4
H       31.48304100      10.37635600      19.50041600       54        0      707        0        5
C       32.22923400      12.33793600      19.05776700       54        0      708        0        6
C       32.39893400      13.62956900      19.54691900       54        0      709        0        7
C       31.95715000      13.97097800      20.81594100       54        0      710        0        8
C       31.33653000      13.01458700      21.62086900       54        0      711        0        9
C       31.16985800      11.71430100      21.13729400       54        0      712        0       10
C       31.61460300      11.38692200      19.86254900       54        0      713        0       11
O       30.91714700      13.39416800      22.84894100       54        0      714        0       12
H       25.67385900      21.07484100      19.24138900       55        0      715        0        0
H       29.55981100      22.79679600      18.62411300       55        0      716        0        1
H       27.10142100      23.05185800      18.80964200       55        0      717        0        2
H       29.14210500      18.58602500      19.33518600       55        0      718        0        3
H       26.97679600      17.81883800      19.47671700       55        0      719        0        4
H       30.57072100      20.55088000      18.89000600       55        0      720        0        5
C       28.93499300      21.93615400      18.81285300       55        0      721        0        6
C       27.55449500      22.07600800      18.91795600       55        0      722        0        7
C       26.74661700      20.97549100      19.15950500       55        0      723        0        8
C       27.31517700      19.70907200      19.30333100       55        0      724        0        9
C       28.70146600      19.56406400      19.20564900       55        0      725        0       10
C       29.49864500      20.67502500      18.96024700       55        0      726        0       11
O       26.48804800      18.66433800      19.53249300       55        0      727        0       12
H       14.24426100      17.44350900       5.75828700       56        0      728        0        0
H       13.98409200      21.56182900       6.94931000       56        0      729        0        1
H       12.90339000      19.49595700       6.10823000       56        0      730        0        2
H       17.73841800      19.49074300       7.11159300       56        0      731        0        3
H       17.71904800      17.34527800       6.27866100       56        0      732        0        4
H       16.41038400      21.54557100       7.44892600       56        0      733        0        5
C       14.56661000      20.66518000       6.79627900       56        0      734        0        6
C       13.96284000      19.50357500       6.32456200       56        0      735        0        7
C       14.70470200      18.34940800       6.12533900       56        0      736        0        8
C       16.07282300      18.34154500       6.40091900       56        0      737        0        9
C       16.68278500      19.50320400       6.88140100       56        0      738        0       10
C       15.92783200      20.65347500       7.07342400       56        0      739        0       11
O       16.75685200      17.19513600       6.18649900       56        0      740        0       12
H        9.47639000      15.00007700      25.53951900       57        0      741        0        0
H       11.98211100      17.35386400      28.11397600       57        0      742        0        1
H       11.68900800      15.97472500      26.07553900       57        0      743        0        2
H        7.83162100      16.79468600      29.04748800       57        0      744        0        3
H        6.68823500      15.36984300      27.64760900       57        0      745        0        4
H       10.03875000      17.75761700      29.59624000       57        0      746        0        5
C       11.01797900      16.92802000      27.87768900       57        0      747        0        6
C       10.84998600      16.15359600      26.73382300       57        0      748        0        7
C        9.61542300      15.60353200      26.42489800       57        0      749        0        8
C        8.52173700      15.82571300      27.26290100       57        0      750        0        9
C        8.68323100      16.60835200      28.40909700       57        0      751        0       10
C        9.92676100      17.15076500      28.70805000       57        0      752        0       11
O        7.33878800      15.26504600      26.92466000       57        0      753        0       12
H       22.20095600      13.68838700      16.57141700       58        0      754        0        0
H       19.93762400      11.07361800      14.02443800       58        0      755        0        1
H       21.59934800      11.40212800      15.83383500       58        0      756        0        2
H       19.47129900      15.32859100      13.72704800       58        0      757        0        3
H       20.88471900      16.57151100      15.05164900       58        0      758        0        4
H       18.87739400      13.05193300      12.97612500       58        0      759        0        5
C       20.20140100      12.06974300      14.34829400       58        0      760        0        6
C       21.13367800      12.25760100      15.36414400       58        0      761        0        7
C       21.47726100      13.53337900      15.78425500       58        0      762        0        8
C       20.88469100      14.64836900      15.18976400       58        0      763        0        9
C       19.94278100      14.46523700      14.17406900       58        0      764        0       10
C       19.61025900      13.18122900      13.76090800       58        0      765        0       11
O       21.25437100      15.87288600      15.62796300       58        0      766        0       12
H       14.31824400      19.08411300      11.90762500       59        0      767        0        0
H       17.83982400      21.53805400      11.75453700       59        0      768        0        1
H       15.38004200      21.29583200      11.57025100       59        0      769        0        2
H       18.15098000      17.35190300      12.64337100       59        0      770        0        3
H       16.18188700      16.16700300      12.51744500       59        0      771        0        4
H       19.21822400      19.55154500      12.29358700       59        0      772        0        5
C       17.37421700      20.57458200      11.90170200       59        0      773        0        6
C       15.99345700      20.43528600      11.79932300       59        0      774        0        7
C       15.38941100      19.20148300      11.98642900       59        0      775        0        8
C       16.16616500      18.08086600      12.28414400       59        0      776        0        9
C       17.55241400      18.21650100      12.39498700       59        0      777        0       10
C       18.14463700      19.45825400      12.20192900       59        0      778        0       11
O       15.53444000      16.89742200      12.45298800       59        0      779        0       12
H       21.33381200       0.01480036       3.95275500       60        0      780        0        0
H       17.66515100      30.70409700       4.39693200       60        0      781        0        1
H       18.90878000      32.84732300       4.45284500       60        0      782        0        2
H       21.28438900      28.67192800       3.30968600       60        0      783        0        3
H       23.17950500      29.97766100       3.28196000       60        0      784        0        4
H       18.86892000      28.61677100       3.82178900       60        0      785        0        5
C       18.72279400      30.72669300       4.17874200       60        0      786        0        6
C       19.42384100      31.92836200       4.20889100       60        0      787        0        7
C       20.78153300      31.96442600       3.93046300       60        0      788        0        8
C       21.46135400      30.78782100       3.61233200       60        0      789        0        9
C       20.76081900      29.57946100       3.57380900       60        0      790        0       10
C       19.40115300      29.55757200       3.85802900       60        0      791        0       11
O       22.78584800      30.87028900       3.35341000       60        0      792        0       12
H       23.09511000       3.98684200      12.24846100       61        0      793        0        0
H       21.72786700       6.44529800      15.49398600       61        0      794        0        1
H       21.46370700       4.44503300      14.05443100       61        0      795        0        2
H       25.27654800       7.49655100      13.32317300       61        0      796        0        3
H       25.76086300       6.15724100      11.51517500       61        0      797        0        4
H       23.64520000       7.96785800      15.11659400       61        0      798        0        5
C       22.43831000       6.24295100      14.70591800       61        0      799        0        6
C       22.29307800       5.12060600      13.89620600       61        0      800        0        7
C       23.20094400       4.85524700      12.88254200       61        0      801        0        8
C       24.27787200       5.71603400      12.66566300       61        0      802        0        9
C       24.43235000       6.84069700      13.48030200       61        0      803        0       10
C       23.51332600       7.09602400      14.49032800       61        0      804        0       11
O       25.13471700       5.42027900      11.66243300       61        0      805        0       12
H       10.96532400      25.75719500      28.48843900       62        0      806        0        0
H       12.19114600      21.73489600      29.36322800       62        0      807        0        1
H       10.40372400      23.43936100      29.15566300       62        0      808        0        2
H       15.08731500      24.68046300      28.20282600       62        0      809        0        3
H       14.27128100      26.81601200      27.93695200       62        0      810        0        4
H       14.53658600      22.37069900      28.88214100       62        0      811        0        5
C       12.43340600      22.74641600      29.07191500       62        0      812        0        6
C       11.43219900      23.70562600      28.95408700       62        0      813        0        7
C       11.73623900      25.00588100      28.58119600       62        0      814        0        8
C       13.05824700      25.36603000      28.31596300       62        0      815        0        9
C       14.06660400      24.40505100      28.42598700       62        0      816        0       10
C       13.74798100      23.10665100      28.80359300       62        0      817        0       11
O       13.30818900      26.64649000      27.96089000       62        0      818        0       12
H       13.21726700      12.48869100      18.19055200       63        0      819        0        0
H        8.95145300      12.14391300      17.82896000       63        0      820        0        1
H       10.97966000      13.54484700      18.08764700       63        0      821        0        2
H       11.42475800       8.63864200      17.74809200       63        0      822        0        3
H       13.66622500       9.00324100      18.12234000       63        0      823        0        4
H        9.18881800       9.68388200      17.65959400       63        0      824        0        5
C        9.92859800      11.68574500      17.87363400       63        0      825        0        6
C       11.06930500      12.46945700      18.01842800       63        0      826        0        7
C       12.32647100      11.88786800      18.07706300       63        0      827        0        8
C       12.46017600      10.50153600      17.98778500       63        0      828        0        9
C       11.31860000       9.71038300      17.83530700       63        0      829        0       10
C       10.06486600      10.30634200      17.78115700       63        0      830        0       11
O       13.70511000       9.97834500      18.05513200       63        0      831        0       12
H       14.79850200      23.01504200      26.79508400       64        0      832        0        0
H       13.23319400      19.03350500      27.17450600       64        0      833        0        1
H       12.91528000      21.48833300      27.30062900       64        0      834        0        2
H       17.31472700      19.65662300      26.00681100       64        0      835        0        3
H       18.02139800      21.84697800      26.01846100       64        0      836        0        4
H       15.44526400      18.12776500      26.52400000       64        0      837        0        5
C       14.05284900      19.70154800      26.95403100       64        0      838        0        6
C       13.87755900      21.08025200      27.02353700       64        0      839        0        7
C       14.92548800      21.94336700      26.74241800       64        0      840        0        8
C       16.17355900      21.43342900      26.38179900       64        0      841        0        9
C       16.35313400      20.04994800      26.30369300       64        0      842        0       10
C       15.29514300      19.19671500      26.59109400       64        0      843        0       11
O       17.16736600      22.31258400      26.12187900       64        0      844        0       12
H        8.46039800       7.72008500      27.39885400       65        0      845        0        0
H       10.83803200       4.38930500      26.09518800       65        0      846        0        1
H       10.67546200       6.66341300      27.06738300       65        0      847        0        2
H        6.55864700       4.23734000      25.82228600       65        0      848        0        3
H        5.46261700       6.17382100      26.41044400       65        0      849        0        4
H        8.76499300       3.18316700      25.47509100       65        0      850        0        5
C        9.87308800       4.85221200      26.24122200       65        0      851        0        6
C        9.77834400       6.12867600      26.78715700       65        0      852        0        7
C        8.54307200       6.72893200      26.97675700       65        0      853        0        8
C        7.37521600       6.05220100      26.62192000       65        0      854        0        9
C        7.46427300       4.76747100      26.07979000       65        0      855        0       10
C        8.70884100       4.17933000      25.89246500       65        0      856        0       11
O        6.19354800       6.67878900      26.81983900       65        0      857        0       12
H       10.90043300      20.16348900       6.72630900       66        0      858        0        0
H        7.04949500      19.63478400       4.89941600       66        0      859        0        1
H        9.11369700      18.67322300       5.87800400       66        0      860        0        2
H        8.56803000      23.57597900       5.65554300       66        0      861        0        3
H       10.71327000      23.66507100       6.48450500       66        0      862        0        4
H        6.78836500      22.09597900       4.79404400       66        0      863        0        5
C        7.83008000      20.28260700       5.27054500       66        0      864        0        6
C        8.99003400      19.74594700       5.82089600       66        0      865        0        7
C        9.99610600      20.57166500       6.29855900       66        0      866        0        8
C        9.85203400      21.95832200       6.23384800       66        0      867        0        9
C        8.68629800      22.50246800       5.68856600       66        0      868        0       10
C        7.68761200      21.66319200       5.21087100       66        0      869        0       11
O       10.86110100      22.72400400       6.70675400       66        0      870        0       12
H       10.28171200      23.45742400      16.39785900       67        0      871        0        0
H        6.36591200      24.45985300      14.94581500       67        0      872        0        1
H        8.15633100      22.78683000      15.31804500       67        0      873        0        2
H        8.83616600      27.45809700      16.76764600       67        0      874        0        3
H       10.96086200      26.77704300      17.33245200       67        0      875        0        4
H        6.71977400      26.79982600      15.67799100       67        0      876        0        5
C        7.29365600      24.74968400      15.41699800       67        0      877        0        6
C        8.30068700      23.81275200      15.62778300       67        0      878        0        7
C        9.49411600      24.17810400      16.23143400       67        0      879        0        8
C        9.69627600      25.49762000      16.63858700       67        0      880        0        9
C        8.68565700      26.44093000      16.43565100       67        0      881        0       10
C        7.49601800      26.06157200      15.82672000       67        0      882        0       11
O       10.87758200      25.80916200      17.21788100       67        0      883        0       12
H       28.08444900      20.43603500       5.51975100       68        0      884        0        0
H       29.18818700      16.40910300       6.52591600       68        0      885        0        1
H       27.47739800      18.19711700       6.38674200       68        0      886        0        2
H       32.09602400      19.11208800       4.89832500       68        0      887        0        3
H       31.36614800      21.27116400       4.57762900       68        0      888        0        4
H       31.50141500      16.88130800       5.77573200       68        0      889        0        5
C       29.45028700      17.38633600       6.14770400       68        0      890        0        6
C       28.49207200      18.39223800       6.06790700       68        0      891        0        7
C       28.82182300      19.64893100       5.58402800       68        0      892        0        8
C       30.12637100      19.91721000       5.16696100       68        0      893        0        9
C       31.09080300      18.90868000       5.23841600       68        0      894        0       10
C       30.74713800      17.65494300       5.72829900       68        0      895        0       11
O       30.40319500      21.15829300       4.70739000       68        0      896        0       12
H       23.42257300      15.99617200       5.16845700       69        0      897        0        0
H       22.98867000      20.25942000       5.45696100       69        0      898        0        1
H       22.31138400      18.09322500       4.46094800       69        0      899        0        2
H       25.86717700      18.20357900       7.88562500       69        0      900        0        3
H       26.07410400      15.94836000       7.47533200       69        0      901        0        4
H       24.77370100      20.30069500       7.17414900       69        0      902        0        5
C       23.47143400      19.34329600       5.76417500       69        0      903        0        6
C       23.09325800      18.12544200       5.20722200       69        0      904        0        7
C       23.70913200      16.94591600       5.59654200       69        0      905        0        8
C       24.71902300      16.96943500       6.55952100       69        0      906        0        9
C       25.09782500      18.18875800       7.12708600       69        0      907        0       10
C       24.47429000      19.36337200       6.72529400       69        0      908        0       11
O       25.29481600      15.79563200       6.90415800       69        0      909        0       12
H       19.63386000      24.50196300      27.75473700       70        0      910        0        0
H       16.70835800      21.78665100      29.34071100       70        0      911        0        1
H       18.78569200      22.19428100      28.05164800       70        0      912        0        2
H       16.36231000      26.00406400      30.05090600       70        0      913        0        3
H       17.92482500      27.31595000      28.98569500       70        0      914        0        4
H       15.50244300      23.70675100      30.33859100       70        0      915        0        5
C       17.08065100      22.79217600      29.21016000       70        0      916        0        6
C       18.24683400      23.02440000      28.48733900       70        0      917        0        7
C       18.72991400      24.31251200      28.31542900       70        0      918        0        8
C       18.04753700      25.39510800      28.87230400       70        0      919        0        9
C       16.87983200      25.16692800      29.60494900       70        0      920        0       10
C       16.40549500      23.87123800      29.76663500       70        0      921        0       11
O       18.55268800      26.63354900      28.67428900       70        0      922        0       12
H       15.57841500      12.34722300      17.64035700       71        0      923        0        0
H       17.99681800      15.42944000      15.88022800       71        0      924        0        1
H       17.25429200      13.06625200      15.96483600       71        0      925        0        2
H       15.35294800      16.34078300      19.13447200       71        0      926        0        3
H       14.26378400      14.53517700      20.05679700       71        0      927        0        4
H       17.03487600      17.06198200      17.47592700       71        0      928        0        5
C       17.26564100      15.11338200      16.60975800       71        0      929        0        6
C       16.84636100      13.78744900      16.65964400       71        0      930        0        7
C       15.90867300      13.37491500      17.59383200       71        0      931        0        8
C       15.37097700      14.29305500      18.49697300       71        0      932        0        9
C       15.78330800      15.62715600      18.44670000       71        0      933        0       10
C       16.72595700      16.02599300      17.50739700       71        0      934        0       11
O       14.46372700      13.84453700      19.39355100       71        0      935        0       12
H       18.56739200       7.14403900      28.16501700       72        0      936        0        0
H       20.98361100       9.21415700      31.05002700       72        0      937        0        1
H       18.76589900       8.73520900      30.05226700       72        0      938        0        2
H       22.78345600       6.47787900      28.27801800       72        0      939        0        3
H       21.36037900       5.59104700      26.70145500       72        0      940        0        4
H       22.99101000       8.07478100      30.15061200       72        0      941        0        5
C       20.89427700       8.52020000      30.22712500       72        0      942        0        6
C       19.65060900       8.24881700      29.66496500       72        0      943        0        7
C       19.52888700       7.35965400      28.60821300       72        0      944        0        8
C       20.66035300       6.72213500      28.09721600       72        0      945        0        9
C       21.91067400       6.98571600      28.66254000       72        0      946        0       10
C       22.01836900       7.88132500      29.71906000       72        0      947        0       11
O       20.49440700       5.86727200      27.06290700       72        0      948        0       12
H       17.30086100       5.35452200       5.74241900       73        0      949        0        0
H       16.07997400       2.60247400       8.80549800       73        0      950        0        1
H       15.73775600       4.71387000       7.55327700       73        0      951        0        2
H       19.53497400       1.77555500       6.39928200       73        0      952        0        3
H       20.13247800       3.43911600       4.92526600       73        0      953        0        4
H       17.98873500       1.13744400       8.21635200       73        0      954        0        5
C       16.76003700       2.88394600       8.01492100       73        0      955        0        6
C       16.57048400       4.06848000       7.30970500       73        0      956        0        7
C       17.43988800       4.43607400       6.29424300       73        0      957        0        8
C       18.51887800       3.61397600       5.96606600       73        0      958        0        9
C       18.70983900       2.42002300       6.66633600       73        0      959        0       10
C       17.83264100       2.06563100       7.68362700       73        0      960        0       11
O       19.34350700       4.01543100       4.97261500       73        0      961        0       12
H       13.70576100      24.31556800       3.36459900       74        0      962        0        0
H       16.37249100      27.58903000       4.15186600       74        0      963        0        1
H       14.07126000      26.68100000       4.00027200       74        0      964        0        2
H       17.92576100      23.74182800       3.05775000       74        0      965        0        3
H       16.34687200      22.15851700       2.51240000       74        0      966        0        4
H       18.29730600      26.10375000       3.67667100       74        0      967        0        5
C       16.21040300      26.55754900       3.87528100       74        0      968        0        6
C       14.91971000      26.04455500       3.78965000       74        0      969        0        7
C       14.70450700      24.72175300       3.43463800       74        0      970        0        8
C       15.78837600      23.88624600       3.16092700       74        0      971        0        9
C       17.08678000      24.39436300       3.25220700       74        0      972        0       10
C       17.28760900      25.72267700       3.60604200       74        0      973        0       11
O       15.53041600      22.60527900       2.81349900       74        0      974        0       12
H       27.62935500       0.00051036      20.80374100       75        0      975        0        0
H       27.38261200      28.82188900      22.19289000       75        0      976        0        1
H       26.31639800      31.02175900      21.78433300       75        0      977        0        2
H       31.06434400      30.35002800      20.60533200       75        0      978        0        3
H       31.05384900      32.58770800      20.06695600       75        0      979        0        4
H       29.76516000      28.49822600      21.59666300       75        0      980        0        5
C       27.95295600      29.63320100      21.76486400       75        0      981        0        6
C       27.35723300      30.86937900      21.53386600       75        0      982        0        7
C       28.08361000      31.91514900      20.98533000       75        0      983        0        8
C       29.42754200      31.73506900      20.65490300       75        0      984        0        9
C       30.02880400      30.49372100      20.87830300       75        0      985        0       10
C       29.28980300      29.45553600      21.43147500       75        0      986        0       11
O       30.09754500      32.78437100      20.12746800       75        0      987        0       12
H        0.96509400       6.56390000       5.48280500       76        0      988        0        0
H        3.21434700       8.11210800       8.79802800       76        0      989        0        1
H        2.43904000       8.30227000       6.45156300       76        0      990        0        2
H        1.00561600       4.45500900       9.19530700       76        0      991        0        3
H       32.87779464       3.69512300       7.26967200       76        0      992        0        4
H        2.48767800       6.17715000      10.16355600       76        0      993        0        5
C        2.57104100       7.35549100       8.37327500       76        0      994        0        6
C        2.13368300       7.45949100       7.05635300       76        0      995        0        7
C        1.30836600       6.49165100       6.50473000       76        0      996        0        8
C        0.90366000       5.39823000       7.27180600       76        0      997        0        9
C        1.33424300       5.29249100       8.59686600       76        0      998        0       10
C        2.16357800       6.26807200       9.13575000       76        0      999        0       11
O        0.10322700       4.47657000       6.69044900       76        0     1000        0       12
H       19.78117700      26.50353300      26.85404300       77        0     1001        0        0
H       16.39653900      28.24824700      24.86734100       77        0     1002        0        1
H       17.39247700      27.15701500      26.85743700       77        0     1003        0        2
H       20.20250900      28.04921800      22.89613100       77        0     1004        0        3
H       21.85340700      26.93308800      24.04763500       77        0     1005        0        4
H       17.81739800      28.69026500      22.88679700       77        0     1006        0        5
C       17.43825600      27.96268000      24.86856700       77        0     1007        0        6
C       18.00056300      27.35021300      25.98439800       77        0     1008        0        7
C       19.33677200      26.98057600      25.99246400       77        0     1009        0        8
C       20.13611800      27.22391400      24.87461000       77        0     1010        0        9
C       19.57829100      27.84494000      23.75410900       77        0     1011        0       10
C       18.23713300      28.20718900      23.75866500       77        0     1012        0       11
O       21.43198400      26.84148500      24.92562600       77        0     1013        0       12
H        4.68599200      31.49346800       4.33390700       78        0     1014        0        0
H        8.83945600      31.96675500       5.31956500       78        0     1015        0        1
H        6.52840600      31.36593400       5.98381100       78        0     1016        0        2
H        7.44654300      32.78988700       1.34553100       78        0     1017        0        3
H        5.16913700      32.64248300       1.04743200       78        0     1018        0        4
H        9.28637900      32.67930400       2.98947700       78        0     1019        0        5
C        8.03418600      32.02108400       4.60171200       78        0     1020        0        6
C        6.73565000      31.68407900       4.97132700       78        0     1021        0        7
C        5.69731300      31.75214100       4.05515300       78        0     1022        0        8
C        5.94760600      32.15935200       2.74393500       78        0     1023        0        9
C        7.25085800      32.49219600       2.36562500       78        0     1024        0       10
C        8.28118000      32.42240800       3.29488100       78        0     1025        0       11
O        4.90356600      32.21584500       1.88666300       78        0     1026        0       12
H        1.37968800       2.02762400       6.87568600       79        0     1027        0        0
H        5.16398600       0.00863800       7.09834400       79        0     1028        0        1
H        2.70317100      32.87767264       7.39410000       79        0     1029        0        2
H        4.95111700       4.07217300       5.73706900       79        0     1030        0        3
H        2.86600600       5.04079900       5.84310800       79        0     1031        0        4
H        6.27915800       2.05818200       6.26615500       79        0     1032        0        5
C        4.58439800       0.89169700       6.87249000       79        0     1033        0        6
C        3.20262800       0.88982700       7.03708200       79        0     1034        0        7
C        2.45274000       2.01995900       6.74964100       79        0     1035        0        8
C        3.08129000       3.17678300       6.28655900       79        0     1036        0        9
C        4.46771200       3.18188700       6.11285400       79        0     1037        0       10
C        5.20704700       2.04330300       6.40774900       79        0     1038        0       11
O        2.31054100       4.25628500       6.02436300       79        0     1039        0       12
H       10.66598400      30.45294900      12.48318500       80        0     1040        0        0
H        6.72001500      31.93532800      11.65937300       80        0     1041        0        1
H        8.82428200      32.03687800      12.96509600       80        0     1042        0        2
H        8.33358000      28.67979500       9.37713500       80        0     1043        0        3
H       10.39035200      27.91302900      10.06918200       80        0     1044        0        4
H        6.48695200      30.24651400       9.86205200       80        0     1045        0        5
C        7.52497500      31.24592500      11.45083300       80        0     1046        0        6
C        8.70780200      31.30055100      12.18180400       80        0     1047        0        7
C        9.74471400      30.41833800      11.91976000       80        0     1048        0        8
C        9.61150100      29.46277500      10.91133800       80        0     1049        0        9
C        8.42859900      29.40809200      10.16963600       80        0     1050        0       10
C        7.39651700      30.29629000      10.44506800       80        0     1051        0       11
O       10.64640500      28.62002500      10.69484100       80        0     1052        0       12
H       14.19335200      12.83119800      12.75290800       81        0     1053        0        0
H       15.92154700      15.25895000       9.65998900       81        0     1054        0        1
H       14.33937300      14.99032200      11.54883100       81        0     1055        0        2
H       17.22113800      11.20788600      10.21734000       81        0     1056        0        3
H       16.06761100      10.01133600      11.80945000       81        0     1057        0        4
H       17.36163500      13.35356600       9.00239100       81        0     1058        0        5
C       15.85627700      14.31840500      10.18709500       81        0     1059        0        6
C       14.96932400      14.16443600      11.24822200       81        0     1060        0        7
C       14.88003800      12.95981300      11.92870800       81        0     1061        0        8
C       15.68683200      11.88420500      11.55465700       81        0     1062        0        9
C       16.58416000      12.03555300      10.49434300       81        0     1063        0       10
C       16.66091000      13.24733600       9.81933200       81        0     1064        0       11
O       15.56167000      10.72736100      12.24325800       81        0     1065        0       12
H       22.67175600      15.13454800      22.25428600       82        0     1066        0        0
H       19.03472600      17.34638500      22.82575400       82        0     1067        0        1
H       21.51125500      17.24654900      22.82492200       82        0     1068        0        2
H       18.90226500      13.22094900      21.65360900       82        0     1069        0        3
H       20.94033700      12.15588500      21.55834600       82        0     1070        0        4
H       17.73793000      15.31972200      22.23606900       82        0     1071        0        5
C       19.54330400      16.42655900      22.57676900       82        0     1072        0        6
C       20.93357900      16.36727800      22.57499500       82        0     1073        0        7
C       21.59271500      15.18976000      22.25696600       82        0     1074        0        8
C       20.86244900      14.04609900      21.93059900       82        0     1075        0        9
C       19.46631100      14.10198000      21.92405400       82        0     1076        0       10
C       18.81891700      15.28773900      22.24779100       82        0     1077        0       11
O       21.54755900      12.91918400      21.63258400       82        0     1078        0       12
H       20.13261800       7.34932600      11.53731200       83        0     1079        0        0
H       21.06038800       3.18317000      12.01603300       83        0     1080        0        1
H       21.74027500       5.47412500      11.35843300       83        0     1081        0        2
H       17.17297100       4.67231400      13.05580900       83        0     1082        0        3
H       16.80581300       6.89315800      12.57599400       83        0     1083        0        4
H       18.76622400       2.79472100      12.86614700       83        0     1084        0        5
C       20.36122600       4.00285900      12.09354800       83        0     1085        0        6
C       20.73990800       5.29032100      11.72554600       83        0     1086        0        7
C       19.84736200       6.34683300      11.82195400       83        0     1087        0        8
C       18.55286700       6.12735400      12.29511000       83        0     1088        0        9
C       18.16959400       4.83778600      12.67258000       83        0     1089        0       10
C       19.07330700       3.78789200      12.56781200       83        0     1090        0       11
O       17.71530400       7.18634400      12.36688900       83        0     1091        0       12
H       13.62721300      23.23138500      22.08455500       84        0     1092        0        0
H       11.63679900      24.42801800      25.69746400       84        0     1093        0        1
H       11.93254100      22.81254100      23.84114100       84        0     1094        0        2
H       14.76024700      26.85608300      24.03635900       84        0     1095        0        3
H       15.59408200      26.14358000      22.01293900       84        0     1096        0        4
H       13.06202400      26.45239200      25.78360200       84        0     1097        0        5
C       12.37556800      24.60814600      24.93032700       84        0     1098        0        6
C       12.54438100      23.70295600      23.88700700       84        0     1099        0        7
C       13.49030900      23.92829400      22.89877900       84        0     1100        0        8
C       14.28929200      25.07170100      22.94361000       84        0     1101        0        9
C       14.12873200      25.98041300      23.99281500       84        0     1102        0       10
C       13.17483300      25.74352600      24.97460400       84        0     1103        0       11
O       15.19451300      25.25255600      21.95568700       84        0     1104        0       12
H        1.85461700      25.89204900      17.00072700       85        0     1105        0        0
H        4.77512100      28.33460600      18.98853000       85        0     1106        0        1
H        3.95519300      27.20241000      16.94182200       85        0     1107        0        2
H        1.36355300      26.85744200      21.13093400       85        0     1108        0        3
H       32.87537264      25.43126000      19.94910000       85        0     1109        0        4
H        3.46528700      28.15368200      21.08337600       85        0     1110        0        5
C        3.85898200      27.76286300      19.01146700       85        0     1111        0        6
C        3.39570800      27.12633800      17.86403700       85        0     1112        0        7
C        2.22094900      26.39041600      17.88662600       85        0     1113        0        8
C        1.48587300      26.28319700      19.06812000       85        0     1114        0        9
C        1.94287400      26.92613200      20.22144300       85        0     1115        0       10
C        3.12333400      27.65767100      20.18519200       85        0     1116        0       11
O        0.34952700      25.55088600      19.04437100       85        0     1117        0       12
H       30.01346100      29.38934900       7.00826500       86        0     1118        0        0
H       26.98022800      31.56637100       4.88532800       86        0     1119        0        1
H       28.72603800      29.80770900       4.93451100       86        0     1120        0        2
H       27.80640500      32.45340100       9.00130900       86        0     1121        0        3
H       29.57390500      31.30327600       9.92344100       86        0     1122        0        4
H       26.52874700       0.00824736       6.93248900       86        0     1123        0        5
C       27.54282500      31.38161200       5.78869600       86        0     1124        0        6
C       28.52337200      30.39472500       5.81974000       86        0     1125        0        7
C       29.24958100      30.15277000       6.97569400       86        0     1126        0        8
C       28.99974300      30.90024400       8.12748700       86        0     1127        0        9
C       28.01144500      31.88770300       8.10384200       86        0     1128        0       10
C       27.29354100      32.12155300       6.93770300       86        0     1129        0       11
O       29.73602300      30.63308800       9.22959600       86        0     1130        0       12
H       14.40290700       0.86784700      31.29441000       87        0     1131        0        0
H       12.74197800       1.80007700      27.44485800       87        0     1132        0        1
H       14.70250700       1.28857800      28.87239400       87        0     1133        0        2
H       10.19160300       1.43495800      30.87603400       87        0     1134        0        3
H       11.27390400       1.09772400       0.00105036       87        0     1135        0        4
H       10.48454700       1.87021600      28.46263000       87        0     1136        0        5
C       12.61392900       1.61572400      28.50142900       87        0     1137        0        6
C       13.71251000       1.32789800      29.30558000       87        0     1138        0        7
C       13.55534700       1.09085700      30.66251200       87        0     1139        0        8
C       12.28446400       1.13625700      31.23745400       87        0     1140        0        9
C       11.17708200       1.41794600      30.43326300       87        0     1141        0       10
C       11.34959100       1.65650200      29.07558800       87        0     1142        0       11
O       12.17992000       0.90391400      32.56531400       87        0     1143        0       12
H        9.31880100      26.07139400      19.50089200       88        0     1144        0        0
H       11.90620500      29.23811500      20.81390400       88        0     1145        0        1
H        9.74192300      28.48323500      19.87093000       88        0     1146        0        2
H       13.19533100      25.15164100      21.03656900       88        0     1147        0        3
H       11.74505400      23.60853300      20.13507800       88        0     1148        0        4
H       13.62998100      27.55637300      21.39452000       88        0     1149        0        5
C       11.71899600      28.18670600      20.65198500       88        0     1150        0        6
C       10.50482000      27.75957200      20.12310400       88        0     1151        0        7
C       10.25818500      26.41167400      19.91217300       88        0     1152        0        8
C       11.23136000      25.46433100      20.23347500       88        0     1153        0        9
C       12.44965100      25.88724300      20.77132200       88        0     1154        0       10
C       12.68445700      27.24132400      20.97449400       88        0     1155        0       11
O       10.94885700      24.16186600      20.00565600       88        0     1156        0       12
H       24.70992600      18.18589200       0.07542400       89        0     1157        0        0
H       20.51992000      18.76665900       0.81929800       89        0     1158        0        1
H       22.38042800      17.34882800      32.87789164       89        0     1159        0        2
H       23.34478900      21.83998200       1.81202000       89        0     1160        0        3
H       25.52032800      21.41954100       1.18957800       89        0     1161        0        4
H       21.01752900      21.01763100       1.72609800       89        0     1162        0        5
C       21.53688700      19.12923500       0.85158800       89        0     1163        0        6
C       22.58373900      18.33556900       0.39270000       89        0     1164        0        7
C       23.89127700      18.79497100       0.43070300       89        0     1165        0        8
C       24.17140500      20.06543900       0.93587900       89        0     1166        0        9
C       23.12475600      20.86379000       1.40441800       89        0     1167        0       10
C       21.81896500      20.39192500       1.35747300       89        0     1168        0       11
O       25.46039300      20.47345500       0.94836100       89        0     1169        0       12
H        9.25033000       0.00022836      16.30962600       90        0     1170        0        0
H       13.48208500      32.14462300      16.33887800       90        0     1171        0        1
H       11.40323400      32.68321800      15.10135800       90        0     1172        0        2
H       11.23632500      32.03047400      19.99322100       90        0     1173        0        3
H        8.96030500      32.28180100      19.76140000       90        0     1174        0        4
H       13.38444000      31.81981300      18.79280100       90        0     1175        0        5
C       12.54188300      32.23070300      16.86360200       90        0     1176        0        6
C       11.37302000      32.53335500      16.17183400       90        0     1177        0        7
C       10.16280700      32.64473600      16.83901500       90        0     1178        0        8
C       10.10630700      32.45583800      18.22064000       90        0     1179        0        9
C       11.27819100      32.15862100      18.92115300       90        0     1180        0       10
C       12.48344300      32.04695800      18.23935500       90        0     1181        0       11
O        8.90363500      32.56894000      18.82802100       90        0     1182        0       12
H        4.10229100      30.24351500       2.44148000       91        0     1183        0        0
H        4.68544300      26.24651700       3.90118000       91        0     1184        0        1
H        3.53708200      28.43857600       4.04012700       91        0     1185        0        2
H        6.93663700      27.67757000       0.54039100       91        0     1186        0        3
H        6.61221700      29.89259100       0.00597100       91        0     1187        0        4
H        6.38873900      25.87786600       2.14059600       91        0     1188        0        5
C        4.92980900      27.03523800       3.20481200       91        0     1189        0        6
C        4.28664600      28.26694000       3.27987300       91        0     1190        0        7
C        4.59588800      29.28379700       2.38963500       91        0     1191        0        8
C        5.55977600      29.07856800       1.40142200       91        0     1192        0        9
C        6.20364800      27.84135300       1.31718200       91        0     1193        0       10
C        5.88609100      26.83237200       2.21777500       91        0     1194        0       11
O        5.83249200      30.10029600       0.55891200       91        0     1195        0       12
H       16.30159300      14.13109500       5.32698100       92        0     1196        0        0
H       16.87594100      16.46674400       1.76865800       92        0     1197        0        1
H       17.77765600      15.45649000       3.84458200       92        0     1198        0        2
H       13.02980300      14.78817400       2.66326700       92        0     1199        0        3
H       12.87040600      13.71066400       4.69076200       92        0     1200        0        4
H       14.49235400      16.12359900       1.18767500       92        0     1201        0        5
C       16.23433900      15.88782500       2.41667500       92        0     1202        0        6
C       16.73756500      15.31898000       3.58267700       92        0     1203        0        7
C       15.91946600      14.57527600       4.41919900       92        0     1204        0        8
C       14.57508100      14.38679000       4.09537200       92        0     1205        0        9
C       14.06628800      14.94993100       2.92218400       92        0     1206        0       10
C       14.89671300      15.69542100       2.09478600       92        0     1207        0       11
O       13.81399200      13.65899100       4.94341500       92        0     1208        0       12
H       26.50782100      10.21300800      23.08077900       93        0     1209        0        0
H       27.25368400      14.11438200      21.44683800       93        0     1210        0        1
H       28.05525800      11.84727300      22.04755300       93        0     1211        0        2
H       23.34890900      13.07970300      22.89351200       93        0     1212        0        3
H       23.17990800      11.00920600      23.88429700       93        0     1213        0        4
H       24.89024200      14.71968800      21.87639600       93        0     1214        0        5
C       26.58063500      13.39958300      21.89716400       93        0     1215        0        6
C       27.02740900      12.12581800      22.23524600       93        0     1216        0        7
C       26.16902700      11.20369800      22.81406100       93        0     1217        0        8
C       24.83899500      11.54632900      23.06181400       93        0     1218        0        9
C       24.38335500      12.82166400      22.71789500       93        0     1219        0       10
C       25.25527100      13.73671000      22.14134900       93        0     1220        0       11
O       24.03993600      10.61693100      23.63264600       93        0     1221        0       12
H       14.62560300       5.96144900       9.16706600       94        0     1222        0        0
H       17.66591300       8.88100200       8.34274300       94        0     1223        0        1
H       15.29598600       8.16145400       8.24864200       94        0     1224        0        2
H       18.67012800       5.19915700      10.30393200       94        0     1225        0        3
H       16.94576800       3.68895000      10.51137100       94        0     1226        0        4
H       19.34848000       7.38544200       9.37668900       94        0     1227        0        5
C       17.37085700       7.92213500       8.74304200       94        0     1228        0        6
C       16.04107600       7.51535000       8.69213000       94        0     1229        0        7
C       15.65561600       6.28568900       9.20350500       94        0     1230        0        8
C       16.60422100       5.44021100       9.78063200       94        0     1231        0        9
C       17.93970500       5.84672100       9.84063100       94        0     1232        0       10
C       18.31238100       7.08024200       9.32150900       94        0     1233        0       11
O       16.18343500       4.24856600      10.26130600       94        0     1234        0       12
H       16.94691800      31.27971700      11.55591400       95        0     1235        0        0
H       15.08754400      27.64683500      10.21737600       95        0     1236        0        1
H       17.12766800      28.99917000      10.60756100       95        0     1237        0        2
H       12.70225600      30.86325000      11.75872800       95        0     1238        0        3
H       13.85402500      32.78909500      12.27031500       95        0     1239        0        4
H       12.87369700      28.59383900      10.79947500       95        0     1240        0        5
C       15.01145000      28.64160500      10.63134000       95        0     1241        0        6
C       16.15492400      29.40329100      10.85198900       95        0     1242        0        7
C       16.06439600      30.68100400      11.38246700       95        0     1243        0        8
C       14.81689700      31.21724100      11.70489400       95        0     1244        0        9
C       13.66601900      30.45404700      11.49186400       95        0     1245        0       10
C       13.77127500      29.17634200      10.95675500       95        0     1246        0       11
O       14.77664800      32.46889900      12.21465500       95        0     1247        0       12
H       19.68674200      11.95435300      28.80310600       96        0     1248        0        0
H       16.26203800      10.20618800      30.71677100       96        0     1249        0        1
H       17.69890300      10.47996400      28.71586400       96        0     1250        0        2
H       18.83650800      12.86566700       0.00902036       96        0     1251        0        3
H       20.52119500      13.83398800      31.65358700       96        0     1252        0        4
H       16.84413200      11.40856100      32.80297500       96        0     1253        0        5
C       17.12988100      10.84830000      30.75236600       96        0     1254        0        6
C       17.93885700      11.00386100      29.63087500       96        0     1255        0        7
C       19.05387400      11.82690300      29.66949000       96        0     1256        0        8
C       19.37874700      12.50923200      30.84279600       96        0     1257        0        9
C       18.57379100      12.35115600      31.97391300       96        0     1258        0       10
C       17.45773200      11.52564700      31.92009400       96        0     1259        0       11
O       20.47193700      13.30481400      30.83236500       96        0     1260        0       12
H        8.71781200       2.75978600      22.82697200       97        0     1261        0        0
H        5.41213800       0.82380500      20.88499200       97        0     1262        0        1
H        6.52539000       1.61511200      22.95324300       97        0     1263        0        2
H        8.68663700       2.35912200      18.57606200       97        0     1264        0        3
H       10.44125200       3.21202300      19.79715100       97        0     1265        0        4
H        6.50711800       1.20361500      18.69557600       97        0     1266        0        5
C        6.36818300       1.32376200      20.83258400       97        0     1267        0        6
C        6.99565700       1.76958900      21.99185000       97        0     1268        0        7
C        8.22306100       2.41148200      21.93182300       97        0     1269        0        8
C        8.84316400       2.62026400      20.69908400       97        0     1270        0        9
C        8.21420500       2.18082200      19.53132200       97        0     1271        0       10
C        6.98583900       1.53629900      19.60653200       97        0     1272        0       11
O       10.04186900       3.24567400      20.68946100       97        0     1273        0       12
H        1.45030200      25.98387800      14.38744300       98        0     1274        0        0
H        0.57043200      22.44872600      12.11251000       98        0     1275        0        1
H       32.87788964      24.76221900      12.79471000       98        0     1276        0        2
H        4.05995700      22.61126200      14.60399300       98        0     1277        0        3
H        4.27818700      24.51829100      15.87394800       98        0     1278        0        4
H        2.61017200      21.38144100      13.02746200       98        0     1279        0        5
C        1.20165000      22.98389700      12.80668600       98        0     1280        0        6
C        0.88435400      24.28300800      13.19141400       98        0     1281        0        7
C        1.68982000      24.97541500      14.08245200       98        0     1282        0        8
C        2.83577500      24.37231100      14.60285200       98        0     1283        0        9
C        3.16281700      23.07054400      14.21450300       98        0     1284        0       10
C        2.34497000      22.38736000      13.32324700       98        0     1285        0       11
O        3.58806900      25.08351000      15.47255000       98        0     1286        0       12
H        3.00186100      20.38093000      10.86983800       99        0     1287        0        0
H        3.05289500      16.98845200       8.23634700       99        0     1288        0        1
H        4.03084100      19.13691300       8.99192500       99        0     1289        0        2
H        0.03764300      17.33372500      11.26945400       99        0     1290        0        3
H        0.06863900      19.29500400      12.47344500       99        0     1291        0        4
H        1.04968100      16.09496500       9.38769000       99        0     1292        0        5
C        2.60627000      17.53274600       9.05549000       99        0     1293        0        6
C        3.15309500      18.73903400       9.48237900       99        0     1294        0        7
C        2.58453900      19.44306900      10.53272700       99        0     1295        0        8
C        1.45237700      18.94308000      11.17769600       99        0     1296        0        9
C        0.90334900      17.72880100      10.75762200       99        0     1297        0       10
C        1.48158300      17.03545400       9.70175100       99        0     1298        0       11
O        0.92912400      19.66632900      12.19319600       99        0     1299        0       12
H        5.19011700      23.39483900      27.74620800      100        0     1300        0        0
H        5.68839000      19.91514400      25.27836800      100        0     1301        0        1
H        4.33696200      21.23672700      26.88156000      100        0     1302        0        2
H        8.72650100      22.94278900      25.39644800      100        0     1303        0        3
H        8.36253700      24.64839600      26.89831600      100        0     1304        0        4
H        7.88864800      20.78256600      24.54133400      100        0     1305        0        5
C        6.05803400      20.85695900      25.65661800      100        0     1306        0        6
C        5.30160100      21.60154900      26.55649500      100        0     1307        0        7
C        5.77030200      22.81088100      27.04637700      100        0     1308        0        8
C        7.01251700      23.29701500      26.63608600      100        0     1309        0        9
C        7.77308000      22.55674000      25.72729300      100        0     1310        0       10
C        7.29246200      21.34504100      25.24693700      100        0     1311        0       11
O        7.43119700      24.47799800      27.14413400      100        0     1312        0       12
H       22.03489800      22.66092000      21.42180800      101        0     1313        0        0
H       20.34556900      19.09032300      23.10816200      101        0     1314        0        1
H       21.94987000      20.19048000      21.57224800      101        0     1315        0        2
H       18.94415900      22.94979700      24.35363600      101        0     1316        0        3
H       19.84635900      24.73980500      23.22267200      101        0     1317        0        4
H       18.84348600      20.48630500      24.49804000      101        0     1318        0        5
C       20.38496400      20.16766600      23.04103700      101        0     1319        0        6
C       21.28478000      20.78844200      22.18001900      101        0     1320        0        7
C       21.34019500      22.17072400      22.08850300      101        0     1321        0        8
C       20.48993300      22.95745400      22.86688100      101        0     1322        0        9
C       19.58931500      22.33941000      23.73824500      101        0     1323        0       10
C       19.54243500      20.95323900      23.81749800      101        0     1324        0       11
O       20.57556800      24.30089200      22.74052500      101        0     1325        0       12
H        9.78720900      22.43065700      23.53842200      102        0     1326        0        0
H       11.25513700      20.11942800      26.84753100      102        0     1327        0        1
H       10.79689100      22.31698900      25.79686400      102        0     1328        0        2
H        9.65874800      18.16578500      23.37686600      102        0     1329        0        3
H        9.07602500      19.55916600      21.64017600      102        0     1330        0        4
H       10.67914800      18.04461100      25.62272600      102        0     1331        0        5
C       10.81438100      20.17172800      25.86278500      102        0     1332        0        6
C       10.55548000      21.40391200      25.27026900      102        0     1333        0        7
C        9.99048400      21.47825100      24.00638500      102        0     1334        0        8
C        9.67142200      20.30955200      23.31348800      102        0     1335        0        9
C        9.92286000      19.06968800      23.90668500      102        0     1336        0       10
C       10.49226800      19.01002400      25.17245100      102        0     1337        0       11
O        9.12712800      20.43053100      22.08172700      102        0     1338        0       12
H       29.30638700      14.11851200       9.37302300      103        0     1339        0        0
H       27.48341800      10.43626400      10.62387000      103        0     1340        0        1
H       27.40371200      12.90244400      10.38985300      103        0     1341        0        2
H       31.36292800      10.42210000       8.79086700      103        0     1342        0        3
H       32.24932400      12.49775000       8.34014700      103        0     1343        0        4
H       29.47546500       9.20412600       9.81741800      103        0     1344        0        5
C       28.31177800      10.96897700      10.18029000      103        0     1345        0        6
C       28.27000400      12.35349600      10.04709000      103        0     1346        0        7
C       29.32996400      13.04354700       9.47923100      103        0     1347        0        8
C       30.45501700      12.35038700       9.03029100      103        0     1348        0        9
C       30.49921000      10.95941700       9.15526300      103        0     1349        0       10
C       29.43122100      10.28112800       9.72908700      103        0     1350        0       11
O       31.46655700      13.06535700       8.48832200      103        0     1351        0       12
H       26.94087100      20.07915700       7.47426200      104        0     1352        0        0
H       26.35431100      23.84785300       9.44901900      104        0     1353        0        1
H       25.71466800      22.21958000       7.69324500      104        0     1354        0        2
H       29.42721000      21.16151700      10.77249600      104        0     1355        0        3
H       29.70228500      19.26875200       9.49228400      104        0     1356        0        4
H       28.21848800      23.30455600      10.98734700      104        0     1357        0        5
C       26.88723400      22.91337400       9.35171800      104        0     1358        0        6
C       26.53036500      21.99689400       8.36729300      104        0     1359        0        7
C       27.21052500      20.79588600       8.23647700      104        0     1360        0        8
C       28.26476700      20.49204700       9.09904100      104        0     1361        0        9
C       28.62272500      21.40570200      10.09376100      104        0     1362        0       10
C       27.93450000      22.60672400      10.21141200      104        0     1363        0       11
O       28.90250600      19.31175800       8.93071500      104        0     1364        0       12
H        4.64415000      12.17590400      28.39672900      105        0     1365        0        0
H        1.62311500      12.22797000      31.44917500      105        0     1366        0        1
H        2.56073100      11.25705100      29.37038800      105        0     1367        0        2
H        4.88407600      15.01368400      31.57810900      105        0     1368        0        3
H        6.31093900      14.94737800      29.77343800      105        0     1369        0        4
H        2.79869500      14.11215800      32.54672700      105        0     1370        0        5
C        2.53194000      12.62661200      31.02274000      105        0     1371        0        6
C        3.06117300      12.08352400      29.85597100      105        0     1372        0        7
C        4.22695900      12.59074100      29.30295700      105        0     1373        0        8
C        4.88628600      13.65620800      29.91763600      105        0     1374        0        9
C        4.36299300      14.20075000      31.09322300      105        0     1375        0       10
C        3.19233600      13.68460800      31.63461900      105        0     1376        0       11
O        6.01664400      14.12145200      29.33974100      105        0     1377        0       12
H       10.88427700      22.64803500       9.80492000      106        0     1378        0        0
H        7.78475800      20.85649500       7.43212500      106        0     1379        0        1
H        9.80716800      20.63401400       8.84758400      106        0     1380        0        2
H        7.91808600      25.11129100       7.97030400      106        0     1381        0        3
H        9.74103500      25.90281400       9.13113100      106        0     1382        0        4
H        6.84719800      23.10839800       7.00004600      106        0     1383        0        5
C        8.25616000      21.73332900       7.85125300      106        0     1384        0        6
C        9.39147700      21.61182900       8.64666200      106        0     1385        0        7
C       10.00186200      22.73313200       9.18727300      106        0     1386        0        8
C        9.47753300      24.00248600       8.93911600      106        0     1387        0        9
C        8.33364100      24.12963100       8.14683200      106        0     1388        0       10
C        7.73411200      22.99770800       7.60899800      106        0     1389        0       11
O       10.10905200      25.06738600       9.48252700      106        0     1390        0       12
H        2.52777300      14.34550600       8.27280100      107        0     1391        0        0
H        5.03668100      11.76104600      10.61218900      107        0     1392        0        1
H        2.77901900      12.50093800       9.90601400      107        0     1393        0        2
H        6.77495900      14.70307200       8.01727700      107        0     1394        0        3
H        5.27854900      16.10516000       6.97225200      107        0     1395        0        4
H        7.03296300      12.87411400       9.65682900      107        0     1396        0        5
C        4.92439700      12.56502400       9.89963200      107        0     1397        0        6
C        3.65830500      12.98254300       9.50079400      107        0     1398        0        7
C        3.50699300      14.01421800       8.58706500      107        0     1399        0        8
C        4.63128700      14.64563900       8.05317800      107        0     1400        0        9
C        5.90507000      14.22568200       8.44494200      107        0     1401        0       10
C        6.04185600      13.19269700       9.36373500      107        0     1402        0       11
O        4.43539200      15.65023000       7.16969200      107        0     1403        0       12
H        7.46606700       3.40030000       3.79273000      108        0     1404        0        0
H        3.22460000       3.84451500       3.28339700      108        0     1405        0        1
H        5.16386200       2.54996400       4.12396900      108        0     1406        0        2
H        5.91162800       6.84861400       1.81167300      108        0     1407        0        3
H        8.15066800       6.36090500       2.02617400      108        0     1408        0        4
H        3.61368800       5.99956300       2.12531500      108        0     1409        0        5
C        4.22970300       4.21344300       3.14061800      108        0     1410        0        6
C        5.32059700       3.48926000       3.61167200      108        0     1411        0        7
C        6.61331800       3.95668200       3.43128400      108        0     1412        0        8
C        6.83331200       5.16777300       2.77354200      108        0     1413        0        9
C        5.74111100       5.90237700       2.30468900      108        0     1414        0       10
C        4.45132900       5.42050400       2.48965100      108        0     1415        0       11
O        8.11086700       5.58140900       2.61580000      108        0     1416        0       12
H       15.09374400      13.73495500      22.71123900      109        0     1417        0        0
H       10.86618600      13.94432400      23.43973100      109        0     1418        0        1
H       12.94512100      12.61301800      23.21879500      109        0     1419        0        2
H       13.11370600      17.51776100      22.67168200      109        0     1420        0        3
H       15.32951500      17.19503000      22.13950900      109        0     1421        0        4
H       10.96473500      16.40410800      23.16309000      109        0     1422        0        5
C       11.80468600      14.43131500      23.21886300      109        0     1423        0        6
C       12.97372600      13.68681500      23.09457100      109        0     1424        0        7
C       14.18155700      14.30541400      22.81061300      109        0     1425        0        8
C       14.23646600      15.69052200      22.64867500      109        0     1426        0        9
C       13.06680700      16.44364800      22.77932000      109        0     1427        0       10
C       11.86286700      15.81028600      23.06098000      109        0     1428        0       11
O       15.43496800      16.24960800      22.36735400      109        0     1429        0       12
H       27.64497200      24.57439000      25.45553500      110        0     1430        0        0
H       26.41569400      20.50179300      26.04681900      110        0     1431        0        1
H       25.86933800      22.91691900      25.93808400      110        0     1432        0        2
H       30.51096600      21.42332500      25.15787400      110        0     1433        0        3
H       31.01482900      23.66591700      25.03922300      110        0     1434        0        4
H       28.74816500      19.76594600      25.65326100      110        0     1435        0        5
C       27.18824200      21.22668900      25.83605400      110        0     1436        0        6
C       26.88474200      22.58330600      25.77392400      110        0     1437        0        7
C       27.87157000      23.51909600      25.50444700      110        0     1438        0        8
C       29.18691800      23.10549900      25.28866400      110        0     1439        0        9
C       29.49584500      21.74389000      25.34299900      110        0     1440        0       10
C       28.49760200      20.81742200      25.61707700      110        0     1441        0       11
O       30.11676700      24.05362700      25.03458300      110        0     1442        0       12
H       25.01536700       1.80013600      11.92707800      111        0     1443        0        0
H       22.46033100       2.70462600      15.25881600      111        0     1444        0        1
H       23.03907200       1.27016300      13.32218600      111        0     1445        0        2
H       25.86386300       5.17344500      14.40348100      111        0     1446        0        3
H       27.01731200       4.63462100      12.48608800      111        0     1447        0        4
H       23.88593100       4.65958600      15.79039100      111        0     1448        0        5
C       23.32206100       2.93334800      14.64903500      111        0     1449        0        6
C       23.64994000       2.12978900      13.56129900      111        0     1450        0        7
C       24.75423200       2.41796300      12.77412200      111        0     1451        0        8
C       25.55416600       3.52275000      13.06961100      111        0     1452        0        9
C       25.23347900       4.32894500      14.16486300      111        0     1453        0       10
C       24.12222400       4.03019700      14.94320300      111        0     1454        0       11
O       26.61750700       3.76807900      12.27133500      111        0     1455        0       12
H       29.73312300       4.39274600      12.20763200      112        0     1456        0        0
H       27.58207700       5.65988900      15.70250500      112        0     1457        0        1
H       28.66693800       6.18912200      13.53775300      112        0     1458        0        2
H       28.61546900       1.52942500      15.17141000      112        0     1459        0        3
H       29.90976500       1.06511200      13.32577100      112        0     1460        0        4
H       27.56315700       3.31815200      16.51039400      112        0     1461        0        5
C       28.04739200       4.87812000      15.12023000      112        0     1462        0        6
C       28.65696800       5.17184800      13.90428400      112        0     1463        0        7
C       29.25657300       4.17337100      13.15217500      112        0     1464        0        8
C       29.25145600       2.85493800      13.60985500      112        0     1465        0        9
C       28.63466500       2.55333100      14.82680600      112        0     1466        0       10
C       28.04039300       3.56431100      15.57159500      112        0     1467        0       11
O       29.85291900       1.91552300      12.84574300      112        0     1468        0       12
H       28.92312800      30.14747800      25.38245500      113        0     1469        0        0
H       27.88404400      26.25077100      26.85987500      113        0     1470        0        1
H       27.21085000      28.43557300      25.90247700      113        0     1471        0        2
H       31.98680600      27.50124600      26.74005300      113        0     1472        0        3
H       32.33662300      29.67705700      26.07624200      113        0     1473        0        4
H       30.28333600      25.79483400      27.27496500      113        0     1474        0        5
C       28.62897200      26.99894400      26.63173900      113        0     1475        0        6
C       28.25437300      28.22640900      26.09379100      113        0     1476        0        7
C       29.20526100      29.19138100      25.79918700      113        0     1477        0        8
C       30.55651300      28.93723300      26.03854000      113        0     1478        0        9
C       30.93881100      27.70372400      26.57208700      113        0     1479        0       10
C       29.97502900      26.74714900      26.86541000      113        0     1480        0       11
O       31.44763400      29.90954900      25.74082900      113        0     1481        0       12
H       12.26841800      32.56276400      29.53899200      114        0     1482        0        0
H       15.09988000      30.77842800      26.84719900      114        0     1483        0        1
H       13.57823900      32.64330800      27.43879700      114        0     1484        0        2
H       14.00821400      28.77957400      30.48361900      114        0     1485        0        3
H       12.35665400      29.80461900      31.71601600      114        0     1486        0        4
H       15.30640600      28.84618200      28.38360800      114        0     1487        0        5
C       14.52784400      30.74593500      27.76286500      114        0     1488        0        6
C       13.67295900      31.79147800      28.09811800      114        0     1489        0        7
C       12.93538900      31.75592200      29.27152200      114        0     1490        0        8
C       13.04685400      30.66472000      30.13443400      114        0     1491        0        9
C       13.90906100      29.61537500      29.80604200      114        0     1492        0       10
C       14.63977900      29.66276400      28.62546800      114        0     1493        0       11
O       12.30449400      30.67078700      31.26447400      114        0     1494        0       12
H       12.73128100      11.45134000       3.46135300      115        0     1495        0        0
H       14.38921100      10.59300900       7.32934100      115        0     1496        0        1
H       12.79187300      11.84403000       5.90574700      115        0     1497        0        2
H       15.83274800       8.54216900       3.84782500      115        0     1498        0        3
H       14.94551400       9.25087500       1.84589500      115        0     1499        0        4
H       15.90903800       8.93931000       6.28426600      115        0     1500        0        5
C       14.36046800      10.42323100       6.26300400      115        0     1501        0        6
C       13.46459700      11.12365700       5.46100600      115        0     1502        0        7
C       13.42283400      10.91106200       4.09162300      115        0     1503        0        8
C       14.28308300       9.98390200       3.50161400      115        0     1504        0        9
C       15.17981300       9.27278700       4.30321200      115        0     1505        0       10
C       15.21296800       9.49815700       5.67363500      115        0     1506        0       11
O       14.21061700       9.81363600       2.16225500      115        0     1507        0       12
H       12.29001100      24.01753200      13.69073900      116        0     1508        0        0
H       13.40986400      27.18910400      16.36166400      116        0     1509        0        1
H       12.94068600      26.37712900      14.06738300      116        0     1510        0        2
H       12.54229600      23.27387400      17.88776900      116        0     1511        0        3
H       12.12434300      21.66441800      16.29650000      116        0     1512        0        4
H       13.20610600      25.62196300      18.26936700      116        0     1513        0        5
C       13.12542600      26.16053000      16.19476400      116        0     1514        0        6
C       12.86095800      25.70160100      14.90797600      116        0     1515        0        7
C       12.49598100      24.38253600      14.68659700      116        0     1516        0        8
C       12.38697200      23.49777000      15.76040800      116        0     1517        0        9
C       12.64462500      23.95510800      17.05533100      116        0     1518        0       10
C       13.01243400      25.27868800      17.26221900      116        0     1519        0       11
O       12.03349100      22.21970800      15.49634000      116        0     1520        0       12
H       21.07379700       0.47773500      29.64038400      117        0     1521        0        0
H       20.21632500       1.59408800      25.58264000      117        0     1522        0        1
H       21.76628200       0.64644100      27.26868800      117        0     1523        0        2
H       17.27855100       2.16894000      28.65668100      117        0     1524        0        3
H       17.97422000       1.66896000      30.79285400      117        0     1525        0        4
H       17.96781300       2.35396000      26.29226400      117        0     1526        0        5
C       19.91652400       1.51897400      26.61762900      117        0     1527        0        6
C       20.78419500       0.98706600      27.56663100      117        0     1528        0        7
C       20.40602100       0.88829900      28.89681200      117        0     1529        0        8
C       19.14160900       1.32187800      29.29810100      117        0     1530        0        9
C       18.26382400       1.85035500      28.34806200      117        0     1531        0       10
C       18.65711600       1.94625100      27.01912500      117        0     1532        0       11
O       18.81828200       1.21113400      30.60627500      117        0     1533        0       12
H       25.76375500      27.46402100      23.49103100      118        0     1534        0        0
H       24.46771700      31.51200400      22.87385500      118        0     1535        0        1
H       26.16372700      29.89980200      23.69087000      118        0     1536        0        2
H       21.99572000      28.23102400      21.63486400      118        0     1537        0        3
H       22.77608100      26.13996400      22.19671300      118        0     1538        0        4
H       22.38121900      30.66152000      21.84430100      118        0     1539        0        5
C       24.29588100      30.44911700      22.78743100      118        0     1540        0        6
C       25.24622700      29.54134300      23.24478400      118        0     1541        0        7
C       25.03180900      28.17581600      23.13749300      118        0     1542        0        8
C       23.85377700      27.69621600      22.56304700      118        0     1543        0        9
C       22.89924800      28.60338300      22.09583100      118        0     1544        0       10
C       23.12587400      29.96901900      22.21257400      118        0     1545        0       11
O       23.68550200      26.35695800      22.48433200      118        0     1546        0       12
H       10.95132100      16.56207500      12.95233500      119        0     1547        0        0
H        7.68299500      18.68929400      11.15240000      119        0     1548        0        1
H        9.28034900      16.79418200      11.13935000      119        0     1549        0        2
H        9.42629400      20.08872200      14.81480400      119        0     1550        0        3
H       11.27117400      18.91924500      15.54000300      119        0     1551        0        4
H        7.76684000      20.33485300      13.00223300      119        0     1552        0        5
C        8.41246400      18.58553700      11.94223200      119        0     1553        0        6
C        9.31041900      17.52250200      11.93805900      119        0     1554        0        7
C       10.24963800      17.38366500      12.94837700      119        0     1555        0        8
C       10.30120300      18.31389000      13.98750400      119        0     1556        0        9
C        9.39731200      19.37934100      14.00028400      119        0     1557        0       10
C        8.46348200      19.50788300      12.97980000      119        0     1558        0       11
O       11.23708000      18.14131100      14.94796100      119        0     1559        0       12
H       25.20883100      30.56368000       3.89698700      120        0     1560        0        0
H       27.80759500      27.28003800       2.94257100      120        0     1561        0        1
H       26.24813500      29.06611800       2.22065400      120        0     1562        0        2
H       27.29625300      28.52750900       7.01602700      120        0     1563        0        3
H       25.74082200      30.19045700       7.35129900      120        0     1564        0        4
H       28.32498200      27.02081500       5.35128200      120        0     1565        0        5
C       27.35333700      27.93483300       3.67169300      120        0     1566        0        6
C       26.47769600      28.93882200       3.26964800      120        0     1567        0        7
C       25.89069700      29.78235400       4.20025900      120        0     1568        0        8
C       26.17719300      29.63277700       5.55794400      120        0     1569        0        9
C       27.06116500      28.63074200       5.96646500      120        0     1570        0       10
C       27.63973000      27.79062200       5.02337900      120        0     1571        0       11
O       25.57747600      30.47456700       6.42963900      120        0     1572        0       12
H       18.38310400      17.68242800      26.80520600      121        0     1573        0        0
H       21.87114300      15.65280300      25.33517400      121        0     1574        0        1
H       20.17357600      17.44476500      25.11090200      121        0     1575        0        2
H       19.98583300      14.36897500      28.96946700      121        0     1576        0        3
H       18.03670600      15.46639200      29.51145300      121        0     1577        0        4
H       21.76559100      14.11667200      27.27577600      121        0     1578        0        5
C       21.08947000      15.75888100      26.07304900      121        0     1579        0        6
C       20.13511400      16.76412300      25.95027000      121        0     1580        0        7
C       19.12879600      16.90554100      26.89339000      121        0     1581        0        8
C       19.06538200      16.03654000      27.98361000      121        0     1582        0        9
C       20.02525600      15.02975000      28.11546100      121        0     1583        0       10
C       21.02625500      14.89767200      27.16125700      121        0     1584        0       11
O       18.06358500      16.20885200      28.87514600      121        0     1585        0       12
H       20.79339000      16.10603000      20.39568200      122        0     1586        0        0
H       24.79790400      17.26617800      19.36383400      122        0     1587        0        1
H       23.17205100      15.51951800      20.03386600      122        0     1588        0        2
H       21.63899300      20.16980200      19.39446100      122        0     1589        0        3
H       19.59883200      19.40120100      20.13213800      122        0     1590        0        4
H       24.01560300      19.59511100      19.04626600      122        0     1591        0        5
C       23.75978300      17.51930800      19.52180700      122        0     1592        0        6
C       22.84437100      16.54096700      19.89764200      122        0     1593        0        7
C       21.51060600      16.85909300      20.10262600      122        0     1594        0        8
C       21.07062300      18.17221400      19.92973100      122        0     1595        0        9
C       21.98425200      19.15715800      19.54562800      122        0     1596        0       10
C       23.31839000      18.82482500      19.34667600      122        0     1597        0       11
O       19.76243500      18.43688700      20.14587200      122        0     1598        0       12
H       26.30893500      17.19020000      16.03787900      123        0     1599        0        0
H       24.53027200      18.92430900      12.53416500      123        0     1600        0        1
H       25.08033000      16.93269300      13.90312900      123        0     1601        0        2
H       26.42002200      21.42043900      15.46825400      123        0     1602        0        3
H       27.46167100      20.30423000      17.19052500      123        0     1603        0        4
H       25.20799600      21.16987700      13.33096700      123        0     1604        0        5
C       25.06564400      19.03397400      13.46587000      123        0     1605        0        6
C       25.37566000      17.91788800      14.23698900      123        0     1606        0        7
C       26.06310700      18.05143600      15.43353900      123        0     1607        0        8
C       26.45044000      19.31577800      15.87982900      123        0     1608        0        9
C       26.13558000      20.44049400      15.11285900      123        0     1609        0       10
C       25.44901800      20.29165700      13.91434700      123        0     1610        0       11
O       27.12351100      19.39722600      17.04964400      123        0     1611        0       12
H       22.63405600      31.87081200      24.03511800      124        0     1612        0        0
H       26.06992100      32.18903100      26.59253100      124        0     1613        0        1
H       24.83476600       0.00122336      24.55754000      124        0     1614        0        2
H       22.87181600      29.50490600      27.58162300      124        0     1615        0        3
H       21.19570700      29.34571500      26.01239200      124        0     1616        0        4
H       25.07378200      30.49542700      28.10123600      124        0     1617        0        5
C       25.10967400      31.75106500      26.36266600      124        0     1618        0        6
C       24.41347900      32.13665700      25.22117000      124        0     1619        0        7
C       23.18083900      31.57812700      24.91985000      124        0     1620        0        8
C       22.62205000      30.61951300      25.76635700      124        0     1621        0        9
C       23.31366700      30.23380300      26.91755800      124        0     1622        0       10
C       24.54939400      30.79948000      27.20554500      124        0     1623        0       11
O       21.42067800      30.09848900      25.42966200      124        0     1624        0       12
H       17.49777000      25.74825400      19.14715400      125        0     1625        0        0
H       13.88344400      23.47666700      19.61972800      125        0     1626        0        1
H       15.10917100      25.62423600      19.78914500      125        0     1627        0        2
H       17.44557000      21.60008700      18.13635200      125        0     1628        0        3
H       19.32366100      22.93018400      18.10831700      125        0     1629        0        4
H       15.06735000      21.46550500      18.78884100      125        0     1630        0        5
C       14.92516700      23.53351600      19.33989400      125        0     1631        0        6
C       15.61609400      24.73777800      19.43346000      125        0     1632        0        7
C       16.95339200      24.81763700      19.07651700      125        0     1633        0        8
C       17.62239300      23.68344900      18.61411300      125        0     1634        0        9
C       16.93151300      22.47326600      18.51159800      125        0     1635        0       10
C       15.59248300      22.40698800      18.87567700      125        0     1636        0       11
O       18.92736600      23.80733400      18.28271800      125        0     1637        0       12
H       18.11073700      11.01288200      12.66904900      126        0     1638        0        0
H       15.01484200      12.85921600      15.00427400      126        0     1639        0        1
H       16.68927500      12.97521600      13.18054700      126        0     1640        0        2
H       16.18043600       8.80138600      15.76984900      126        0     1641        0        3
H       17.96554700       8.03724400      14.53427700      126        0     1642        0        4
H       14.76964000      10.75926500      16.29534400      126        0     1643        0        5
C       15.63572300      12.00456500      14.77887800      126        0     1644        0        6
C       16.57647100      12.06629200      13.75537200      126        0     1645        0        7
C       17.37702300      10.97325800      13.46118600      126        0     1646        0        8
C       17.24342100       9.79198900      14.19229100      126        0     1647        0        9
C       16.29552400       9.72228900      15.21649900      126        0     1648        0       10
C       15.50216900      10.82625600      15.50249800      126        0     1649        0       11
O       18.04899700       8.75387300      13.87372000      126        0     1650        0       12
H       24.06781700      24.27280900      17.50817700      127        0     1651        0        0
H       22.71624700      28.26305800      18.34361500      127        0     1652        0        1
H       24.49864600      26.54178100      18.40209400      127        0     1653        0        2
H       20.09296900      25.43359000      16.46659000      127        0     1654        0        3
H       20.93268900      23.30163200      16.25025600      127        0     1655        0        4
H       20.51067900      27.69404500      17.36971900      127        0     1656        0        5
C       22.53102500      27.27282000      17.95393800      127        0     1657        0        6
C       23.52970400      26.30428400      17.98491700      127        0     1658        0        7
C       23.29852000      25.03117500      17.48702000      127        0     1659        0        8
C       22.05415300      24.70836000      16.94378700      127        0     1660        0        9
C       21.05004100      25.67920100      16.90384600      127        0     1661        0       10
C       21.29455800      26.94995500      17.40916100      127        0     1662        0       11
O       21.87252600      23.45314000      16.47521500      127        0     1663        0       12
C       21.23658400      30.20435600      19.28307600      128        1     1664        1        0
H       22.19309700      30.60432900      19.61275400      128        1     1665        1        1
H       20.43215300      30.76199200      19.75901500      128        1     1666        1        2
H       21.15129100      29.16839900      19.60530800      128        1     1667        1        3
C       21.04300100      30.26035600      17.78639100      128        1     1668        1        4
O       20.01267200      29.83453100      17.27036300      128        1     1669        1        5
N       22.05114100      30.79269400      17.06880600      128        1     1670        1        6
H       22.85246300      31.13995900      17.56197800      128        1     1671        1        7
C       22.01336400      30.92294800      15.61964300      128        1     1672        1        8
H       21.72808200      29.97927800      15.16218300      128        1     1673        1        9
H       23.00288600      31.20410500      15.27147900      128        1     1674        1       10
H       21.29629700      31.68061000      15.30764200      128        1     1675        1       11
C        2.48307800      30.18942600      24.95417600      129        1     1676        1        0
H        3.41280000      29.82508800      24.52236600      129        1     1677        1        1
H        1.64424400      29.69854900      24.46429600      129        1     1678        1        2
H        2.39372800      31.25711000      24.76343600      129        1     1679        1        3
C        2.37696100      29.95583900      26.44241400      129        1     1680        1        4
O        1.38487100      30.32403300      27.06641800      129        1     1681        1        5
N        3.41784500      29.33422500      27.02962300      129        1     1682        1        6
H        4.18380500      29.04290400      26.45137700      129        1     1683        1        7
C        3.46340300      29.03151300      28.45256200      129        1     1684        1        8
H        3.21891400      29.91555500      29.03554000      129        1     1685        1        9
H        4.46757300      28.70366600      28.70471400      129        1     1686        1       10
H        2.75521100      28.24701400      28.71448700      129        1     1687        1       11
C       29.00557100      31.66712000       2.87183100      130        1     1688        1        0
H       28.16866500      32.31214900       3.13089000      130        1     1689        1        1
H       29.46894600      32.03187900       1.95705200      130        1     1690        1        2
H       28.63584400      30.66307800       2.67304800      130        1     1691        1        3
C       30.06115900      31.58685500       3.94885000      130        1     1692        1        4
O       31.05993600      30.88765900       3.79799000      130        1     1693        1        5
N       29.84120100      32.31262600       5.06219300      130        1     1694        1        6
H       29.01332800      32.87723200       5.10435600      130        1     1695        1        7
C       30.76628800      32.34587200       6.18539200      130        1     1696        1        8
H       31.03729500      31.33617900       6.48245000      130        1     1697        1        9
H       30.28111200      32.84543500       7.01873500      130        1     1698        1       10
H       31.68015100       0.00259736       5.93141700      130        1     1699        1       11
C       31.93404500      31.96035700      24.64315400      131        1     1700        1        0
H       32.87714800      31.81259100      25.16498400      131        1     1701        1        1
H       31.77778100      31.13884800      23.94652700      131        1     1702        1        2
H       31.98718300      32.87769300      24.06007200      131        1     1703        1        3
C       30.74117100      32.04470400      25.56544200      131        1     1704        1        4
O       29.61136200      32.21986800      25.11595600      131        1     1705        1        5
N       30.98986100      31.92118200      26.88360500      131        1     1706        1        6
H       31.93571700      31.75783600      27.17447400      131        1     1707        1        7
C       29.94724000      31.97361500      27.89783400      131        1     1708        1        8
H       29.31732600      32.84653800      27.74822400      131        1     1709        1        9
H       30.41750900      32.03553300      28.87478600      131        1     1710        1       10
H       29.31350600      31.08892900      27.86190500      131        1     1711        1       11
C       23.82521000      20.57856100       9.49650000      132        1     1712        1        0
H       24.64726800      21.28835900       9.55967400      132        1     1713        1        1
H       24.22667300      19.57834400       9.34491200      132        1     1714        1        2
H       23.21041100      20.81857000       8.63120700      132        1     1715        1        3
C       22.94482500      20.56451100      10.72344800      132        1     1716        1        4
O       21.97126900      19.81812500      10.78893500      132        1     1717        1        5
N       23.28595500      21.40610500      11.71843900      132        1     1718        1        6
H       24.10743800      21.96964400      11.60216600      132        1     1719        1        7
C       22.54270300      21.50528200      12.96592000      132        1     1720        1        8
H       21.48113000      21.62391000      12.76552500      132        1     1721        1        9
H       22.90163900      22.37091400      13.51479900      132        1     1722        1       10
H       22.67394400      20.61451300      13.57819800      132        1     1723        1       11
C       27.73214600       2.82335300      22.73861600      133        1     1724        1        0
H       26.78841400       3.34483000      22.88358800      133        1     1725        1        1
H       28.50434500       3.54564200      22.48055900      133        1     1726        1        2
H       27.63593900       2.13465000      21.90151100      133        1     1727        1        3
C       28.18431100       2.04603100      23.95187400      133        1     1728        1        4
O       29.22901100       1.40003400      23.92996200      133        1     1729        1        5
N       27.38522000       2.10263000      25.03488300      133        1     1730        1        6
H       26.55893700       2.66897200      24.98546800      133        1     1731        1        7
C       27.68581300       1.41445700      26.28169100      133        1     1732        1        8
H       27.92969300       0.37289300      26.08976700      133        1     1733        1        9
H       26.81152900       1.46423300      26.92400700      133        1     1734        1       10
H       28.53145500       1.87118500      26.79342200      133        1     1735        1       11
C       22.57627500      25.57789700       4.43062100      134        1     1736        1        0
H       22.29883400      25.17898900       5.40400900      134        1     1737        1        1
H       21.76449000      25.40245800       3.72719300      134        1     1738        1        2
H       23.45005100      25.04487500       4.06087000      134        1     1739        1        3
C       22.88677100      27.05568900       4.45061000      134        1     1740        1        4
O       23.22404800      27.64016600       3.42405200      134        1     1741        1        5
N       22.77552100      27.67784400       5.64023400      134        1     1742        1        6
H       22.47341000      27.13934200       6.43059700      134        1     1743        1        7
C       23.03389800      29.09867600       5.82173600      134        1     1744        1        8
H       23.99040200      29.36857400       5.38193700      134        1     1745        1        9
H       23.05679100      29.31311700       6.88612000      134        1     1746        1       10
H       22.26197900      29.70585500       5.35157100      134        1     1747        1       11
C        8.55969400      25.40015600      23.94996500      135        1     1748        1        0
H        7.90629400      25.40051100      23.08010600      135        1     1749        1        1
H        9.18807400      24.51183200      23.92536700      135        1     1750        1        2
H        7.95426500      25.34732400      24.85272600      135        1     1751        1        3
C        9.44856300      26.61793600      24.03714500      135        1     1752        1        4
O       10.23239000      26.75724800      24.97277100      135        1     1753        1        5
N        9.32778300      27.52314300      23.04685700      135        1     1754        1        6
H        8.68187300      27.33023000      22.30421700      135        1     1755        1        7
C       10.11769600      28.74407100      22.98488900      135        1     1756        1        8
H       10.07825200      29.26897600      23.93572400      135        1     1757        1        9
H        9.70828400      29.38210900      22.20725800      135        1     1758        1       10
H       11.16132400      28.53075700      22.75924000      135        1     1759        1       11
C        7.61218900       2.82183400      29.99719600      136        1     1760        1        0
H        7.24812200       3.84540500      29.93937200      136        1     1761        1        1
H        7.32444400       2.39308000      30.95529800      136        1     1762        1        2
H        8.69959100       2.82543900      29.95411900      136        1     1763        1        3
C        7.08975200       1.93261200      28.89401000      136        1     1764        1        4
O        7.42460500       0.75251700      28.82737400      136        1     1765        1        5
N        6.25379300       2.50407500      28.00560600      136        1     1766        1        6
H        6.00827100       3.46755700      28.13733300      136        1     1767        1        7
C        5.66148100       1.77927500      26.89102200      136        1     1768        1        8
H        6.42736000       1.23797700      26.34184800      136        1     1769        1        9
H        5.18418600       2.49445400      26.22759900      136        1     1770        1       10
H        4.91944300       1.06023100      27.23443700      136        1     1771        1       11
C       26.88016700      25.23926200      17.55906700      137        1     1772        1        0
H       26.97230400      26.25632100      17.18398400      137        1     1773        1        1
H       26.27431000      25.24462300      18.46322100      137        1     1774        1        2
H       27.86629500      24.86617600      17.82864600      137        1     1775        1        3
C       26.25894300      24.28463100      16.56738400      137        1     1776        1        4
O       26.10099100      23.09980800      16.85099500      137        1     1777        1        5
N       25.89956300      24.80310500      15.37713700      137        1     1778        1        6
H       26.03932800      25.78468300      15.22580700      137        1     1779        1        7
C       25.28329300      24.01501400      14.31997500      137        1     1780        1        8
H       25.85624200      23.10914100      14.14027300      137        1     1781        1        9
H       25.26205400      24.61039900      13.41196200      137        1     1782        1       10
H       24.26659300      23.72599500      14.58144700      137        1     1783        1       11
C       16.56165300       6.36984600      16.92085800      138        1     1784        1        0
H       17.10587300       5.55949600      16.44050300      138        1     1785        1        1
H       17.19563100       7.25370600      16.95893500      138        1     1786        1        2
H       16.33158300       6.08823100      17.94656500      138        1     1787        1        3
C       15.27325500       6.72977000      16.22003000      138        1     1788        1        4
O       14.54938200       7.62141400      16.65611400      138        1     1789        1        5
N       14.97354400       6.02438300      15.11221100      138        1     1790        1        6
H       15.62433000       5.32620600      14.80406000      138        1     1791        1        7
C       13.77285200       6.25584700      14.32276300      138        1     1792        1        8
H       12.89592300       6.27515000      14.96447300      138        1     1793        1        9
H       13.67111100       5.44914800      13.60282900      138        1     1794        1       10
H       13.82399500       7.20470400      13.79112900      138        1     1795        1       11
C       13.46497400      19.91425100       9.32111300      139        1     1796        1        0
H       14.44753400      19.96231300       9.78571000      139        1     1797        1        1
H       12.75480000      19.49023000      10.02853500      139        1     1798        1        2
H       13.50736100      19.24813600       8.46157400      139        1     1799        1        3
C       12.94754400      21.25740300       8.86407300      139        1     1800        1        4
O       11.85386600      21.35432600       8.31301600      139        1     1801        1        5
N       13.74538800      22.31869100       9.09160600      139        1     1802        1        6
H       14.61511000      22.16489400       9.56685400      139        1     1803        1        7
C       13.38617500      23.67841600       8.71666500      139        1     1804        1        8
H       13.05901700      23.71142300       7.68078600      139        1     1805        1        9
H       14.25971100      24.31256500       8.83587500      139        1     1806        1       10
H       12.57894300      24.06173200       9.33877800      139        1     1807        1       11
C       14.80415700      12.50564700      30.53000200      140        1     1808        1        0
H       15.04789000      11.77329900      29.76329000      140        1     1809        1        1
H       15.72360500      12.95271300      30.90327700      140        1     1810        1        2
H       14.32263700      12.00222100      31.36607300      140        1     1811        1        3
C       13.89417700      13.60827800      30.04336400      140        1     1812        1        4
O       13.52756700      14.50094500      30.80358300      140        1     1813        1        5
N       13.51613400      13.55029900      28.75170600      140        1     1814        1        6
H       13.87381700      12.80334100      28.18597900      140        1     1815        1        7
C       12.64804800      14.54070400      28.13203600      140        1     1816        1        8
H       11.76269000      14.70205800      28.74135900      140        1     1817        1        9
H       12.34740300      14.17445700      27.15484800      140        1     1818        1       10
H       13.15654000      15.49630600      28.01439500      140        1     1819        1       11
C        3.12937000      20.56374400       3.28507800      141        1     1820        1        0
H        2.65878700      21.44321600       3.71943400      141        1     1821        1        1
H        4.11371300      20.83405400       2.90746900      141        1     1822        1        2
H        2.53713300      20.22184500       2.43851200      141        1     1823        1        3
C        3.28326600      19.41929600       4.25833500      141        1     1824        1        4
O        3.79009900      18.35781300       3.90398600      141        1     1825        1        5
N        2.83659900      19.63095300       5.51147000      141        1     1826        1        6
H        2.45460300      20.53147600       5.73298400      141        1     1827        1        7
C        2.91955300      18.62999700       6.56488100      141        1     1828        1        8
H        2.52400800      17.67975000       6.21596500      141        1     1829        1        9
H        2.33364700      18.97102700       7.41331100      141        1     1830        1       10
H        3.94906600      18.47188900       6.88218800      141        1     1831        1       11
C       31.33177600      10.44084100      31.76970300      142        1     1832        1        0
H       31.62186500      10.96521400      30.86170200      142        1     1833        1        1
H       30.30776700      10.70683100      32.02512900      142        1     1834        1        2
H       31.96833800      10.76626100      32.59019400      142        1     1835        1        3
C       31.42572700       8.93798600      31.65449100      142        1     1836        1        4
O       31.13795900       8.21628600      32.60608400      142        1     1837        1        5
N       31.83882200       8.45009500      30.46875400      142        1     1838        1        6
H       32.03480800       9.10035200      29.73072500      142        1     1839        1        7
C       31.97452200       7.02636500      30.19848200      142        1     1840        1        8
H       32.54821900       6.54470000      30.98590700      142        1     1841        1        9
H       32.49203600       6.90153400      29.25189900      142        1     1842        1       10
H       31.00268500       6.53868000      30.14126900      142        1     1843        1       11
C        6.15468400       7.40303100      23.14428500      143        1     1844        1        0
H        6.63939900       6.46898500      23.42031900      143        1     1845        1        1
H        5.56942300       7.76545800      23.98731700      143        1     1846        1        2
H        5.46519700       7.21960300      22.32253400      143        1     1847        1        3
C        7.12268100       8.48486800      22.72800800      143        1     1848        1        4
O        6.71639300       9.59095100      22.38058900      143        1     1849        1        5
N        8.43108700       8.16580800      22.75854000      143        1     1850        1        6
H        8.68848800       7.24944200      23.07468700      143        1     1851        1        7
C        9.48602800       9.09977200      22.39346700      143        1     1852        1        8
H        9.26795300       9.56066500      21.43368200      143        1     1853        1        9
H       10.42238000       8.55411400      22.32330200      143        1     1854        1       10
H        9.58876400       9.89179400      23.13355200      143        1     1855        1       11
C       15.27702400      27.93175300      18.57434900      144        1     1856        1        0
H       14.72836700      27.78265600      19.50188900      144        1     1857        1        1
H       14.98121900      28.88121100      18.13206500      144        1     1858        1        2
H       15.01040000      27.14601900      17.87018400      144        1     1859        1        3
C       16.77655300      27.92901900      18.75345600      144        1     1860        1        4
O       17.52407100      28.07723800      17.78990100      144        1     1861        1        5
N       17.23221600      27.75469100      20.00909900      144        1     1862        1        6
H       16.56100400      27.66230500      20.74860500      144        1     1863        1        7
C       18.64814800      27.73463500      20.34555600      144        1     1864        1        8
H       19.18349800      27.05376600      19.68906200      144        1     1865        1        9
H       18.75510600      27.39867900      21.37274400      144        1     1866        1       10
H       19.09427700      28.72274700      20.24464000      144        1     1867        1       11
C       28.32813300      16.79842600      14.48087300      145        1     1868        1        0
H       29.30668100      16.78213400      14.00572700      145        1     1869        1        1
H       27.75451300      17.63697900      14.09052100      145        1     1870        1        2
H       28.45185400      16.95674500      15.55042600      145        1     1871        1        3
C       27.53434600      15.53100500      14.27058200      145        1     1872        1        4
O       26.41394000      15.40389100      14.75814800      145        1     1873        1        5
N       28.12140500      14.56879800      13.53289800      145        1     1874        1        6
H       29.02938600      14.75327600      13.14888200      145        1     1875        1        7
C       27.48387100      13.29460200      13.23550500      145        1     1876        1        8
H       27.09968800      12.84207800      14.14588600      145        1     1877        1        9
H       28.22229900      12.63330800      12.79184400      145        1     1878        1       10
H       26.65313400      13.41842300      12.54259500      145        1     1879        1       11
C        7.33635000      26.40012000       5.16233800      146        1     1880        1        0
H        6.85763000      26.25903400       6.12903700      146        1     1881        1        1
H        6.71979600      27.05519300       4.54969900      146        1     1882        1        2
H        7.40192600      25.44131400       4.65174700      146        1     1883        1        3
C        8.72290400      26.99112900       5.25643500      146        1     1884        1        4
O        9.38734500      27.19743400       4.24394000      146        1     1885        1        5
N        9.17582300      27.26891500       6.49431900      146        1     1886        1        6
H        8.56748200      27.09378400       7.27225300      146        1     1887        1        7
C       10.48697700      27.84670700       6.75024200      146        1     1888        1        8
H       11.25573800      27.28991100       6.22094800      146        1     1889        1        9
H       10.68320600      27.80066000       7.81738600      146        1     1890        1       10
H       10.53453900      28.88404600       6.42276000      146        1     1891        1       11
C       21.85158200       9.43351700      12.39896600      147        1     1892        1        0
H       22.26776800       9.82513000      11.47321600      147        1     1893        1        1
H       21.90208700       8.34642600      12.38255100      147        1     1894        1        2
H       20.80135800       9.71094100      12.46514100      147        1     1895        1        3
C       22.55971700       9.93101600      13.63659200      147        1     1896        1        4
O       22.19177500       9.57896800      14.75456800      147        1     1897        1        5
N       23.59595700      10.76921800      13.44093400      147        1     1898        1        6
H       23.85229100      10.99428600      12.49776500      147        1     1899        1        7
C       24.38251300      11.32900000      14.53017300      147        1     1900        1        8
H       23.73040800      11.76055100      15.28495200      147        1     1901        1        9
H       25.02682300      12.10543900      14.12839200      147        1     1902        1       10
H       24.99640300      10.56762100      15.00873200      147        1     1903        1       11
C        6.83828200      10.46006400      28.40834800      148        1     1904        1        0
H        7.53981500      11.18491000      28.81582100      148        1     1905        1        1
H        7.38583600       9.58119700      28.07314300      148        1     1906        1        2
H        6.34474100      10.88908900      27.53848000      148        1     1907        1        3
C        5.78140200      10.02320500      29.39467300      148        1     1908        1        4
O        4.91572600       9.21431300      29.06988400      148        1     1909        1        5
N        5.84532400      10.56722300      30.62537000      148        1     1910        1        6
H        6.59423500      11.20409100      30.82401800      148        1     1911        1        7
C        4.90453900      10.24346100      31.68771200      148        1     1912        1        8
H        3.88275500      10.32959400      31.32756500      148        1     1913        1        9
H        5.05452400      10.94024600      32.50711200      148        1     1914        1       10
H        5.05055700       9.22760300      32.05142900      148        1     1915        1       11
C       25.86178400      32.16859400      13.22307100      149        1     1916        1        0
H       26.83418700      32.59706400      12.98976900      149        1     1917        1        1
H       25.29163000       0.00029536      13.81959000      149        1     1918        1        2
H       26.00023900      31.27262700      13.82505800      149        1     1919        1        3
C       25.05308700      31.80654300      12.00012100      149        1     1920        1        4
O       23.93759200      31.30407100      12.11139200      149        1     1921        1        5
N       25.62154600      32.06146800      10.80574800      149        1     1922        1        6
H       26.52648200      32.49376400      10.79386600      149        1     1923        1        7
C       24.96794200      31.77617000       9.53694000      149        1     1924        1        8
H       24.59060900      30.75701500       9.52637600      149        1     1925        1        9
H       25.69432600      31.89655000       8.73863300      149        1     1926        1       10
H       24.12997000      32.44901500       9.36183400      149        1     1927        1       11
C       17.28243900       5.59403700      26.77421900      150        1     1928        1        0
H       18.35488200       5.41675300      26.81916500      150        1     1929        1        1
H       16.83854500       4.92058000      26.04346600      150        1     1930        1        2
H       17.10155000       6.61152200      26.43316700      150        1     1931        1        3
C       16.58278900       5.39866700      28.09822700      150        1     1932        1        4
O       15.37108500       5.57377200      28.19972400      150        1     1933        1        5
N       17.35551700       5.03100000      29.13859800      150        1     1934        1        6
H       18.33414600       4.88534600      28.97428000      150        1     1935        1        7
C       16.83026700       4.79743400      30.47576900      150        1     1936        1        8
H       16.20802500       5.63163300      30.78896800      150        1     1937        1        9
H       17.66520700       4.69672000      31.16290300      150        1     1938        1       10
H       16.22620200       3.89226500      30.51257500      150        1     1939        1       11
C        6.98817500      14.13138900      21.75352700      151        1     1940        1        0
H        5.97514300      14.52330200      21.81481100      151        1     1941        1        1
H        7.02031900      13.14790100      22.21861200      151        1     1942        1        2
H        7.65784700      14.78028300      22.31458800      151        1     1943        1        3
C        7.50485200      14.01372500      20.33935700      151        1     1944        1        4
O        8.63818500      13.59450700      20.11799400      151        1     1945        1        5
N        6.66331500      14.39210600      19.35787900      151        1     1946        1        6
H        5.74498100      14.70325100      19.61435900      151        1     1947        1        7
C        7.01055100      14.33217700      17.94568100      151        1     1948        1        8
H        7.97375100      14.80482600      17.77243300      151        1     1949        1        9
H        6.24756800      14.85771400      17.37903400      151        1     1950        1       10
H        7.07067700      13.30313900      17.59490200      151        1     1951        1       11
C        0.81488800       8.75870400      10.53724800      152        1     1952        1        0
H        0.00006100       8.29773400       9.98303800      152        1     1953        1        1
H        1.47647700       7.98102000      10.91420100      152        1     1954        1        2
H        0.40893200       9.28764100      11.39732900      152        1     1955        1        3
C        1.62971200       9.72935000       9.71591800      152        1     1956        1        4
O        2.57712400      10.33218600      10.21410400      152        1     1957        1        5
N        1.25786800       9.89057800       8.43124100      152        1     1958        1        6
H        0.48749800       9.34727300       8.08877900      152        1     1959        1        7
C        1.94558200      10.78373300       7.51048500      152        1     1960        1        8
H        2.06859900      11.76664200       7.95761400      152        1     1961        1        9
H        1.35037700      10.87430000       6.60663200      152        1     1962        1       10
H        2.93263400      10.40388400       7.25159800      152        1     1963        1       11
C        9.35030300      20.39281800      28.68334000      153        1     1964        1        0
H        9.68723500      20.43706300      29.71683100      153        1     1965        1        1
H        9.67310700      19.45198800      28.24149900      153        1     1966        1        2
H        9.81897300      21.19671000      28.11905400      153        1     1967        1        3
C        7.85217500      20.50835400      28.53187800      153        1     1968        1        4
O        7.32991700      20.48372100      27.42019900      153        1     1969        1        5
N        7.14091900      20.64009700      29.66828300      153        1     1970        1        6
H        7.63514800      20.62967700      30.54095700      153        1     1971        1        7
C        5.69019900      20.75599500      29.68944800      153        1     1972        1        8
H        5.36126300      21.51897100      28.98885000      153        1     1973        1        9
H        5.37977700      21.03405900      30.69231300      153        1     1974        1       10
H        5.21278400      19.81656700      29.41535000      153        1     1975        1       11
C       13.65132700      29.20235800      23.98599700      154        1     1976        1        0
H       14.20381400      28.83449500      24.84798300      154        1     1977        1        1
H       13.27674000      28.35615800      23.41309500      154        1     1978        1        2
H       14.32570000      29.76139800      23.34023400      154        1     1979        1        3
C       12.48664900      30.09180000      24.35081900      154        1     1980        1        4
O       11.77805000      30.58757400      23.47830400      154        1     1981        1        5
N       12.28054900      30.30450300      25.66495000      154        1     1982        1        6
H       12.88731000      29.84787500      26.32013100      154        1     1983        1        7
C       11.19722400      31.13114800      26.17635200      154        1     1984        1        8
H       11.18090800      32.09112200      25.66708700      154        1     1985        1        9
H       11.35681200      31.29271900      27.23835400      154        1     1986        1       10
H       10.22984100      30.65357900      26.02912000      154        1     1987        1       11
C       28.22526500       5.26392800       8.58076200      155        1     1988        1        0
H       27.35385300       4.77685200       9.01317600      155        1     1989        1        1
H       28.28024300       6.28823200       8.94458000      155        1     1990        1        2
H       28.11181800       5.30687100       7.49928100      155        1     1991        1        3
C       29.52645400       4.56745500       8.90093200      155        1     1992        1        4
O       30.59260600       5.00054700       8.47088400      155        1     1993        1        5
N       29.44502200       3.46370500       9.66889200      155        1     1994        1        6
H       28.54139700       3.18298100      10.00143700      155        1     1995        1        7
C       30.60837500       2.68618300      10.06956000      155        1     1996        1        8
H       31.22668600       2.45765200       9.20548100      155        1     1997        1        9
H       30.26659900       1.75882400      10.51968800      155        1     1998        1       10
H       31.21972600       3.22843400      10.78913900      155        1     1999        1       11
C       11.39380700      25.36876200       4.36626000      156        1     2000        1        0
H       10.50930600      25.45975300       4.99312900      156        1     2001        1        1
H       12.05406800      24.61233300       4.78632700      156        1     2002        1        2
H       11.93446400      26.31321200       4.37035800      156        1     2003        1        3
C       11.08355500      24.99798700       2.93554500      156        1     2004        1        4
O       11.98493100      24.86963700       2.11077900      156        1     2005        1        5
N        9.78380700      24.82358500       2.62749000      156        1     2006        1        6
H        9.10540900      24.92374900       3.35938700      156        1     2007        1        7
C        9.32435800      24.45848400       1.29554600      156        1     2008        1        8
H        9.76866400      25.11216200       0.54957800      156        1     2009        1        9
H        8.24368800      24.56071800       1.26206000      156        1     2010        1       10
H        9.59385800      23.43251200       1.04992400      156        1     2011        1       11
C        9.66110500       7.11046300      30.75960000      157        1     2012        1        0
H        9.04065100       6.43602000      30.17330000      157        1     2013        1        1
H        9.05035600       7.58318000      31.52648300      157        1     2014        1        2
H       10.04263400       7.89881900      30.11365600      157        1     2015        1        3
C       10.83068500       6.42706600      31.42722900      157        1     2016        1        4
O       11.62276900       7.06696000      32.11449000      157        1     2017        1        5
N       10.94904300       5.10077300      31.22327900      157        1     2018        1        6
H       10.25095600       4.64220700      30.66801200      157        1     2019        1        7
C       12.01693600       4.29933600      31.80273800      157        1     2020        1        8
H       12.98207900       4.76242700      31.61508200      157        1     2021        1        9
H       11.99804900       3.31465400      31.34506400      157        1     2022        1       10
H       11.89542400       4.19502200       0.00174036      157        1     2023        1       11
C       31.85389800       1.10464600      17.29183900      158        1     2024        1        0
H       32.87736600       0.98054000      17.63925200      158        1     2025        1        1
H       31.35603400       0.13680500      17.29163800      158        1     2026        1        2
H       31.86537300       1.46648800      16.26555800      158        1     2027        1        3
C       31.04410000       2.06387400      18.13135400      158        1     2028        1        4
O       29.87334600       2.30891300      17.85121200      158        1     2029        1        5
N       31.67434700       2.62353800      19.18217400      158        1     2030        1        6
H       32.62476000       2.35802700      19.36147800      158        1     2031        1        7
C       31.02905700       3.56147500      20.08900500      158        1     2032        1        8
H       30.53206200       4.34880200      19.52839700      158        1     2033        1        9
H       31.78802800       4.00259100      20.72838000      158        1     2034        1       10
H       30.28390500       3.06555000      20.70899300      158        1     2035        1       11
C        2.86227900       0.85859100      10.63005900      159        1     2036        1        0
H        3.00223900       0.42742400      11.61904400      159        1     2037        1        1
H        2.21322500       1.72883400      10.70747100      159        1     2038        1        2
H        2.36214600       0.13369400       9.99075800      159        1     2039        1        3
C        4.15272700       1.27639500       9.96608700      159        1     2040        1        4
O        4.14860700       1.77069400       8.84143500      159        1     2041        1        5
N        5.28396700       1.07434100      10.66903100      159        1     2042        1        6
H        5.20667800       0.68623500      11.59062200      159        1     2043        1        7
C        6.60435000       1.42934600      10.17000600      159        1     2044        1        8
H        6.74867600       1.03498900       9.16759800      159        1     2045        1        9
H        7.35119900       1.00246100      10.83288500      159        1     2046        1       10
H        6.73691300       2.50938500      10.13100100      159        1     2047        1       11
C        5.92154900      27.92888800      22.05217100      160        1     2048        1        0
H        5.06089500      28.17323100      22.67116800      160        1     2049        1        1
H        5.57615500      27.53433900      21.09843200      160        1     2050        1        2
H        6.50204800      27.14720400      22.53828300      160        1     2051        1        3
C        6.82801200      29.10736700      21.78724000      160        1     2052        1        4
O        7.84483900      28.97741700      21.11021300      160        1     2053        1        5
N        6.46011200      30.28363400      22.33102500      160        1     2054        1        6
H        5.60465800      30.31762500      22.85349300      160        1     2055        1        7
C        7.22352800      31.51125200      22.16185500      160        1     2056        1        8
H        8.27166000      31.33991400      22.39256900      160        1     2057        1        9
H        6.82663800      32.26176700      22.83907400      160        1     2058        1       10
H        7.15821100      31.88183100      21.14009900      160        1     2059        1       11
C        2.70972400      14.77926900      25.46756200      161        1     2060        1        0
H        2.54676100      14.36327100      24.47560700      161        1     2061        1        1
H        3.75940200      14.66989900      25.73364400      161        1     2062        1        2
H        2.12803500      14.21394700      26.19307000      161        1     2063        1        3
C        2.33275300      16.23736100      25.57952200      161        1     2064        1        4
O        2.45466400      16.83721600      26.64465200      161        1     2065        1        5
N        1.86198400      16.82461400      24.46230700      161        1     2066        1        6
H        1.81144000      16.27665700      23.62378600      161        1     2067        1        7
C        1.46283300      18.22321200      24.40688800      161        1     2068        1        8
H        0.78921600      18.45728200      25.22702100      161        1     2069        1        9
H        0.95342700      18.40069100      23.46432400      161        1     2070        1       10
H        2.32450200      18.88513100      24.47737800      161        1     2071        1       11
C        6.01295200      10.36512800       8.19513500      162        1     2072        1        0
H        6.29187500       9.94236200       9.15797200      162        1     2073        1        1
H        6.78746100      11.05730800       7.87015800      162        1     2074        1        2
H        5.09207800      10.93415300       8.30700400      162        1     2075        1        3
C        5.80956500       9.32746200       7.11691500      162        1     2076        1        4
O        5.48255800       9.65920500       5.98016300      162        1     2077        1        5
N        6.00256300       8.04296700       7.47395900      162        1     2078        1        6
H        6.29031800       7.85053100       8.41528500      162        1     2079        1        7
C        5.85218200       6.92933600       6.54892900      162        1     2080        1        8
H        4.90395000       6.99999100       6.02258900      162        1     2081        1        9
H        5.87836700       6.00302900       7.11522300      162        1     2082        1       10
H        6.65021600       6.91785500       5.80826100      162        1     2083        1       11
C       24.89797600       6.62176500      23.28429100      163        1     2084        1        0
H       25.61131300       5.82455500      23.48226000      163        1     2085        1        1
H       25.40665700       7.43964400      22.77743400      163        1     2086        1        2
H       24.52033200       7.00735600      24.22928800      163        1     2087        1        3
C       23.72486600       6.18534700      22.43929000      163        1     2088        1        4
O       22.83462100       6.97861600      22.14369300      163        1     2089        1        5
N       23.71562900       4.89836900      22.04147300      163        1     2090        1        6
H       24.48867000       4.31549500      22.30338300      163        1     2091        1        7
C       22.65926000       4.32803600      21.21850700      163        1     2092        1        8
H       21.68439400       4.56450300      21.63670200      163        1     2093        1        9
H       22.78486500       3.24962600      21.19248000      163        1     2094        1       10
H       22.69451900       4.71637900      20.20188300      163        1     2095        1       11
C       15.79119500      19.46256200       0.70883800      164        1     2096        1        0
H       16.59596000      19.28313100      32.87708864      164        1     2097        1        1
H       14.94982100      18.81584300       0.46711200      164        1     2098        1        2
H       15.45082900      20.49166400       0.61181600      164        1     2099        1        3
C       16.18888500      19.22056800       2.14548700      164        1     2100        1        4
O       15.38368700      19.39268900       3.05719900      164        1     2101        1        5
N       17.45578700      18.81559000       2.35905000      164        1     2102        1        6
H       18.04938200      18.67528400       1.56287800      164        1     2103        1        7
C       17.98813800      18.53484900       3.68428700      164        1     2104        1        8
H       17.77272700      19.35774000       4.36076000      164        1     2105        1        9
H       19.06398700      18.40920300       3.60564700      164        1     2106        1       10
H       17.55247300      17.62931400       4.10355000      164        1     2107        1       11
C       22.26596000      26.35030400       0.96143500      165        1     2108        1        0
H       21.39031300      25.88102700       1.40483800      165        1     2109        1        1
H       22.46604100      25.89308200      32.87221964      165        1     2110        1        2
H       23.13099100      26.16567400       1.59542700      165        1     2111        1        3
C       22.11925700      27.84105600       0.76956800      165        1     2112        1        4
O       23.03363600      28.50486500       0.28742900      165        1     2113        1        5
N       20.94866700      28.38498600       1.15494900      165        1     2114        1        6
H       20.24012000      27.77606900       1.51979400      165        1     2115        1        7
C       20.65170300      29.80430100       1.02915600      165        1     2116        1        8
H       21.45990100      30.39853300       1.44733500      165        1     2117        1        9
H       19.73505500      30.01556200       1.57187600      165        1     2118        1       10
H       20.52419500      30.09242800      32.86489564      165        1     2119        1       11
C        2.44302800      10.40626900       2.78414400      166        1     2120        1        0
H        1.78054400      11.14934600       3.22293300      166        1     2121        1        1
H        2.30207100      10.39366400       1.70499700      166        1     2122        1        2
H        2.17510100       9.42084700       3.16027400      166        1     2123        1        3
C        3.90388600      10.65250200       3.07729900      166        1     2124        1        4
O        4.76678400       9.88787400       2.65310600      166        1     2125        1        5
N        4.19385800      11.73855400       3.81963700      166        1     2126        1        6
H        3.43755900      12.32890800       4.11191000      166        1     2127        1        7
C        5.55254400      12.11477500       4.18143400      166        1     2128        1        8
H        6.08268900      11.26279800       4.59886600      166        1     2129        1        9
H        5.50653300      12.90582600       4.92409300      166        1     2130        1       10
H        6.11016700      12.46931400       3.31602200      166        1     2131        1       11
C        7.96707600      22.76433900      10.85569600      167        1     2132        1        0
H        8.23706900      23.79139800      11.09200000      167        1     2133        1        1
H        7.79521800      22.67672600       9.78454100      167        1     2134        1        2
H        7.03446600      22.51453200      11.35784100      167        1     2135        1        3
C        9.01648600      21.75649100      11.26024100      167        1     2136        1        4
O        8.84304100      20.55633600      11.06342900      167        1     2137        1        5
N       10.12914900      22.24636300      11.84047000      167        1     2138        1        6
H       10.20953300      23.24028100      11.94815300      167        1     2139        1        7
C       11.23291800      21.40548100      12.27987500      167        1     2140        1        8
H       10.86370000      20.58290200      12.88667800      167        1     2141        1        9
H       11.91345900      22.00946500      12.87273900      167        1     2142        1       10
H       11.77344100      20.98528500      11.43320500      167        1     2143        1       11
C       25.37479400       4.07616500       6.87854500      168        1     2144        1        0
H       24.94644900       4.02306000       7.87718700      168        1     2145        1        1
H       24.58177200       3.96005400       6.14218900      168        1     2146        1        2
H       26.07036500       3.25030000       6.74274200      168        1     2147        1        3
C       26.10381000       5.36970900       6.60294400      168        1     2148        1        4
O       26.64625900       5.56572000       5.51827000      168        1     2149        1        5
N       26.12335700       6.27386000       7.60133600      168        1     2150        1        6
H       25.63923600       6.05228800       8.45131400      168        1     2151        1        7
C       26.77819700       7.56883300       7.48865700      168        1     2152        1        8
H       27.79163000       7.44915900       7.11476000      168        1     2153        1        9
H       26.81219800       8.02632400       8.47301800      168        1     2154        1       10
H       26.24169200       8.22711200       6.80718000      168        1     2155        1       11
C       27.79279100       6.45307300      21.95833900      169        1     2156        1        0
H       27.59341300       6.67278100      23.00503000      169        1     2157        1        1
H       27.13527300       7.05562100      21.33448600      169        1     2158        1        2
H       27.56258400       5.40779700      21.76157800      169        1     2159        1        3
C       29.22220300       6.71652700      21.54840100      169        1     2160        1        4
O       29.59428100       6.50429600      20.39700800      169        1     2161        1        5
N       30.04580700       7.18605900      22.50541400      169        1     2162        1        6
H       29.66480800       7.35579500      23.41753300      169        1     2163        1        7
C       31.44792100       7.49499600      22.26645400      169        1     2164        1        8
H       31.93939000       6.66281900      21.76935500      169        1     2165        1        9
H       31.93039700       7.67549200      23.22251800      169        1     2166        1       10
H       31.55860000       8.37744400      21.63827100      169        1     2167        1       11
C        7.62634600       8.45821600       3.90470000      170        1     2168        1        0
H        6.84253700       9.08565300       4.32368800      170        1     2169        1        1
H        7.23879100       7.45195800       3.75694000      170        1     2170        1        2
H        8.44879900       8.39077400       4.61416200      170        1     2171        1        3
C        8.16625700       8.96561800       2.58875300      170        1     2172        1        4
O        9.06256000       8.36270200       2.00367100      170        1     2173        1        5
N        7.61644300      10.09810700       2.10934600      170        1     2174        1        6
H        6.87308500      10.52255400       2.63202500      170        1     2175        1        7
C        8.02287600      10.70918200       0.85241800      170        1     2176        1        8
H        9.10430200      10.80975400       0.81279000      170        1     2177        1        9
H        7.56969600      11.69372700       0.78372400      170        1     2178        1       10
H        7.70730200      10.11042100      32.87749264      170        1     2179        1       11
C       22.50587200      26.55341400      14.81073200      171        1     2180        1        0
H       21.97112000      27.49980500      14.76636800      171        1     2181        1        1
H       22.88817800      26.40512800      15.81891900      171        1     2182        1        2
H       23.36143900      26.59359500      14.13938600      171        1     2183        1        3
C       21.65608900      25.36235300      14.43667500      171        1     2184        1        4
O       22.13046200      24.22915200      14.43308400      171        1     2185        1        5
N       20.37373900      25.61646300      14.11161100      171        1     2186        1        6
H       20.05159900      26.56510900      14.15881100      171        1     2187        1        7
C       19.42767100      24.57630800      13.73544800      171        1     2188        1        8
H       19.85501500      23.93532700      12.96884000      171        1     2189        1        9
H       18.53032100      25.04869500      13.34681600      171        1     2190        1       10
H       19.16266500      23.95333200      14.58823800      171        1     2191        1       11
C       19.44281300      16.22733300       8.13829200      172        1     2192        1        0
H       20.13169800      16.92488400       8.60993200      172        1     2193        1        1
H       19.63885100      15.22358500       8.51064300      172        1     2194        1        2
H       19.62119200      16.21832800       7.06478700      172        1     2195        1        3
C       17.98938300      16.55726700       8.38193400      172        1     2196        1        4
O       17.09857800      15.86071600       7.90185800      172        1     2197        1        5
N       17.73751300      17.64182100       9.14019800      172        1     2198        1        6
H       18.51685900      18.14894500       9.51619500      172        1     2199        1        7
C       16.39135000      18.08592600       9.47047800      172        1     2200        1        8
H       15.78186300      18.14638100       8.57268100      172        1     2201        1        9
H       16.45355800      19.06935100       9.92701600      172        1     2202        1       10
H       15.90593100      17.40050900      10.16340700      172        1     2203        1       11
C       24.06608700      27.33781200       9.12536200      173        1     2204        1        0
H       23.15498800      26.96889000       9.59160000      173        1     2205        1        1
H       23.86671300      28.30337900       8.66436800      173        1     2206        1        2
H       24.36595900      26.65353900       8.33405800      173        1     2207        1        3
C       25.21757300      27.49211500      10.09021900      173        1     2208        1        4
O       26.31271600      27.89096500       9.70192800      173        1     2209        1        5
N       24.97345900      27.16893000      11.37498200      173        1     2210        1        6
H       24.04786700      26.87157200      11.62153600      173        1     2211        1        7
C       25.97669600      27.26962600      12.42467000      173        1     2212        1        8
H       26.89683000      26.77990000      12.11695400      173        1     2213        1        9
H       25.59406900      26.78301400      13.31698500      173        1     2214        1       10
H       26.20715200      28.30850700      12.65531300      173        1     2215        1       11
C       20.74181500      18.86969300      14.67930900      174        1     2216        1        0
H       20.03922600      18.68130800      15.48829900      174        1     2217        1        1
H       20.78225400      19.93928800      14.48203200      174        1     2218        1        2
H       20.38408900      18.38362400      13.77372500      174        1     2219        1        3
C       22.14045200      18.37897600      14.96859900      174        1     2220        1        4
O       23.03744500      18.51558200      14.14039000      174        1     2221        1        5
N       22.33677000      17.79227900      16.16522100      174        1     2222        1        6
H       21.56132000      17.73629200      16.79884000      174        1     2223        1        7
C       23.62737300      17.27416300      16.59460300      174        1     2224        1        8
H       24.05348900      16.63523300      15.82560400      174        1     2225        1        9
H       23.48322900      16.69433000      17.50148600      174        1     2226        1       10
H       24.33223900      18.07976400      16.79398100      174        1     2227        1       11
C        9.74087000      12.59247900      29.61270600      175        1     2228        1        0
H        8.74888100      12.54099700      30.05643100      175        1     2229        1        1
H       10.14498000      13.59307800      29.75442200      175        1     2230        1        2
H        9.66328100      12.42010500      28.54098700      175        1     2231        1        3
C       10.71330200      11.59265500      30.19184700      175        1     2232        1        4
O       11.86893300      11.52985600      29.77982200      175        1     2233        1        5
N       10.24230700      10.78981300      31.16563700      175        1     2234        1        6
H        9.29336200      10.91448700      31.46545400      175        1     2235        1        7
C       11.05628100       9.78098300      31.82758600      175        1     2236        1        8
H       11.56701000       9.16469100      31.09239400      175        1     2237        1        9
H       10.40686300       9.15339300      32.43075100      175        1     2238        1       10
H       11.80915300      10.23641300      32.46894900      175        1     2239        1       11
C       25.92975200      14.69699500      19.25802100      176        1     2240        1        0
H       25.30721700      15.17788300      18.50650000      176        1     2241        1        1
H       25.38676400      13.85809800      19.68930000      176        1     2242        1        2
H       26.13176400      15.40311700      20.06107500      176        1     2243        1        3
C       27.24681000      14.19297800      18.71765000      176        1     2244        1        4
O       28.05613800      13.63619600      19.45532900      176        1     2245        1        5
N       27.47381000      14.39101900      17.40467200      176        1     2246        1        6
H       26.75656100      14.83346200      16.86086400      176        1     2247        1        7
C       28.69074300      13.95786200      16.73391300      176        1     2248        1        8
H       29.56591300      14.28888600      17.28678500      176        1     2249        1        9
H       28.71108800      14.39268600      15.73895800      176        1     2250        1       10
H       28.73357400      12.87305800      16.65057000      176        1     2251        1       11
C        3.77143000       5.16598900      14.61036500      177        1     2252        1        0
H        3.11936000       4.32302700      14.82901000      177        1     2253        1        1
H        3.38008900       5.70800200      13.75149300      177        1     2254        1        2
H        4.75831000       4.79495500      14.34071000      177        1     2255        1        3
C        3.91821200       6.12998900      15.76355000      177        1     2256        1        4
O        4.63229700       7.12458100      15.66325200      177        1     2257        1        5
N        3.23351700       5.83474400      16.88546000      177        1     2258        1        6
H        2.65319700       5.01672300      16.88542000      177        1     2259        1        7
C        3.26593800       6.66707400      18.07904400      177        1     2260        1        8
H        4.29249500       6.89466000      18.35391700      177        1     2261        1        9
H        2.79009800       6.12582900      18.89147900      177        1     2262        1       10
H        2.74138400       7.60809900      17.92126700      177        1     2263        1       11
C       12.66420600       4.79870400      28.64243100      178        1     2264        1        0
H       12.04897100       5.10930700      27.80065000      178        1     2265        1        1
H       12.04207500       4.27725900      29.36743800      178        1     2266        1        2
H       13.06993700       5.68063100      29.13426500      178        1     2267        1        3
C       13.80986600       3.89577400      28.25145900      178        1     2268        1        4
O       14.59396000       3.47423300      29.09803400      178        1     2269        1        5
N       13.91652300       3.59106500      26.94362300      178        1     2270        1        6
H       13.22562800       3.95476900      26.31408900      178        1     2271        1        7
C       14.96108000       2.72890900      26.41065400      178        1     2272        1        8
H       15.93584400       3.04990300      26.76837800      178        1     2273        1        9
H       14.94048600       2.78979900      25.32654700      178        1     2274        1       10
H       14.81390500       1.69331800      26.71309400      178        1     2275        1       11
C       10.22684300      20.33044200       0.92581300      179        1     2276        1        0
H       11.24347000      20.68567100       1.08030200      179        1     2277        1        1
H        9.84314000      20.73801200      32.87040664      179        1     2278        1        2
H        9.59234500      20.69991900       1.72906500      179        1     2279        1        3
C       10.11468700      18.82519600       0.87751900      179        1     2280        1        4
O        9.02453600      18.28178700       0.71793400      179        1     2281        1        5
N       11.26062100      18.13157500       1.02028300      179        1     2282        1        6
H       12.11586500      18.64500700       1.12456900      179        1     2283        1        7
C       11.31905300      16.67757000       0.98992300      179        1     2284        1        8
H       10.57662500      16.25489500       1.66172300      179        1     2285        1        9
H       12.30884800      16.36421000       1.30856300      179        1     2286        1       10
H       11.12762500      16.29330500      32.86728364      179        1     2287        1       11
C       19.94841000      20.48771100      17.41671700      180        1     2288        1        0
H       20.55740400      21.24011400      16.92012700      180        1     2289        1        1
H       19.75911500      20.79995700      18.44202500      180        1     2290        1        2
H       20.49961400      19.55023600      17.45704600      180        1     2291        1        3
C       18.62376300      20.23828300      16.73570700      180        1     2292        1        4
O       17.83591900      19.40726600      17.18056900      180        1     2293        1        5
N       18.36799500      20.96705100      15.63201500      180        1     2294        1        6
H       19.04990800      21.64262000      15.34127100      180        1     2295        1        7
C       17.13462600      20.84763500      14.86846500      180        1     2296        1        8
H       16.92675400      19.80432800      14.64605400      180        1     2297        1        9
H       17.24930100      21.39541400      13.93776200      180        1     2298        1       10
H       16.28634800      21.25179700      15.41860700      180        1     2299        1       11
C       10.35814600       3.31487200       3.66785200      181        1     2300        1        0
H       11.08852100       2.57401800       3.34961900      181        1     2301        1        1
H        9.57576400       3.39258700       2.91523900      181        1     2302        1        2
H       10.84163300       4.28728700       3.73829000      181        1     2303        1        3
C        9.71814300       2.99805200       4.99852800      181        1     2304        1        4
O        8.88061900       3.75206900       5.48761000      181        1     2305        1        5
N       10.11747100       1.86237900       5.60304700      181        1     2306        1        6
H       10.78944700       1.28555600       5.13224700      181        1     2307        1        7
C        9.59054700       1.41589600       6.88424600      181        1     2308        1        8
H        9.62898200       2.22289400       7.61118700      181        1     2309        1        9
H       10.19676500       0.58716600       7.23798000      181        1     2310        1       10
H        8.55564100       1.08919500       6.79584000      181        1     2311        1       11
C       32.24798900      12.89033200      28.77899800      182        1     2312        1        0
H       32.74930400      12.83124300      27.81526700      182        1     2313        1        1
H       32.85725400      12.39192700      29.53064600      182        1     2314        1        2
H       31.29959500      12.35959700      28.72257400      182        1     2315        1        3
C       31.98133500      14.30531100      29.23441800      182        1     2316        1        4
O       31.41258800      14.52478300      30.30097700      182        1     2317        1        5
N       32.39524100      15.28975600      28.41331500      182        1     2318        1        6
H       32.87249200      15.03387200      27.56910800      182        1     2319        1        7
C       32.21784700      16.70285400      28.71356900      182        1     2320        1        8
H       31.18788200      16.90315200      28.99680200      182        1     2321        1        9
H       32.46279600      17.27871000      27.82598200      182        1     2322        1       10
H       32.86157700      17.01851400      29.53305000      182        1     2323        1       11
C       32.18722700      25.99252200      24.48987200      183        1     2324        1        0
H       32.70695800      25.38468500      25.22743500      183        1     2325        1        1
H       32.76922200      26.89065900      24.29183800      183        1     2326        1        2
H       31.22834000      26.30755600      24.89681600      183        1     2327        1        3
C       31.94354800      25.27716300      23.18237100      183        1     2328        1        4
O       31.35794400      25.83815600      22.25957900      183        1     2329        1        5
N       32.39677200      24.01158900      23.09537000      183        1     2330        1        6
H        0.00747936      23.62772300      23.88260800      183        1     2331        1        7
C       32.24548900      23.19311600      21.90135100      183        1     2332        1        8
H       31.21470800      23.21242400      21.55742400      183        1     2333        1        9
H       32.52189100      22.17145600      22.14473000      183        1     2334        1       10
H        0.00111036      23.55130300      21.09153200      183        1     2335        1       11
C        8.36737500       8.64832100      10.95087000      184        1     2336        1        0
H        8.34645500       8.07902100      11.87771600      184        1     2337        1        1
H        7.66774700       8.20680900      10.24364100      184        1     2338        1        2
H        9.36108300       8.58209100      10.51215400      184        1     2339        1        3
C        8.01673600      10.10622200      11.13046600      184        1     2340        1        4
O        8.00906700      10.87283600      10.17055300      184        1     2341        1        5
N        7.72216000      10.50430800      12.38322700      184        1     2342        1        6
H        7.72763200       9.81636500      13.11304500      184        1     2343        1        7
C        7.35861500      11.87340100      12.71772400      184        1     2344        1        8
H        8.07938600      12.56979700      12.29737900      184        1     2345        1        9
H        7.35180800      11.97540900      13.79891300      184        1     2346        1       10
H        6.37437800      12.12923300      12.32861500      184        1     2347        1       11
C       20.06546400      28.77712000       9.26087300      185        1     2348        1        0
H       20.44437400      29.36180600      10.09642900      185        1     2349        1        1
H       19.07229800      28.40509400       9.50542400      185        1     2350        1        2
H       20.70928200      27.91333900       9.10694600      185        1     2351        1        3
C       19.98518000      29.55399900       7.96832100      185        1     2352        1        4
O       19.58390200      29.01856600       6.93804100      185        1     2353        1        5
N       20.37571800      30.84237700       8.01544300      185        1     2354        1        6
H       20.67061800      31.21653300       8.89803700      185        1     2355        1        7
C       20.35118000      31.72357100       6.85727100      185        1     2356        1        8
H       20.83848700      31.24850000       6.00991800      185        1     2357        1        9
H       20.88048900      32.63836300       7.10709100      185        1     2358        1       10
H       19.33095400      31.96918400       6.56677000      185        1     2359        1       11
C       28.90213600       9.77415300      20.47840000      186        1     2360        1        0
H       29.03003000      10.84663800      20.34799200      186        1     2361        1        1
H       28.37205400       9.58752200      21.41047700      186        1     2362        1        2
H       29.88026100       9.30393100      20.55888200      186        1     2363        1        3
C       28.14289000       9.11578100      19.35111600      186        1     2364        1        4
O       27.93130700       7.90567700      19.35945700      186        1     2365        1        5
N       27.72412100       9.92183600      18.35634700      186        1     2366        1        6
H       27.91494700      10.90375600      18.42948500      186        1     2367        1        7
C       26.97541300       9.44050700      17.20472800      186        1     2368        1        8
H       27.47200000       8.58059100      16.76301100      186        1     2369        1        9
H       26.92052900      10.23802100      16.46962200      186        1     2370        1       10
H       25.96619100       9.14192000      17.48382600      186        1     2371        1       11
C       10.48363600      10.23106700       4.92056600      187        1     2372        1        0
H       10.61234600       9.42139500       4.20540900      187        1     2373        1        1
H       11.32254600      10.23302300       5.61397300      187        1     2374        1        2
H        9.58006900      10.05585400       5.50123900      187        1     2375        1        3
C       10.38575000      11.59397500       4.27746800      187        1     2376        1        4
O       10.22923900      12.60156400       4.96263800      187        1     2377        1        5
N       10.47616200      11.63323700       2.93398700      187        1     2378        1        6
H       10.62591700      10.77137100       2.44338600      187        1     2379        1        7
C       10.40694200      12.86902300       2.16814600      187        1     2380        1        8
H        9.54225600      13.45378800       2.47069600      187        1     2381        1        9
H       10.31852800      12.61907700       1.11499400      187        1     2382        1       10
H       11.29665000      13.47879500       2.31706200      187        1     2383        1       11
C       26.13749600       2.08441500       3.06698900      188        1     2384        1        0
H       25.87550700       1.97119600       4.11681200      188        1     2385        1        1
H       25.43855300       2.77292500       2.59580000      188        1     2386        1        2
H       26.03660000       1.12312800       2.56692800      188        1     2387        1        3
C       27.54127700       2.59615600       2.84745100      188        1     2388        1        4
O       27.97771600       2.76396300       1.71142700      188        1     2389        1        5
N       28.26932400       2.84863800       3.95237500      188        1     2390        1        6
H       27.83778600       2.70864300       4.84686200      188        1     2391        1        7
C       29.63443600       3.35154400       3.90740600      188        1     2392        1        8
H       30.23651700       2.75186400       3.22987300      188        1     2393        1        9
H       30.05716900       3.29511800       4.90617200      188        1     2394        1       10
H       29.66599100       4.38433900       3.56401500      188        1     2395        1       11
C        8.22647100       6.24928800      20.19384700      189        1     2396        1        0
H        8.80394200       6.76776600      19.43142100      189        1     2397        1        1
H        7.75309900       6.98214900      20.84455400      189        1     2398        1        2
H        8.89813900       5.65253800      20.80790300      189        1     2399        1        3
C        7.15803200       5.34352500      19.62930500      189        1     2400        1        4
O        6.43418100       4.68688200      20.37365100      189        1     2401        1        5
N        7.05348800       5.30030200      18.28697100      189        1     2402        1        6
H        7.66497400       5.88166900      17.74472900      189        1     2403        1        7
C        6.07069300       4.48211400      17.59188100      189        1     2404        1        8
H        6.09407100       3.46229800      17.96684300      189        1     2405        1        9
H        6.30996900       4.47890800      16.53256200      189        1     2406        1       10
H        5.06260300       4.87003300      17.72918500      189        1     2407        1       11
C       23.59431300       7.70046100      17.68855300      190        1     2408        1        0
H       23.60893700       7.22282000      18.66591100      190        1     2409        1        1
H       22.64510500       7.48782800      17.20031500      190        1     2410        1        2
H       24.38239300       7.27517500      17.07018700      190        1     2411        1        3
C       23.78281500       9.19773700      17.74606900      190        1     2412        1        4
O       23.79760400       9.86851600      16.71697900      190        1     2413        1        5
N       23.93323800       9.73863000      18.97059600      190        1     2414        1        6
H       23.88790900       9.13016600      19.76661500      190        1     2415        1        7
C       24.11758400      11.16524300      19.19254200      190        1     2416        1        8
H       24.90444900      11.54976900      18.54899700      190        1     2417        1        9
H       24.39687500      11.32081800      20.23043100      190        1     2418        1       10
H       23.20555900      11.72111800      18.98089700      190        1     2419        1       11
C       16.72938900       1.36449600      18.77712100      191        1     2420        1        0
H       16.16049700       2.24658900      19.06323000      191        1     2421        1        1
H       16.08329100       0.49005200      18.82702600      191        1     2422        1        2
H       17.53878300       1.21386500      19.48881300      191        1     2423        1        3
C       17.31861200       1.45074900      17.38929800      191        1     2424        1        4
O       17.99416700       0.53030500      16.93586900      191        1     2425        1        5
N       17.06417700       2.57772200      16.69658300      191        1     2426        1        6
H       16.48579700       3.27675500      17.12408600      191        1     2427        1        7
C       17.55507500       2.80886400      15.34600600      191        1     2428        1        8
H       18.62140900       2.60617600      15.29108000      191        1     2429        1        9
H       17.37490500       3.84760300      15.08527500      191        1     2430        1       10
H       17.05113400       2.16706300      14.62509300      191        1     2431        1       11
C        3.75350600      14.49796200      13.62722600      192        1     2432        1        0
H        3.81292500      14.97817600      12.65282900      192        1     2433        1        1
H        3.47804100      15.23893100      14.37533800      192        1     2434        1        2
H        4.73440100      14.11094200      13.89625100      192        1     2435        1        3
C        2.75738300      13.36416000      13.68114100      192        1     2436        1        4
O        2.59064600      12.72379800      14.71618900      192        1     2437        1        5
N        2.08028300      13.10364500      12.54609700      192        1     2438        1        6
H        2.25400800      13.68367500      11.74652500      192        1     2439        1        7
C        1.08303300      12.04886000      12.43938000      192        1     2440        1        8
H        1.47933000      11.11302800      12.82452200      192        1     2441        1        9
H        0.82310600      11.92290600      11.39248200      192        1     2442        1       10
H        0.18445800      12.29343800      13.00358200      192        1     2443        1       11
C       15.00559000      19.56344600      23.42635600      193        1     2444        1        0
H       15.88144700      20.03488400      22.98566900      193        1     2445        1        1
H       14.26149100      19.39422500      22.65029800      193        1     2446        1        2
H       14.56627500      20.23775500      24.15890200      193        1     2447        1        3
C       15.30540000      18.24699700      24.10293100      193        1     2448        1        4
O       14.41301200      17.60625500      24.65273300      193        1     2449        1        5
N       16.58607300      17.83065700      24.06834700      193        1     2450        1        6
H       17.25575300      18.39669500      23.58145900      193        1     2451        1        7
C       17.03276000      16.58206000      24.66830000      193        1     2452        1        8
H       16.67466000      16.50446300      25.69148700      193        1     2453        1        9
H       18.11866400      16.56674800      24.66764900      193        1     2454        1       10
H       16.66306500      15.72071700      24.11423200      193        1     2455        1       11
C       18.91072900      15.32369900      11.26303800      194        1     2456        1        0
H       19.62342100      16.08071900      11.58331100      194        1     2457        1        1
H       18.45946000      15.63219800      10.32188400      194        1     2458        1        2
H       18.11266500      15.24883200      11.99911000      194        1     2459        1        3
C       19.52512600      13.95653100      11.07853100      194        1     2460        1        4
O       18.83690700      13.00119800      10.72798100      194        1     2461        1        5
N       20.84630100      13.85301200      11.32027000      194        1     2462        1        6
H       21.34693400      14.68184700      11.58166800      194        1     2463        1        7
C       21.58489200      12.60660100      11.18094200      194        1     2464        1        8
H       21.07603100      11.80418400      11.70853600      194        1     2465        1        9
H       22.57522800      12.74178300      11.60565300      194        1     2466        1       10
H       21.68098500      12.31670700      10.13580700      194        1     2467        1       11
C       12.00375700      21.89364000       3.44693600      195        1     2468        1        0
H       11.03646400      21.81865700       2.95469100      195        1     2469        1        1
H       11.89249300      22.45801900       4.37088600      195        1     2470        1        2
H       12.68939000      22.44586400       2.80719400      195        1     2471        1        3
C       12.62109700      20.55401700       3.77094000      195        1     2472        1        4
O       13.71803800      20.48461900       4.31966100      195        1     2473        1        5
N       11.90920800      19.46398700       3.42495500      195        1     2474        1        6
H       11.01090700      19.59950400       2.99996100      195        1     2475        1        7
C       12.36461700      18.10442500       3.67528000      195        1     2476        1        8
H       13.38360000      17.97523000       3.32010100      195        1     2477        1        9
H       11.71160200      17.41750900       3.14505700      195        1     2478        1       10
H       12.34424800      17.86819600       4.73799300      195        1     2479        1       11
C        7.74668500      11.19131400      19.91792800      196        1     2480        1        0
H        7.30409000      12.01632600      19.36380600      196        1     2481        1        1
H        7.26441600      11.11373500      20.89054500      196        1     2482        1        2
H        8.80041900      11.40075900      20.09139700      196        1     2483        1        3
C        7.63006400       9.86043300      19.21377500      196        1     2484        1        4
O        8.09397500       8.84075000      19.71797900      196        1     2485        1        5
N        7.00125600       9.86310400      18.02245100      196        1     2486        1        6
H        6.62889700      10.73098200      17.68471500      196        1     2487        1        7
C        6.80316600       8.66160700      17.22518600      196        1     2488        1        8
H        7.73944600       8.12039300      17.11732500      196        1     2489        1        9
H        6.44391400       8.95344600      16.24274500      196        1     2490        1       10
H        6.07763400       7.99381400      17.68695900      196        1     2491        1       11
C       15.46243200       9.17503400      28.26583800      197        1     2492        1        0
H       16.45023400       8.71974100      28.28907500      197        1     2493        1        1
H       14.92068600       8.81071800      27.39499300      197        1     2494        1        2
H       15.56723800      10.25287500      28.15819400      197        1     2495        1        3
C       14.63883900       8.89239100      29.49972900      197        1     2496        1        4
O       13.50505200       9.35081000      29.61621400      197        1     2497        1        5
N       15.21507400       8.12479900      30.44493500      197        1     2498        1        6
H       16.13589800       7.76801500      30.26966900      197        1     2499        1        7
C       14.54934100       7.75805300      31.68621000      197        1     2500        1        8
H       14.13320900       8.63936000      32.16714700      197        1     2501        1        9
H       15.27875200       7.30061000      32.34812100      197        1     2502        1       10
H       13.73754400       7.05449500      31.50852900      197        1     2503        1       11
C       10.99306200      29.55249700      16.98635300      198        1     2504        1        0
H       10.12179500      29.21256800      16.43054000      198        1     2505        1        1
H       11.14046500      28.90749500      17.85054600      198        1     2506        1        2
H       10.81095600      30.55927600      17.35722500      198        1     2507        1        3
C       12.26323900      29.56289200      16.16951800      198        1     2508        1        4
O       13.32492800      29.93283000      16.66464800      198        1     2509        1        5
N       12.15957600      29.15238400      14.89069300      198        1     2510        1        6
H       11.26337500      28.84365700      14.56291000      198        1     2511        1        7
C       13.29247900      29.09868500      13.97848900      198        1     2512        1        8
H       13.83521000      30.04016900      13.99330100      198        1     2513        1        9
H       12.92024900      28.91657700      12.97464600      198        1     2514        1       10
H       13.98526200      28.30447500      14.25209900      198        1     2515        1       11
C       18.95879300      16.27542200      31.94291500      199        1     2516        1        0
H       20.00988400      16.47935600      32.13579900      199        1     2517        1        1
H       18.40828500      16.31563300       0.00295136      199        1     2518        1        2
H       18.85637300      15.26698900      31.54682500      199        1     2519        1        3
C       18.32565900      17.24132500      30.96985400      199        1     2520        1        4
O       17.14494200      17.12700100      30.65043700      199        1     2521        1        5
N       19.12136900      18.21316600      30.48299900      199        1     2522        1        6
H       20.06954000      18.25650800      30.80707300      199        1     2523        1        7
C       18.65861600      19.22317800      29.54267900      199        1     2524        1        8
H       18.13997100      18.75557100      28.70990100      199        1     2525        1        9
H       19.52031800      19.76700100      29.16698200      199        1     2526        1       10
H       17.97347400      19.92361100      30.01760300      199        1     2527        1       11
C       22.05487500       1.22802900      17.65749500      200        1     2528        1        0
H       22.79479200       1.94728600      17.31285300      200        1     2529        1        1
H       22.09179100       0.34449100      17.02300000      200        1     2530        1        2
H       21.06127200       1.66063500      17.55790200      200        1     2531        1        3
C       22.25203700       0.80044600      19.09240800      200        1     2532        1        4
O       21.48499800      32.87654464      19.61947200      200        1     2533        1        5
N       23.29792000       1.34459100      19.74409300      200        1     2534        1        6
H       23.89387500       1.97536800      19.24121300      200        1     2535        1        7
C       23.62452300       1.02918500      21.12695800      200        1     2536        1        8
H       22.74262300       1.12354800      21.75506500      200        1     2537        1        9
H       24.38409300       1.72515700      21.47061000      200        1     2538        1       10
H       24.00167700       0.01235600      21.22387500      200        1     2539        1       11
C       25.51478100      25.47333800      27.04958800      201        1     2540        1        0
H       25.78479100      26.11836800      26.21615200      201        1     2541        1        1
H       25.48484300      26.06322100      27.96377000      201        1     2542        1        2
H       26.28215100      24.71222600      27.17672800      201        1     2543        1        3
C       24.18091700      24.78733300      26.87385800      201        1     2544        1        4
O       23.75125300      24.02098500      27.73251300      201        1     2545        1        5
N       23.50839100      25.06109000      25.73921000      201        1     2546        1        6
H       23.91243800      25.71440700      25.09434400      201        1     2547        1        7
C       22.20878300      24.48515100      25.42651400      201        1     2548        1        8
H       22.23066000      23.40682100      25.56027800      201        1     2549        1        9
H       21.96954200      24.71207200      24.39177200      201        1     2550        1       10
H       21.42968500      24.89019200      26.07035400      201        1     2551        1       11
C       28.75005100      11.84825000      29.79972500      202        1     2552        1        0
H       29.22104700      11.64670300      28.83997200      202        1     2553        1        1
H       27.89277500      12.50136000      29.64770300      202        1     2554        1        2
H       29.45374800      12.37636500      30.44020700      202        1     2555        1        3
C       28.28687400      10.60296100      30.51763800      202        1     2556        1        4
O       27.74518500      10.67742800      31.61773600      202        1     2557        1        5
N       28.50335900       9.43088600      29.88991700      202        1     2558        1        6
H       28.93140900       9.45057800      28.98310000      202        1     2559        1        7
C       28.10954400       8.14550200      30.44773900      202        1     2560        1        8
H       28.45882000       8.05488100      31.47290300      202        1     2561        1        9
H       28.55413700       7.35697500      29.84775300      202        1     2562        1       10
H       27.02712600       8.02738700      30.44741600      202        1     2563        1       11
C       30.30105900      25.88345500       4.23453600      203        1     2564        1        0
H       31.00463600      25.69603000       3.42618100      203        1     2565        1        1
H       29.28889500      25.70353500       3.87713100      203        1     2566        1        2
H       30.36293700      26.92959200       4.52793300      203        1     2567        1        3
C       30.54170300      25.02640100       5.45446500      203        1     2568        1        4
O       29.82928700      25.13628500       6.44924000      203        1     2569        1        5
N       31.56655800      24.15491400       5.38488300      203        1     2570        1        6
H       32.09039700      24.10610100       4.53098600      203        1     2571        1        7
C       31.92153600      23.25633700       6.47346800      203        1     2572        1        8
H       32.00228500      23.80651300       7.40725300      203        1     2573        1        9
H        0.00097136      22.79738600       6.24520500      203        1     2574        1       10
H       31.17348600      22.47600300       6.60415800      203        1     2575        1       11
C        1.43777600      30.18706500      12.29041200      204        1     2576        1        0
H        2.11558600      30.07000800      11.44752600      204        1     2577        1        1
H        0.46787400      29.76689800      12.03091800      204        1     2578        1        2
H        1.29226600      31.24720300      12.48851900      204        1     2579        1        3
C        1.92828000      29.52392200      13.55545100      204        1     2580        1        4
O        1.26954000      29.58219800      14.59075500      204        1     2581        1        5
N        3.10955100      28.88098900      13.47867600      204        1     2582        1        6
H        3.57978100      28.85710500      12.59310000      204        1     2583        1        7
C        3.71256600      28.18805500      14.60769500      204        1     2584        1        8
H        3.72959800      28.83300900      15.48228800      204        1     2585        1        9
H        4.73053400      27.91691200      14.34379600      204        1     2586        1       10
H        3.15755300      27.28668600      14.86279100      204        1     2587        1       11
C       17.06107900      30.79771900      16.24146500      205        1     2588        1        0
H       16.00685300      31.06619600      16.23087100      205        1     2589        1        1
H       17.48915900      31.06591300      17.20552200      205        1     2590        1        2
H       17.58476100      31.37247000      15.48006300      205        1     2591        1        3
C       17.31205300      29.32930900      15.99355700      205        1     2592        1        4
O       18.45658800      28.88369200      15.96797000      205        1     2593        1        5
N       16.22495800      28.55677300      15.80362800      205        1     2594        1        6
H       15.32109900      28.98770400      15.86079300      205        1     2595        1        7
C       16.30050700      27.12377400      15.56016800      205        1     2596        1        8
H       17.01433400      26.91152700      14.76860600      205        1     2597        1        9
H       15.31822400      26.77152500      15.25940100      205        1     2598        1       10
H       16.61515300      26.58542100      16.45277800      205        1     2599        1       11
C        4.43515100      10.02532500      13.93976300      206        1     2600        1        0
H        4.72996500      10.45305900      14.89564600      206        1     2601        1        1
H        5.22202400       9.36144300      13.58666700      206        1     2602        1        2
H        4.32815000      10.82357500      13.20787500      206        1     2603        1        3
C        3.14036700       9.25030800      13.99942800      206        1     2604        1        4
O        2.67968200       8.71927100      12.99197700      206        1     2605        1        5
N        2.53465000       9.18230600      15.20073600      206        1     2606        1        6
H        2.98216100       9.62235600      15.98305300      206        1     2607        1        7
C        1.28593500       8.46811400      15.42234400      206        1     2608        1        8
H        0.54627000       8.76031300      14.68161300      206        1     2609        1        9
H        0.91662200       8.71586800      16.41312500      206        1     2610        1       10
H        1.42701500       7.39068900      15.35283800      206        1     2611        1       11
C       11.17712100      11.70105000      25.98237800      207        1     2612        1        0
H       11.42273100      12.36370300      25.15524300      207        1     2613        1        1
H       11.39159300      12.20665600      26.92203200      207        1     2614        1        2
H       11.81120500      10.81790900      25.93429200      207        1     2615        1        3
C        9.73364300      11.25724500      25.99152800      207        1     2616        1        4
O        9.31561200      10.49892300      26.86295700      207        1     2617        1        5
N        8.95156600      11.73317000      25.00334400      207        1     2618        1        6
H        9.35813500      12.36600500      24.33990400      207        1     2619        1        7
C        7.53931400      11.40389100      24.87849300      207        1     2620        1        8
H        7.39432300      10.32870200      24.94262300      207        1     2621        1        9
H        7.18599500      11.75516300      23.91350900      207        1     2622        1       10
H        6.95127900      11.87214900      25.66623000      207        1     2623        1       11
C       14.82541800      23.80583200      11.64231100      208        1     2624        1        0
H       14.04780000      23.04568000      11.60969000      208        1     2625        1        1
H       14.43438400      24.73578200      11.23381200      208        1     2626        1        2
H       15.65626000      23.49563400      11.01160300      208        1     2627        1        3
C       15.35026900      24.07247400      13.03303400      208        1     2628        1        4
O       16.23841000      24.90021300      13.22076900      208        1     2629        1        5
N       14.79664800      23.35848800      14.03222600      208        1     2630        1        6
H       14.06038100      22.71649700      13.80487100      208        1     2631        1        7
C       15.18892100      23.50488100      15.42619800      208        1     2632        1        8
H       16.26996000      23.44875900      15.52300500      208        1     2633        1        9
H       14.73663100      22.70089500      15.99931300      208        1     2634        1       10
H       14.86204800      24.46078400      15.83237800      208        1     2635        1       11
C       18.39200800      10.78239900      22.09422000      209        1     2636        1        0
H       18.70325000      11.42796200      22.91273200      209        1     2637        1        1
H       19.27124300      10.45341500      21.54349200      209        1     2638        1        2
H       17.76935700      11.35110500      21.40633000      209        1     2639        1        3
C       17.62174000       9.56450400      22.54598800      209        1     2640        1        4
O       17.19862200       8.75063900      21.72880700      209        1     2641        1        5
N       17.42996900       9.43185700      23.87274600      209        1     2642        1        6
H       17.82425700      10.12541800      24.48056300      209        1     2643        1        7
C       16.71411200       8.31125900      24.46458700      209        1     2644        1        8
H       15.76060900       8.16453300      23.96411500      209        1     2645        1        9
H       16.53721700       8.52881900      25.51377500      209        1     2646        1       10
H       17.28488000       7.38763300      24.38262400      209        1     2647        1       11
C       30.54582000      25.01734900      17.61171100      210        1     2648        1        0
H       30.18668800      24.90560000      18.63255400      210        1     2649        1        1
H       30.24136300      24.15053500      17.02816500      210        1     2650        1        2
H       31.63377200      25.04302700      17.61551400      210        1     2651        1        3
C       30.03736800      26.26336800      16.92644300      210        1     2652        1        4
O       30.36864200      26.52481000      15.77271200      210        1     2653        1        5
N       29.21772600      27.05392100      17.64607600      210        1     2654        1        6
H       28.97390500      26.76386700      18.57470400      210        1     2655        1        7
C       28.64022500      28.28423600      17.12522600      210        1     2656        1        8
H       29.41254800      28.90605300      16.68022200      210        1     2657        1        9
H       28.17621600      28.82333700      17.94588900      210        1     2658        1       10
H       27.89008400      28.07921300      16.36310200      210        1     2659        1       11
C       22.63438200      24.58124700       7.63040800      211        1     2660        1        0
H       21.86680700      25.34848300       7.55450400      211        1     2661        1        1
H       23.55853500      24.95491200       7.19348600      211        1     2662        1        2
H       22.32880200      23.71052700       7.05353600      211        1     2663        1        3
C       22.91299400      24.14507500       9.04914200      211        1     2664        1        4
O       23.74997700      23.27765000       9.28625500      211        1     2665        1        5
N       22.19892100      24.75241700      10.01655800      211        1     2666        1        6
H       21.54890000      25.46751400       9.74815600      211        1     2667        1        7
C       22.35606200      24.44767900      11.43109300      211        1     2668        1        8
H       22.31058400      23.37414300      11.59425000      211        1     2669        1        9
H       21.55078300      24.92694800      11.97995300      211        1     2670        1       10
H       23.31090300      24.80748400      11.81109000      211        1     2671        1       11
C       19.78330800      12.78592600       6.29821300      212        1     2672        1        0
H       20.76856800      12.34931800       6.14914700      212        1     2673        1        1
H       19.57761900      12.84962300       7.36508700      212        1     2674        1        2
H       19.03185500      12.13273900       5.85891800      212        1     2675        1        3
C       19.63615200      14.16265900       5.69519700      212        1     2676        1        4
O       18.57373900      14.77390000       5.77797400      212        1     2677        1        5
N       20.71941100      14.66549000       5.07200400      212        1     2678        1        6
H       21.55908200      14.11702100       5.06394900      212        1     2679        1        7
C       20.73870000      15.97997600       4.44732700      212        1     2680        1        8
H       19.87981900      16.10033100       3.79234100      212        1     2681        1        9
H       21.64942100      16.07215400       3.86293800      212        1     2682        1       10
H       20.71021200      16.77390400       5.19193800      212        1     2683        1       11
C       23.91382000      22.50032100       4.13078300      213        1     2684        1        0
H       24.39726300      23.05370900       3.32851800      213        1     2685        1        1
H       24.25068500      22.89135600       5.08901000      213        1     2686        1        2
H       24.21684400      21.45637900       4.07904900      213        1     2687        1        3
C       22.40575700      22.56655000       4.08563400      213        1     2688        1        4
O       21.72631300      21.98028500       4.92458400      213        1     2689        1        5
N       21.86494700      23.29118300       3.08709100      213        1     2690        1        6
H       22.48396300      23.76016800       2.45242400      213        1     2691        1        7
C       20.42954400      23.45669400       2.91189900      213        1     2692        1        8
H       19.93061200      22.49171200       2.94420400      213        1     2693        1        9
H       20.24983500      23.91971100       1.94611400      213        1     2694        1       10
H       20.00386500      24.08398400       3.69348900      213        1     2695        1       11
C       11.86180200      15.68953800       6.32997800      214        1     2696        1        0
H       11.05388300      16.39631800       6.15302100      214        1     2697        1        1
H       12.65225600      15.85959300       5.60138300      214        1     2698        1        2
H       11.49143700      14.67727100       6.18012100      214        1     2699        1        3
C       12.45405000      15.78511000       7.71590200      214        1     2700        1        4
O       13.36893800      15.04106000       8.06022800      214        1     2701        1        5
N       11.92491400      16.71584300       8.53346500      214        1     2702        1        6
H       11.19451300      17.30211600       8.17467700      214        1     2703        1        7
C       12.39038000      16.93541500       9.89493300      214        1     2704        1        8
H       12.43963500      15.99333400      10.43458600      214        1     2705        1        9
H       11.69198000      17.59859200      10.39678400      214        1     2706        1       10
H       13.38199800      17.38497700       9.90789100      214        1     2707        1       11
C       15.09371800      27.62157000       1.37004500      215        1     2708        1        0
H       15.51647300      28.30134600       2.10677300      215        1     2709        1        1
H       14.73508800      28.19545700       0.51762200      215        1     2710        1        2
H       14.23638900      27.11089900       1.80422900      215        1     2711        1        3
C       16.07265000      26.58337000       0.87556700      215        1     2712        1        4
O       15.73105500      25.74257000       0.04758400      215        1     2713        1        5
N       17.31613600      26.63513400       1.39105000      215        1     2714        1        6
H       17.52780000      27.36418200       2.04650300      215        1     2715        1        7
C       18.37344200      25.70968300       1.01143200      215        1     2716        1        8
H       18.01906900      24.68414900       1.07361700      215        1     2717        1        9
H       19.20921800      25.84084300       1.69238400      215        1     2718        1       10
H       18.71153900      25.88958300      32.87016264      215        1     2719        1       11
C       22.07422700       5.86349300      32.26390100      216        1     2720        1        0
H       21.18640200       6.25097700      32.75908600      216        1     2721        1        1
H       22.94751900       6.07381400       0.00048536      216        1     2722        1        2
H       22.20978100       6.38009000      31.31571000      216        1     2723        1        3
C       22.01703200       4.37786700      31.99872300      216        1     2724        1        4
O       22.94669600       3.80433800      31.43660200      216        1     2725        1        5
N       20.90487700       3.73629600      32.40634500      216        1     2726        1        6
H       20.19710600       4.26744700       0.00043536      216        1     2727        1        7
C       20.70205800       2.30590000      32.22943100      216        1     2728        1        8
H       20.90570900       2.01914600      31.20109900      216        1     2729        1        9
H       19.66904300       2.07065400      32.46809400      216        1     2730        1       10
H       21.35891200       1.72851200       0.00008136      216        1     2731        1       11
C       23.95542200      18.40698900      22.03179000      217        1     2732        1        0
H       23.96054900      17.70015400      22.85879900      217        1     2733        1        1
H       23.03815000      18.28179100      21.45949400      217        1     2734        1        2
H       24.78819000      18.18637800      21.36685200      217        1     2735        1        3
C       24.05812100      19.84860200      22.46983300      217        1     2736        1        4
O       24.07350800      20.75648900      21.64237200      217        1     2737        1        5
N       24.13299200      20.07048000      23.79641600      217        1     2738        1        6
H       24.09225800      19.28006500      24.41246500      217        1     2739        1        7
C       24.22941200      21.40225400      24.37568100      217        1     2740        1        8
H       25.01686300      21.97089700      23.88810100      217        1     2741        1        9
H       24.46117300      21.30424400      25.43213800      217        1     2742        1       10
H       23.29630900      21.95223300      24.26422800      217        1     2743        1       11
C       16.62722800      24.09211800      24.08883600      218        1     2744        1        0
H       16.78397900      24.95672000      23.44737100      218        1     2745        1        1
H       15.58713900      24.06735400      24.40850400      218        1     2746        1        2
H       17.24125900      24.19249300      24.98169900      218        1     2747        1        3
C       16.95867500      22.77830800      23.42196000      218        1     2748        1        4
O       16.83840800      21.71773300      24.03015800      218        1     2749        1        5
N       17.38787000      22.84229100      22.14667300      218        1     2750        1        6
H       17.43961800      23.74292000      21.70835700      218        1     2751        1        7
C       17.74010500      21.66529800      21.36623400      218        1     2752        1        8
H       18.42184700      21.03029100      21.92584100      218        1     2753        1        9
H       18.22470600      21.98976400      20.45009900      218        1     2754        1       10
H       16.85890900      21.07704000      21.11518600      218        1     2755        1       11
C       25.33985500      28.70456600      20.21688600      219        1     2756        1        0
H       26.01492700      29.47963200      19.86032700      219        1     2757        1        1
H       24.61035100      28.48042600      19.44088800      219        1     2758        1        2
H       24.79342900      29.07558600      21.08180000      219        1     2759        1        3
C       26.04174600      27.42459500      20.60379500      219        1     2760        1        4
O       25.40592100      26.46510100      21.03308000      219        1     2761        1        5
N       27.38033500      27.40349700      20.45415300      219        1     2762        1        6
H       27.82819300      28.21764100      20.07663100      219        1     2763        1        7
C       28.19827800      26.24347900      20.77632500      219        1     2764        1        8
H       27.95873400      25.87591400      21.77065000      219        1     2765        1        9
H       29.24325300      26.53766200      20.74626300      219        1     2766        1       10
H       28.03479700      25.43318000      20.06761600      219        1     2767        1       11
C       31.80088600      14.43713700      12.90229100      220        1     2768        1        0
H       31.58065100      13.75184300      12.08653800      220        1     2769        1        1
H        0.00033636      14.48518200      13.04851900      220        1     2770        1        2
H       31.36316300      14.05243100      13.82137400      220        1     2771        1        3
C       31.28224400      15.83651200      12.67113000      220        1     2772        1        4
O       31.44969000      16.71509100      13.51330100      220        1     2773        1        5
N       30.63604200      16.05443900      11.50941200      220        1     2774        1        6
H       30.55732400      15.29366600      10.86059900      220        1     2775        1        7
C       30.08433900      17.34883000      11.13706700      220        1     2776        1        8
H       29.47919600      17.74917900      11.94619600      220        1     2777        1        9
H       29.46260400      17.21960900      10.25606300      220        1     2778        1       10
H       30.87195800      18.06745600      10.91612900      220        1     2779        1       11
C        9.21370700       4.15052100      10.88353900      221        1     2780        1        0
H        8.69707800       3.65957200      10.06156000      221        1     2781        1        1
H        9.84139100       3.42433600      11.39662200      221        1     2782        1        2
H        8.48079700       4.51394300      11.60123000      221        1     2783        1        3
C       10.07606300       5.31082000      10.44681700      221        1     2784        1        4
O       10.71145900       5.96528400      11.26970200      221        1     2785        1        5
N       10.10134900       5.57830400       9.12679000      221        1     2786        1        6
H        9.57376500       4.98622300       8.51276700      221        1     2787        1        7
C       10.88804400       6.65810600       8.54920300      221        1     2788        1        8
H       10.70593300       7.58674600       9.08364700      221        1     2789        1        9
H       10.59705500       6.78086000       7.51012800      221        1     2790        1       10
H       11.95426500       6.44288200       8.59850300      221        1     2791        1       11
C       10.36833400      12.45527800      11.28682900      222        1     2792        1        0
H       10.51031700      13.48781800      11.59873900      222        1     2793        1        1
H       11.25635200      12.11605400      10.75679500      222        1     2794        1        2
H        9.53274300      12.40276900      10.59160000      222        1     2795        1        3
C       10.10026100      11.51015200      12.43380300      222        1     2796        1        4
O        9.91090500      10.31357200      12.23001400      222        1     2797        1        5
N       10.07964900      12.05140500      13.66720400      222        1     2798        1        6
H       10.26498700      13.03294800      13.75750000      222        1     2799        1        7
C        9.84143400      11.27253300      14.87347100      222        1     2800        1        8
H        8.95557200      10.65401600      14.75577000      222        1     2801        1        9
H        9.69176400      11.95682100      15.70339200      222        1     2802        1       10
H       10.68317400      10.61893800      15.09677600      222        1     2803        1       11
C       13.20199600      13.04336800       9.41427600      223        1     2804        1        0
H       13.18504400      13.97510200       9.97567500      223        1     2805        1        1
H       13.35442000      12.21370500      10.10203500      223        1     2806        1        2
H       14.04421700      13.05562400       8.72519900      223        1     2807        1        3
C       11.93881200      12.79108400       8.62599000      223        1     2808        1        4
O       11.82023700      11.78113500       7.93669200      223        1     2809        1        5
N       10.97274700      13.72492800       8.72249500      223        1     2810        1        6
H       11.13269200      14.51244200       9.32263500      223        1     2811        1        7
C        9.69666700      13.62343700       8.02982700      223        1     2812        1        8
H        9.85381600      13.40032600       6.97783200      223        1     2813        1        9
H        9.17739500      14.57298600       8.12002100      223        1     2814        1       10
H        9.07631900      12.83540600       8.45380200      223        1     2815        1       11
C       20.59042500      10.01800600       6.14047800      224        1     2816        1        0
H       21.62967100      10.29508500       6.30412300      224        1     2817        1        1
H       19.97650000      10.44922900       6.92897600      224        1     2818        1        2
H       20.49363700       8.93602200       6.20572000      224        1     2819        1        3
C       20.04875400      10.47004100       4.80521300      224        1     2820        1        4
O       18.89110300      10.21872700       4.47982800      224        1     2821        1        5
N       20.89807800      11.14898800       4.01001600      224        1     2822        1        6
H       21.82190700      11.33580800       4.35289700      224        1     2823        1        7
C       20.52501000      11.65656100       2.69789700      224        1     2824        1        8
H       20.05579000      10.87321900       2.10851000      224        1     2825        1        9
H       21.42282700      11.99652200       2.19018500      224        1     2826        1       10
H       19.82399000      12.48589800       2.77758500      224        1     2827        1       11
C       22.97100800       8.31247800       5.37431400      225        1     2828        1        0
H       22.33949500       8.76505500       4.61277000      225        1     2829        1        1
H       22.34866700       7.74908800       6.06704000      225        1     2830        1        2
H       23.46487800       9.09781500       5.94321800      225        1     2831        1        3
C       24.02579200       7.38914600       4.81256300      225        1     2832        1        4
O       24.81750700       6.81473200       5.55581600      225        1     2833        1        5
N       24.04457800       7.24102100       3.47377100      225        1     2834        1        6
H       23.35216800       7.72519300       2.93332900      225        1     2835        1        7
C       24.99464100       6.38234600       2.78201700      225        1     2836        1        8
H       26.00705300       6.59034100       3.11806400      225        1     2837        1        9
H       24.92487400       6.57729900       1.71592700      225        1     2838        1       10
H       24.78630100       5.32975600       2.96702400      225        1     2839        1       11
C       16.66464400      21.94086700      31.94879600      226        1     2840        1        0
H       16.64349300      21.00389400      31.39632900      226        1     2841        1        1
H       17.25893300      22.66774700      31.39829500      226        1     2842        1        2
H       17.15190700      21.77993100       0.03047836      226        1     2843        1        3
C       15.29464400      22.52594100      32.19672000      226        1     2844        1        4
O       15.16437100      23.57813400      32.81728900      226        1     2845        1        5
N       14.24742900      21.83426700      31.70724400      226        1     2846        1        6
H       14.43321600      20.99433200      31.19156700      226        1     2847        1        7
C       12.86674800      22.26972300      31.85745300      226        1     2848        1        8
H       12.65889900      22.51767400       0.01699336      226        1     2849        1        9
H       12.21278300      21.46075800      31.54548100      226        1     2850        1       10
H       12.65992100      23.15022000      31.25121400      226        1     2851        1       11
C        8.67079900      16.71732500      20.86468400      227        1     2852        1        0
H        9.38911700      16.79428700      21.67812200      227        1     2853        1        1
H        8.82253500      15.77536200      20.34097800      227        1     2854        1        2
H        8.84945000      17.52002400      20.15189300      227        1     2855        1        3
C        7.23297100      16.78985800      21.32082900      227        1     2856        1        4
O        6.31297700      16.72581200      20.50922600      227        1     2857        1        5
N        7.02810500      16.92905300      22.64495600      227        1     2858        1        6
H        7.82855800      16.95180900      23.24885000      227        1     2859        1        7
C        5.70236100      17.00718400      23.24057600      227        1     2860        1        8
H        5.09679300      17.74484800      22.72066600      227        1     2861        1        9
H        5.80709200      17.30007500      24.28108900      227        1     2862        1       10
H        5.18693800      16.04943400      23.18924900      227        1     2863        1       11
C       15.98259600      13.85010800      25.84401100      228        1     2864        1        0
H       15.23048100      14.22030500      25.15056900      228        1     2865        1        1
H       16.95155400      13.83830400      25.34846300      228        1     2866        1        2
H       15.74319100      12.82451000      26.11814100      228        1     2867        1        3
C       16.09584600      14.67171700      27.10607700      228        1     2868        1        4
O       16.89821700      14.36553100      27.98450700      228        1     2869        1        5
N       15.27698300      15.73665200      27.20625200      228        1     2870        1        6
H       14.66358800      15.93707900      26.43845900      228        1     2871        1        7
C       15.27033500      16.62923500      28.35591300      228        1     2872        1        8
H       15.20407500      16.05800000      29.27812100      228        1     2873        1        9
H       14.40854000      17.28565700      28.27949600      228        1     2874        1       10
H       16.17614600      17.23214400      28.39574400      228        1     2875        1       11
C        2.81550600      26.39807400      10.80735000      229        1     2876        1        0
H        2.25026100      27.29036800      10.54678300      229        1     2877        1        1
H        2.14358500      25.54212100      10.82861300      229        1     2878        1        2
H        3.22796700      26.51471700      11.80764200      229        1     2879        1        3
C        3.94660200      26.10023200       9.85205500      229        1     2880        1        4
O        4.67645600      25.12768600      10.02714300      229        1     2881        1        5
N        4.10254400      26.95183200       8.82000900      229        1     2882        1        6
H        3.45385900      27.71143800       8.72980800      229        1     2883        1        7
C        5.14057100      26.79735400       7.81149400      229        1     2884        1        8
H        6.10827700      26.65047900       8.28387200      229        1     2885        1        9
H        5.17162300      27.69831700       7.20591800      229        1     2886        1       10
H        4.94473900      25.94107500       7.16805300      229        1     2887        1       11
C       23.65764100      22.52739000      19.05305900      230        1     2888        1        0
H       24.61289300      23.01698200      19.23019800      230        1     2889        1        1
H       23.57977300      21.65163600      19.69460200      230        1     2890        1        2
H       23.61806000      22.18171300      18.02191700      230        1     2891        1        3
C       22.46616400      23.41972400      19.30761500      230        1     2892        1        4
O       21.32272600      23.00328600      19.13933200      230        1     2893        1        5
N       22.73135300      24.67469300      19.71918300      230        1     2894        1        6
H       23.68989400      24.93639600      19.85570800      230        1     2895        1        7
C       21.69292300      25.65157300      20.01215900      230        1     2896        1        8
H       20.97978400      25.70281300      19.19363900      230        1     2897        1        9
H       22.15898200      26.62394200      20.14141600      230        1     2898        1       10
H       21.14888900      25.39283500      20.91916600      230        1     2899        1       11
C        6.44350600      30.40234400      18.76459700      231        1     2900        1        0
H        6.57632700      29.52899400      19.39958100      231        1     2901        1        1
H        6.39041800      30.08442400      17.72503300      231        1     2902        1        2
H        7.31059200      31.05246600      18.86367200      231        1     2903        1        3
C        5.20353500      31.20101500      19.08905400      231        1     2904        1        4
O        4.93020300      32.21954400      18.45891200      231        1     2905        1        5
N        4.43472700      30.73715900      20.09326100      231        1     2906        1        6
H        4.71027200      29.88640500      20.54737700      231        1     2907        1        7
C        3.20603700      31.38987400      20.52075500      231        1     2908        1        8
H        3.37760800      32.45081500      20.68241600      231        1     2909        1        9
H        2.87806500      30.93515400      21.45085500      231        1     2910        1       10
H        2.41995200      31.28409300      19.77479300      231        1     2911        1       11
C       26.60650600      10.08671700      27.37087400      232        1     2912        1        0
H       27.26818300      10.57420600      28.08370200      232        1     2913        1        1
H       25.72229600       9.72518500      27.89246100      232        1     2914        1        2
H       27.11217100       9.22157200      26.94644500      232        1     2915        1        3
C       26.16624300      10.98847900      26.24230300      232        1     2916        1        4
O       25.42429500      10.56975300      25.35722100      232        1     2917        1        5
N       26.63101700      12.25263200      26.26595300      232        1     2918        1        6
H       27.21513600      12.52885600      27.03304900      232        1     2919        1        7
C       26.29290200      13.24319200      25.25455000      232        1     2920        1        8
H       26.45335800      12.83760700      24.25909900      232        1     2921        1        9
H       26.93030900      14.11139700      25.39366800      232        1     2922        1       10
H       25.25076600      13.54921400      25.33125300      232        1     2923        1       11
C        1.10428700       1.23192900       3.19280700      233        1     2924        1        0
H        1.76951900       1.23598200       4.05364100      233        1     2925        1        1
H        0.33007500       1.98355200       3.33509000      233        1     2926        1        2
H        0.61159400       0.26392900       3.12539800      233        1     2927        1        3
C        1.80837200       1.50572300       1.88514600      233        1     2928        1        4
O        1.18374000       1.52257800       0.82744100      233        1     2929        1        5
N        3.13625900       1.72270300       1.95068400      233        1     2930        1        6
H        3.57403800       1.71512600       2.85302700      233        1     2931        1        7
C        3.95432800       2.00626900       0.78071700      233        1     2932        1        8
H        3.76477200       1.27434200       0.00000000      233        1     2933        1        9
H        5.00009100       1.95786100       1.06960700      233        1     2934        1       10
H        3.74069400       2.99465200       0.37693500      233        1     2935        1       11
C       22.65332700      10.66630800      28.56252900      234        1     2936        1        0
H       23.66706300      10.29309700      28.43354400      234        1     2937        1        1
H       21.95472800       9.97292700      28.09802100      234        1     2938        1        2
H       22.55530800      11.62136000      28.05010000      234        1     2939        1        3
C       22.25873300      10.85306900      30.00824400      234        1     2940        1        4
O       21.14486700      11.27780600      30.30504500      234        1     2941        1        5
N       23.18658500      10.53394200      30.93123100      234        1     2942        1        6
H       24.06643900      10.17203500      30.61372400      234        1     2943        1        7
C       22.95677700      10.65203400      32.36361000      234        1     2944        1        8
H       22.55869700      11.63451100      32.60327300      234        1     2945        1        9
H       23.90305500      10.51458500       0.00047636      234        1     2946        1       10
H       22.24717500       9.90459000      32.71485200      234        1     2947        1       11
C       27.55701700      30.25376100      11.15201700      235        1     2948        1        0
H       27.43167100      30.60223800      10.12906200      235        1     2949        1        1
H       26.58543400      30.22379300      11.64162200      235        1     2950        1        2
H       28.17661300      30.96220300      11.69839100      235        1     2951        1        3
C       28.18933500      28.88582500      11.25000500      235        1     2952        1        4
O       28.40080200      28.36898600      12.34423900      235        1     2953        1        5
N       28.50241000      28.28296400      10.08673300      235        1     2954        1        6
H       28.27946000      28.75743100       9.23168600      235        1     2955        1        7
C       29.11026200      26.96248300      10.01385000      235        1     2956        1        8
H       29.97321800      26.90627600      10.67211600      235        1     2957        1        9
H       29.42882000      26.78405800       8.99105600      235        1     2958        1       10
H       28.40771100      26.18508300      10.30991000      235        1     2959        1       11
C       17.83272100      28.63225900      12.79565700      236        1     2960        1        0
H       16.75137200      28.51429000      12.77683700      236        1     2961        1        1
H       18.18852200      28.50966500      13.81691200      236        1     2962        1        2
H       18.08849400      29.64165500      12.47940800      236        1     2963        1        3
C       18.56203800      27.65085000      11.90931100      236        1     2964        1        4
O       19.78734000      27.67288600      11.82364300      236        1     2965        1        5
N       17.79994600      26.77094100      11.23134900      236        1     2966        1        6
H       16.80686700      26.79901900      11.36896400      236        1     2967        1        7
C       18.35282000      25.75935400      10.34281700      236        1     2968        1        8
H       19.05662900      26.20987700       9.64794300      236        1     2969        1        9
H       17.53873200      25.30724400       9.78399900      236        1     2970        1       10
H       18.87679100      24.98467200      10.90040200      236        1     2971        1       11
C       17.30049600      30.99291700       8.49931400      237        1     2972        1        0
H       17.04903900      32.02709100       8.27384200      237        1     2973        1        1
H       17.68878500      30.93197600       9.51425500      237        1     2974        1        2
H       18.08948200      30.66136900       7.82708600      237        1     2975        1        3
C       16.13068000      30.04629600       8.37237000      237        1     2976        1        4
O       16.26919600      28.84482100       8.58791900      237        1     2977        1        5
N       14.95221700      30.59093900       8.01286100      237        1     2978        1        6
H       14.91088200      31.58355000       7.87521800      237        1     2979        1        7
C       13.73205900      29.81329200       7.85491400      237        1     2980        1        8
H       13.91483500      28.94596300       7.22602500      237        1     2981        1        9
H       12.97940100      30.44134200       7.38749700      237        1     2982        1       10
H       13.35795800      29.46205600       8.81525800      237        1     2983        1       11
C       27.37404100       9.03634500      13.40315300      238        1     2984        1        0
H       27.34087500       9.03734200      12.31573300      238        1     2985        1        1
H       27.45274100       8.01044300      13.75800200      238        1     2986        1        2
H       26.44292900       9.44556000      13.79030400      238        1     2987        1        3
C       28.52354400       9.83348900      13.97226100      238        1     2988        1        4
O       28.68084000       9.92864900      15.18691800      238        1     2989        1        5
N       29.34568100      10.42291800      13.08269800      238        1     2990        1        6
H       29.16676000      10.28211700      12.10592200      238        1     2991        1        7
C       30.50046900      11.21834000      13.47287400      238        1     2992        1        8
H       30.21717300      11.95612600      14.21891800      238        1     2993        1        9
H       30.88276900      11.72807400      12.59342000      238        1     2994        1       10
H       31.28743000      10.59534700      13.89495200      238        1     2995        1       11
C        3.03332600      22.31061100      24.37637500      239        1     2996        1        0
H        2.18302200      22.16602700      23.71330400      239        1     2997        1        1
H        3.03604400      21.52657700      25.13127200      239        1     2998        1        2
H        2.92643100      23.26205300      24.89371900      239        1     2999        1        3
C        4.36400200      22.29784300      23.66236100      239        1     3000        1        4
O        5.41139500      22.45883900      24.28384100      239        1     3001        1        5
N        4.32980900      22.10572400      22.32947700      239        1     3002        1        6
H        3.43817400      21.95931900      21.89418100      239        1     3003        1        7
C        5.52608500      22.06105000      21.50159200      239        1     3004        1        8
H        6.16144700      22.91827200      21.70811800      239        1     3005        1        9
H        5.22585500      22.08195400      20.45811400      239        1     3006        1       10
H        6.10494200      21.15800100      21.68869400      239        1     3007        1       11
C       12.80480200       6.24113300       5.44254600      240        1     3008        1        0
H       12.91606800       5.16195600       5.52367300      240        1     3009        1        1
H       13.24455800       6.71329000       6.31905500      240        1     3010        1        2
H       11.74597600       6.49233300       5.43262800      240        1     3011        1        3
C       13.44903300       6.82269300       4.20665300      240        1     3012        1        4
O       13.39468900       8.02864200       3.97878700      240        1     3013        1        5
N       14.07094200       5.95353200       3.38662400      240        1     3014        1        6
H       14.09316400       4.98601200       3.64995100      240        1     3015        1        7
C       14.74397000       6.35872400       2.16134000      240        1     3016        1        8
H       14.09201900       6.98881200       1.56207700      240        1     3017        1        9
H       14.99859200       5.46753300       1.59533000      240        1     3018        1       10
H       15.65327500       6.91854800       2.37427600      240        1     3019        1       11
C       21.08325500      12.74366000      24.58779700      241        1     3020        1        0
H       21.27572500      12.10033800      23.73183100      241        1     3021        1        1
H       20.48333000      13.59394100      24.26889400      241        1     3022        1        2
H       22.02779900      13.13254000      24.96319400      241        1     3023        1        3
C       20.36704500      12.04461000      25.71874700      241        1     3024        1        4
O       20.09206500      12.64563800      26.75428700      241        1     3025        1        5
N       20.05825400      10.74777300      25.52505100      241        1     3026        1        6
H       20.29514500      10.33030600      24.64440600      241        1     3027        1        7
C       19.36346700       9.93922600      26.51600500      241        1     3028        1        8
H       19.84242400      10.03620000      27.48676000      241        1     3029        1        9
H       19.39954900       8.90024100      26.20195300      241        1     3030        1       10
H       18.32363300      10.24511400      26.61972200      241        1     3031        1       11
C       26.92194400      18.75573400      23.41708100      242        1     3032        1        0
H       27.47389300      19.03168800      22.52109800      242        1     3033        1        1
H       25.85562300      18.77075300      23.19954700      242        1     3034        1        2
H       27.10745700      19.49489100      24.19396300      242        1     3035        1        3
C       27.28597700      17.39181600      23.95363000      242        1     3036        1        4
O       26.74875100      16.95212800      24.96716400      242        1     3037        1        5
N       28.21886000      16.70438200      23.26673600      242        1     3038        1        6
H       28.59707300      17.11897400      22.43547200      242        1     3039        1        7
C       28.67176000      15.37586900      23.65196700      242        1     3040        1        8
H       28.93909600      15.35783000      24.70523500      242        1     3041        1        9
H       29.54432600      15.12172700      23.05744200      242        1     3042        1       10
H       27.89703000      14.62883100      23.48671900      242        1     3043        1       11
C       29.02683700      32.02548500      17.55655500      243        1     3044        1        0
H       29.11508900      32.37534300      16.53020400      243        1     3045        1        1
H       28.99612600       0.00524436      18.22580500      243        1     3046        1        2
H       29.90892700      31.44209400      17.81323900      243        1     3047        1        3
C       27.80117200      31.17791300      17.80159100      243        1     3048        1        4
O       27.57657700      30.70565600      18.91322100      243        1     3049        1        5
N       26.98921500      30.97485400      16.74605800      243        1     3050        1        6
H       27.22619900      31.41116300      15.87462100      243        1     3051        1        7
C       25.76748500      30.18745700      16.82253900      243        1     3052        1        8
H       25.96462900      29.22774300      17.29291200      243        1     3053        1        9
H       25.39848600      30.02228100      15.81458200      243        1     3054        1       10
H       25.00164300      30.69826400      17.40403800      243        1     3055        1       11
C       24.33445900      19.36224000      27.75616800      244        1     3056        1        0
H       23.72618600      19.68866500      26.91531300      244        1     3057        1        1
H       23.77130900      19.49446900      28.67810300      244        1     3058        1        2
H       25.22107800      19.98985400      27.82189700      244        1     3059        1        3
C       24.77177100      17.91993600      27.66029000      244        1     3060        1        4
O       25.47212500      17.41688000      28.53529300      244        1     3061        1        5
N       24.35643700      17.23604500      26.57657000      244        1     3062        1        6
H       23.76815300      17.70748500      25.91505900      244        1     3063        1        7
C       24.68801700      15.83816300      26.34323400      244        1     3064        1        8
H       25.75650500      15.67795600      26.46085900      244        1     3065        1        9
H       24.39711600      15.57793300      25.32978500      244        1     3066        1       10
H       24.16893400      15.18484900      27.04274400      244        1     3067        1       11
C        6.78418100      26.15130700      19.00459300      245        1     3068        1        0
H        6.82436500      26.18628500      17.91797100      245        1     3069        1        1
H        5.74866600      26.24045900      19.32762100      245        1     3070        1        2
H        7.32764100      27.00220400      19.41072000      245        1     3071        1        3
C        7.36495900      24.88576800      19.58921400      245        1     3072        1        4
O        7.39538300      24.71233700      20.80502100      245        1     3073        1        5
N        7.83966000      23.98037000      18.71196100      245        1     3074        1        6
H        7.76036700      24.18206100      17.73269400      245        1     3075        1        7
C        8.42343700      22.71029500      19.11764700      245        1     3076        1        8
H        9.17402500      22.86760600      19.88773700      245        1     3077        1        9
H        8.89102000      22.25182200      18.25128100      245        1     3078        1       10
H        7.66755100      22.03473400      19.51492900      245        1     3079        1       11
C       13.48932500       9.99058600      13.91565400      246        1     3080        1        0
H       14.31349500       9.32690500      14.16835100      246        1     3081        1        1
H       13.78732600      11.01995500      14.10586700      246        1     3082        1        2
H       12.64158900       9.77104900      14.56176600      246        1     3083        1        3
C       13.04128900       9.87555100      12.47805000      246        1     3084        1        4
O       12.11279800      10.55873300      12.05336300      246        1     3085        1        5
N       13.70812900       8.99341500      11.70875300      246        1     3086        1        6
H       14.47002000       8.48684800      12.11965700      246        1     3087        1        7
C       13.40055300       8.77219000      10.30343400      246        1     3088        1        8
H       12.33480600       8.60541100      10.17100900      246        1     3089        1        9
H       13.94430500       7.89555000       9.96393900      246        1     3090        1       10
H       13.68723400       9.62824400       9.69469400      246        1     3091        1       11
C       20.54842300      19.65340100       7.12567300      247        1     3092        1        0
H       20.95848400      19.06932300       6.30452300      247        1     3093        1        1
H       21.35965700      20.16134800       7.64382000      247        1     3094        1        2
H       20.07344300      18.98337200       7.83965300      247        1     3095        1        3
C       19.53613600      20.68425800       6.68603300      247        1     3096        1        4
O       18.98268600      21.41075500       7.50766900      247        1     3097        1        5
N       19.28222900      20.75292700       5.36486900      247        1     3098        1        6
H       19.78951700      20.14210100       4.75210400      247        1     3099        1        7
C       18.33859200      21.69697000       4.78452400      247        1     3100        1        8
H       17.39037700      21.65821800       5.31419700      247        1     3101        1        9
H       18.17785200      21.43034900       3.74409300      247        1     3102        1       10
H       18.71439600      22.71751700       4.83776900      247        1     3103        1       11
C       21.13284900      22.28316900      32.07931500      248        1     3104        1        0
H       20.29018700      22.85358700      32.46418900      248        1     3105        1        1
H       20.78416300      21.30490300      31.75373800      248        1     3106        1        2
H       21.85293300      22.12379300       0.00156136      248        1     3107        1        3
C       21.83766700      22.95347800      30.92407000      248        1     3108        1        4
O       22.81382900      22.42837000      30.39439100      248        1     3109        1        5
N       21.34041300      24.13915500      30.52211600      248        1     3110        1        6
H       20.52692100      24.49490600      30.98859600      248        1     3111        1        7
C       21.90344300      24.90503000      29.41989100      248        1     3112        1        8
H       22.97866100      25.00749800      29.54061500      248        1     3113        1        9
H       21.44873800      25.89125900      29.41583300      248        1     3114        1       10
H       21.71505600      24.42091400      28.46295700      248        1     3115        1       11
C       23.30867300      17.08585600      10.60889300      249        1     3116        1        0
H       24.26092300      16.69869700      10.25264500      249        1     3117        1        1
H       22.55865100      16.96421900       9.82962500      249        1     3118        1        2
H       23.40622100      18.15183300      10.80508600      249        1     3119        1        3
C       22.81408400      16.40859700      11.86483100      249        1     3120        1        4
O       21.75554400      16.74970300      12.38668300      249        1     3121        1        5
N       23.59191100      15.43007300      12.36695900      249        1     3122        1        6
H       24.43177600      15.19154500      11.87333900      249        1     3123        1        7
C       23.25017600      14.67903900      13.56597300      249        1     3124        1        8
H       22.98650900      15.35604000      14.37425300      249        1     3125        1        9
H       24.11203100      14.08809500      13.86162700      249        1     3126        1       10
H       22.40490300      14.01527900      13.39128800      249        1     3127        1       11
C       25.84935700      24.32563100      22.98888600      250        1     3128        1        0
H       25.89615200      24.00959900      24.02884700      250        1     3129        1        1
H       26.13793700      25.37277200      22.91958000      250        1     3130        1        2
H       24.82304300      24.24541300      22.63595900      250        1     3131        1        3
C       26.73789100      23.51839000      22.07261900      250        1     3132        1        4
O       26.77991600      23.75730700      20.86831700      250        1     3133        1        5
N       27.46333200      22.53934700      22.64696000      250        1     3134        1        6
H       27.39360000      22.41779000      23.64008200      250        1     3135        1        7
C       28.37042400      21.67970400      21.90086000      250        1     3136        1        8
H       27.87008000      21.26852700      21.02807300      250        1     3137        1        9
H       28.68699700      20.86656600      22.54739700      250        1     3138        1       10
H       29.24759300      22.22800500      21.56097700      250        1     3139        1       11
C        4.15590500      10.54903500      25.26533600      251        1     3140        1        0
H        3.80171800      11.55431500      25.48339200      251        1     3141        1        1
H        5.24069800      10.52531300      25.35047200      251        1     3142        1        2
H        3.90309400      10.29520200      24.23773300      251        1     3143        1        3
C        3.57689800       9.49432000      26.17802700      251        1     3144        1        4
O        3.88041800       8.31165500      26.04249900      251        1     3145        1        5
N        2.72298700       9.92321700      27.12752200      251        1     3146        1        6
H        2.54015800      10.90730500      27.19136900      251        1     3147        1        7
C        2.08738800       9.03186300      28.08667200      251        1     3148        1        8
H        1.63478600       8.18639800      27.57529200      251        1     3149        1        9
H        1.31604000       9.58478700      28.61460900      251        1     3150        1       10
H        2.80673200       8.64587200      28.80718200      251        1     3151        1       11
C       12.81634600       3.65564700      11.74444900      252        1     3152        1        0
H       13.20688700       4.33071400      10.98593300      252        1     3153        1        1
H       11.93192000       4.09951000      12.19761800      252        1     3154        1        2
H       13.55895700       3.53167800      12.53024400      252        1     3155        1        3
C       12.45112000       2.29204300      11.20791500      252        1     3156        1        4
O       12.00584200       1.42288100      11.95321700      252        1     3157        1        5
N       12.64316400       2.09299000       9.88952400      252        1     3158        1        6
H       12.98965300       2.85717800       9.34007600      252        1     3159        1        7
C       12.33409100       0.83726300       9.22162300      252        1     3160        1        8
H       12.77391400       0.00305700       9.76183100      252        1     3161        1        9
H       12.74546300       0.86913800       8.21704500      252        1     3162        1       10
H       11.25933000       0.67305000       9.16243800      252        1     3163        1       11
C       14.92368700      19.06473900      19.80978700      253        1     3164        1        0
H       15.51646000      18.24861900      20.21740700      253        1     3165        1        1
H       15.24854700      19.26928800      18.79135100      253        1     3166        1        2
H       15.10115200      19.96408600      20.39629800      253        1     3167        1        3
C       13.43985900      18.78413300      19.79598800      253        1     3168        1        4
O       12.64674100      19.62078300      19.37152300      253        1     3169        1        5
N       13.04975700      17.58543600      20.27096600      253        1     3170        1        6
H       13.75689100      16.94491900      20.58020700      253        1     3171        1        7
C       11.65751700      17.16365400      20.31822700      253        1     3172        1        8
H       11.04485800      17.93207400      20.78228200      253        1     3173        1        9
H       11.59180000      16.25183900      20.90448300      253        1     3174        1       10
H       11.26553600      16.97548700      19.31996600      253        1     3175        1       11
C       26.86799100      10.40278800       3.78464500      254        1     3176        1        0
H       26.30495800      10.59232100       2.87324200      254        1     3177        1        1
H       27.65487600       9.68047600       3.57569100      254        1     3178        1        2
H       26.20767200       9.96079200       4.52823900      254        1     3179        1        3
C       27.49560300      11.64312900       4.37484400      254        1     3180        1        4
O       28.15360200      11.58166700       5.41043500      254        1     3181        1        5
N       27.29006900      12.79628900       3.70953500      254        1     3182        1        6
H       26.76036800      12.76481400       2.85844400      254        1     3183        1        7
C       27.83333300      14.07400300       4.14631900      254        1     3184        1        8
H       27.61122900      14.24030100       5.19712000      254        1     3185        1        9
H       27.37840000      14.86364800       3.55562700      254        1     3186        1       10
H       28.91411100      14.11026500       4.01910700      254        1     3187        1       11
C       28.55049400      17.94597200      29.74553600      255        1     3188        1        0
H       28.69416400      18.48846300      28.81352300      255        1     3189        1        1
H       29.51993300      17.75625700      30.20246500      255        1     3190        1        2
H       28.09546100      16.98080500      29.53173600      255        1     3191        1        3
C       27.68226300      18.67737400      30.74147800      255        1     3192        1        4
O       27.42610300      18.18004000      31.83520100      255        1     3193        1        5
N       27.21456100      19.88212400      30.36135700      255        1     3194        1        6
H       27.48437500      20.23316700      29.46141300      255        1     3195        1        7
C       26.37181600      20.71177800      31.20983900      255        1     3196        1        8
H       25.54200200      20.13050800      31.60315900      255        1     3197        1        9
H       25.98271300      21.53254800      30.61456100      255        1     3198        1       10
H       26.93144600      21.11537900      32.05215800      255        1     3199        1       11
